TimeStep;Np;Nbound;Nfixed;Nmoving;Nfloat;Nfluid
5.50046;608;165;165;0;0;443

Pos.x;Pos.y;Pos.z;Idp;Vel.x;Vel.y;Vel.z;Rhop;Mass;Press;Type;Acec.x;Acec.y;Acec.z;AceVisc.x;AceVisc.y;AceVisc.z;CellOffSpring;GradVel;Qfxx;Qfxy;Qfxz;Qfyy;Qfyz;Qfzz;StrainDot.x;StrainDot.y;StrainDot.z;VonMises3D;
 -1.0000000E+00;  9.9999998E-03; -2.0000000E+00;0;  0.0000000E+00;  0.0000000E+00;  0.0000000E+00;  1.0000000E+01;  4.0000001E-01;  0.0000000E+00;0;  0.0000000E+00;  0.0000000E+00;  0.0000000E+00;  0.0000000E+00;  0.0000000E+00;  0.0000000E+00;0; -1.2615840E-07;  1.0000000E+02;  0.0000000E+00;  0.0000000E+00;  1.0000000E+02;  0.0000000E+00;  1.0000000E+02;  1.7949290E-07;  0.0000000E+00; -3.0565130E-07;  0.0000000E+00;
 -8.0000001E-01;  9.9999998E-03; -2.0000000E+00;21;  0.0000000E+00;  0.0000000E+00;  0.0000000E+00;  1.0000000E+01;  4.0000001E-01;  0.0000000E+00;0;  0.0000000E+00;  0.0000000E+00;  0.0000000E+00;  0.0000000E+00;  0.0000000E+00;  0.0000000E+00;0; -1.1332889E-07;  1.0000000E+02;  0.0000000E+00;  0.0000000E+00;  1.0000000E+02;  0.0000000E+00;  1.0000000E+02;  6.1845725E-07;  0.0000000E+00; -7.3178614E-07;  0.0000000E+00;
 -6.0000002E-01;  9.9999998E-03; -2.0000000E+00;42;  0.0000000E+00;  0.0000000E+00;  0.0000000E+00;  1.0000000E+01;  4.0000001E-01;  0.0000000E+00;0;  0.0000000E+00;  0.0000000E+00;  0.0000000E+00;  0.0000000E+00;  0.0000000E+00;  0.0000000E+00;0;  1.7209447E-07;  1.0000000E+02;  0.0000000E+00;  0.0000000E+00;  1.0000000E+02;  0.0000000E+00;  1.0000000E+02;  1.2499501E-06;  0.0000000E+00; -1.0778556E-06;  0.0000000E+00;
 -4.0000001E-01;  9.9999998E-03; -2.0000000E+00;63;  0.0000000E+00;  0.0000000E+00;  0.0000000E+00;  1.0000092E+01;  4.0000001E-01;  9.8762596E-03;0;  0.0000000E+00;  0.0000000E+00;  0.0000000E+00;  0.0000000E+00;  0.0000000E+00;  0.0000000E+00;0;  1.1605082E-06;  1.0000000E+02;  0.0000000E+00;  0.0000000E+00;  1.0000000E+02;  0.0000000E+00;  1.0000000E+02;  1.9928414E-06;  0.0000000E+00; -8.3233311E-07;  0.0000000E+00;
 -2.0000000E-01;  9.9999998E-03; -2.0000000E+00;84;  0.0000000E+00;  0.0000000E+00;  0.0000000E+00;  1.0000140E+01;  4.0000001E-01;  1.5135042E-02;0;  0.0000000E+00;  0.0000000E+00;  0.0000000E+00;  0.0000000E+00;  0.0000000E+00;  0.0000000E+00;0;  4.5821216E-06;  1.0000000E+02;  0.0000000E+00;  0.0000000E+00;  1.0000000E+02;  0.0000000E+00;  1.0000000E+02;  4.0734658E-06;  0.0000000E+00;  5.0865577E-07;  0.0000000E+00;
  0.0000000E+00;  9.9999998E-03; -2.0000000E+00;105;  0.0000000E+00;  0.0000000E+00;  0.0000000E+00;  1.0000150E+01;  4.0000001E-01;  1.6161138E-02;0;  0.0000000E+00;  0.0000000E+00;  0.0000000E+00;  0.0000000E+00;  0.0000000E+00;  0.0000000E+00;0;  1.3924844E-05;  1.0000000E+02;  0.0000000E+00;  0.0000000E+00;  1.0000000E+02;  0.0000000E+00;  1.0000000E+02;  1.0958561E-05;  0.0000000E+00;  2.9662829E-06;  0.0000000E+00;
  2.0000000E-01;  9.9999998E-03; -2.0000000E+00;115;  0.0000000E+00;  0.0000000E+00;  0.0000000E+00;  1.0000000E+01;  4.0000001E-01;  0.0000000E+00;0;  0.0000000E+00;  0.0000000E+00;  0.0000000E+00;  0.0000000E+00;  0.0000000E+00;  0.0000000E+00;0;  3.4587720E-05;  1.0000000E+02;  0.0000000E+00;  0.0000000E+00;  1.0000000E+02;  0.0000000E+00;  1.0000000E+02;  2.8989372E-05;  0.0000000E+00;  5.5983483E-06;  0.0000000E+00;
  4.0000001E-01;  9.9999998E-03; -2.0000000E+00;125;  0.0000000E+00;  0.0000000E+00;  0.0000000E+00;  1.0000000E+01;  4.0000001E-01;  0.0000000E+00;0;  0.0000000E+00;  0.0000000E+00;  0.0000000E+00;  0.0000000E+00;  0.0000000E+00;  0.0000000E+00;0;  7.5175420E-05;  1.0000000E+02;  0.0000000E+00;  0.0000000E+00;  1.0000000E+02;  0.0000000E+00;  1.0000000E+02;  6.8443580E-05;  0.0000000E+00;  6.7318401E-06;  0.0000000E+00;
  6.0000002E-01;  9.9999998E-03; -2.0000000E+00;135;  0.0000000E+00;  0.0000000E+00;  0.0000000E+00;  1.0000000E+01;  4.0000001E-01;  0.0000000E+00;0;  0.0000000E+00;  0.0000000E+00;  0.0000000E+00;  0.0000000E+00;  0.0000000E+00;  0.0000000E+00;0;  1.4681320E-04;  1.0000000E+02;  0.0000000E+00;  0.0000000E+00;  1.0000000E+02;  0.0000000E+00;  1.0000000E+02;  1.4212182E-04;  0.0000000E+00;  4.6913742E-06;  0.0000000E+00;
  8.0000001E-01;  9.9999998E-03; -2.0000000E+00;145;  0.0000000E+00;  0.0000000E+00;  0.0000000E+00;  1.0000000E+01;  4.0000001E-01;  0.0000000E+00;0;  0.0000000E+00;  0.0000000E+00;  0.0000000E+00;  0.0000000E+00;  0.0000000E+00;  0.0000000E+00;0;  2.5320746E-04;  1.0000000E+02;  0.0000000E+00;  0.0000000E+00;  1.0000000E+02;  0.0000000E+00;  1.0000000E+02;  2.5522537E-04;  0.0000000E+00; -2.0179170E-06;  0.0000000E+00;
  1.0000000E+00;  9.9999998E-03; -2.0000000E+00;155;  0.0000000E+00;  0.0000000E+00;  0.0000000E+00;  1.0000000E+01;  4.0000001E-01;  0.0000000E+00;0;  0.0000000E+00;  0.0000000E+00;  0.0000000E+00;  0.0000000E+00;  0.0000000E+00;  0.0000000E+00;0;  3.7013876E-04;  1.0000000E+02;  0.0000000E+00;  0.0000000E+00;  1.0000000E+02;  0.0000000E+00;  1.0000000E+02;  3.8517485E-04;  0.0000000E+00; -1.5036095E-05;  0.0000000E+00;
 -1.0000000E+00;  9.9999998E-03; -1.8000000E+00;1;  0.0000000E+00;  0.0000000E+00;  0.0000000E+00;  1.0000000E+01;  4.0000001E-01;  0.0000000E+00;0;  0.0000000E+00;  0.0000000E+00;  0.0000000E+00;  0.0000000E+00;  0.0000000E+00;  0.0000000E+00;0; -1.8849374E-07;  1.0000000E+02;  0.0000000E+00;  0.0000000E+00;  1.0000000E+02;  0.0000000E+00;  1.0000000E+02;  6.4536090E-07;  0.0000000E+00; -8.3385464E-07;  0.0000000E+00;
 -1.0000000E+00;  9.9999998E-03; -1.6000000E+00;2;  0.0000000E+00;  0.0000000E+00;  0.0000000E+00;  1.0000038E+01;  4.0000001E-01;  4.1044205E-03;0;  0.0000000E+00;  0.0000000E+00;  0.0000000E+00;  0.0000000E+00;  0.0000000E+00;  0.0000000E+00;0;  2.8240981E-07;  1.0000000E+02;  0.0000000E+00;  0.0000000E+00;  1.0000000E+02;  0.0000000E+00;  1.0000000E+02;  1.6722324E-06;  0.0000000E+00; -1.3898226E-06;  0.0000000E+00;
 -1.0000000E+00;  9.9999998E-03; -1.4000000E+00;3;  0.0000000E+00;  0.0000000E+00;  0.0000000E+00;  1.0000267E+01;  4.0000001E-01;  2.8730944E-02;0;  0.0000000E+00;  0.0000000E+00;  0.0000000E+00;  0.0000000E+00;  0.0000000E+00;  0.0000000E+00;0;  1.8911597E-06;  1.0000000E+02;  0.0000000E+00;  0.0000000E+00;  1.0000000E+02;  0.0000000E+00;  1.0000000E+02;  3.6272029E-06;  0.0000000E+00; -1.7360431E-06;  0.0000000E+00;
 -1.0000000E+00;  9.9999998E-03; -1.2000000E+00;4;  0.0000000E+00;  0.0000000E+00;  0.0000000E+00;  1.0000500E+01;  4.0000001E-01;  5.3742256E-02;0;  0.0000000E+00;  0.0000000E+00;  0.0000000E+00;  0.0000000E+00;  0.0000000E+00;  0.0000000E+00;0;  5.1950956E-06;  1.0000000E+02;  0.0000000E+00;  0.0000000E+00;  1.0000000E+02;  0.0000000E+00;  1.0000000E+02;  6.9241764E-06;  0.0000000E+00; -1.7290810E-06;  0.0000000E+00;
 -1.0000000E+00;  9.9999998E-03; -1.0000000E+00;5;  0.0000000E+00;  0.0000000E+00;  0.0000000E+00;  1.0000754E+01;  4.0000001E-01;  8.1190571E-02;0;  0.0000000E+00;  0.0000000E+00;  0.0000000E+00;  0.0000000E+00;  0.0000000E+00;  0.0000000E+00;0;  1.0526776E-05;  1.0000000E+02;  0.0000000E+00;  0.0000000E+00;  1.0000000E+02;  0.0000000E+00;  1.0000000E+02;  1.1834044E-05;  0.0000000E+00; -1.3072678E-06;  0.0000000E+00;
 -1.0000000E+00;  9.9999998E-03; -8.0000001E-01;6;  0.0000000E+00;  0.0000000E+00;  0.0000000E+00;  1.0001022E+01;  4.0000001E-01;  1.1004978E-01;0;  0.0000000E+00;  0.0000000E+00;  0.0000000E+00;  0.0000000E+00;  0.0000000E+00;  0.0000000E+00;0;  1.7774066E-05;  1.0000000E+02;  0.0000000E+00;  0.0000000E+00;  1.0000000E+02;  0.0000000E+00;  1.0000000E+02;  1.8266826E-05;  0.0000000E+00; -4.9276099E-07;  0.0000000E+00;
 -1.0000000E+00;  9.9999998E-03; -6.0000002E-01;7;  0.0000000E+00;  0.0000000E+00;  0.0000000E+00;  1.0000603E+01;  4.0000001E-01;  6.4901151E-02;0;  0.0000000E+00;  0.0000000E+00;  0.0000000E+00;  0.0000000E+00;  0.0000000E+00;  0.0000000E+00;0;  2.6142648E-05;  1.0000000E+02;  0.0000000E+00;  0.0000000E+00;  1.0000000E+02;  0.0000000E+00;  1.0000000E+02;  2.5572877E-05;  0.0000000E+00;  5.6977029E-07;  0.0000000E+00;
 -1.0000000E+00;  9.9999998E-03; -4.0000001E-01;8;  0.0000000E+00;  0.0000000E+00;  0.0000000E+00;  1.0000317E+01;  4.0000001E-01;  3.4117997E-02;0;  0.0000000E+00;  0.0000000E+00;  0.0000000E+00;  0.0000000E+00;  0.0000000E+00;  0.0000000E+00;0;  3.4132623E-05;  1.0000000E+02;  0.0000000E+00;  0.0000000E+00;  1.0000000E+02;  0.0000000E+00;  1.0000000E+02;  3.2524251E-05;  0.0000000E+00;  1.6083712E-06;  0.0000000E+00;
 -1.0000000E+00;  9.9999998E-03; -2.0000000E-01;9;  0.0000000E+00;  0.0000000E+00;  0.0000000E+00;  1.0000344E+01;  4.0000001E-01;  3.7068047E-02;0;  0.0000000E+00;  0.0000000E+00;  0.0000000E+00;  0.0000000E+00;  0.0000000E+00;  0.0000000E+00;0;  3.9932216E-05;  1.0000000E+02;  0.0000000E+00;  0.0000000E+00;  1.0000000E+02;  0.0000000E+00;  1.0000000E+02;  3.7590962E-05;  0.0000000E+00;  2.3412545E-06;  0.0000000E+00;
 -8.0000001E-01;  9.9999998E-03; -1.8000000E+00;22;  0.0000000E+00;  0.0000000E+00;  0.0000000E+00;  1.0000087E+01;  4.0000001E-01;  9.3632098E-03;0;  0.0000000E+00;  0.0000000E+00;  0.0000000E+00;  0.0000000E+00;  0.0000000E+00;  0.0000000E+00;0;  1.8459900E-07;  1.0000000E+02;  0.0000000E+00;  0.0000000E+00;  1.0000000E+02;  0.0000000E+00;  1.0000000E+02;  1.8200772E-06;  0.0000000E+00; -1.6354782E-06;  0.0000000E+00;
 -8.0000001E-01;  9.9999998E-03; -1.6000000E+00;23;  0.0000000E+00;  0.0000000E+00;  0.0000000E+00;  1.0000361E+01;  4.0000001E-01;  3.8863733E-02;0;  0.0000000E+00;  0.0000000E+00;  0.0000000E+00;  0.0000000E+00;  0.0000000E+00;  0.0000000E+00;0;  1.6352162E-06;  1.0000000E+02;  0.0000000E+00;  0.0000000E+00;  1.0000000E+02;  0.0000000E+00;  1.0000000E+02;  4.0928862E-06;  0.0000000E+00; -2.4576700E-06;  0.0000000E+00;
 -8.0000001E-01;  9.9999998E-03; -1.4000000E+00;24;  0.0000000E+00;  0.0000000E+00;  0.0000000E+00;  1.0000714E+01;  4.0000001E-01;  7.6829620E-02;0;  0.0000000E+00;  0.0000000E+00;  0.0000000E+00;  0.0000000E+00;  0.0000000E+00;  0.0000000E+00;0;  5.1277957E-06;  1.0000000E+02;  0.0000000E+00;  0.0000000E+00;  1.0000000E+02;  0.0000000E+00;  1.0000000E+02;  8.0124109E-06;  0.0000000E+00; -2.8846152E-06;  0.0000000E+00;
 -8.0000001E-01;  9.9999998E-03; -1.2000000E+00;25;  0.0000000E+00;  0.0000000E+00;  0.0000000E+00;  1.0001216E+01;  4.0000001E-01;  1.3082841E-01;0;  0.0000000E+00;  0.0000000E+00;  0.0000000E+00;  0.0000000E+00;  0.0000000E+00;  0.0000000E+00;0;  1.1468808E-05;  1.0000000E+02;  0.0000000E+00;  0.0000000E+00;  1.0000000E+02;  0.0000000E+00;  1.0000000E+02;  1.4269808E-05;  0.0000000E+00; -2.8009997E-06;  0.0000000E+00;
 -8.0000001E-01;  9.9999998E-03; -1.0000000E+00;26;  0.0000000E+00;  0.0000000E+00;  0.0000000E+00;  1.0001728E+01;  4.0000001E-01;  1.8598156E-01;0;  0.0000000E+00;  0.0000000E+00;  0.0000000E+00;  0.0000000E+00;  0.0000000E+00;  0.0000000E+00;0;  2.1132388E-05;  1.0000000E+02;  0.0000000E+00;  0.0000000E+00;  1.0000000E+02;  0.0000000E+00;  1.0000000E+02;  2.3269436E-05;  0.0000000E+00; -2.1370490E-06;  0.0000000E+00;
 -8.0000001E-01;  9.9999998E-03; -8.0000001E-01;27;  0.0000000E+00;  0.0000000E+00;  0.0000000E+00;  1.0001305E+01;  4.0000001E-01;  1.4031988E-01;0;  0.0000000E+00;  0.0000000E+00;  0.0000000E+00;  0.0000000E+00;  0.0000000E+00;  0.0000000E+00;0;  3.3977904E-05;  1.0000000E+02;  0.0000000E+00;  0.0000000E+00;  1.0000000E+02;  0.0000000E+00;  1.0000000E+02;  3.4850997E-05;  0.0000000E+00; -8.7309377E-07;  0.0000000E+00;
 -8.0000001E-01;  9.9999998E-03; -6.0000002E-01;28;  0.0000000E+00;  0.0000000E+00;  0.0000000E+00;  1.0001641E+01;  4.0000001E-01;  1.7661835E-01;0;  0.0000000E+00;  0.0000000E+00;  0.0000000E+00;  0.0000000E+00;  0.0000000E+00;  0.0000000E+00;0;  4.8825412E-05;  1.0000000E+02;  0.0000000E+00;  0.0000000E+00;  1.0000000E+02;  0.0000000E+00;  1.0000000E+02;  4.7960562E-05;  0.0000000E+00;  8.6484971E-07;  0.0000000E+00;
 -8.0000001E-01;  9.9999998E-03; -4.0000001E-01;29;  0.0000000E+00;  0.0000000E+00;  0.0000000E+00;  1.0001822E+01;  4.0000001E-01;  1.9611435E-01;0;  0.0000000E+00;  0.0000000E+00;  0.0000000E+00;  0.0000000E+00;  0.0000000E+00;  0.0000000E+00;0;  6.3196210E-05;  1.0000000E+02;  0.0000000E+00;  0.0000000E+00;  1.0000000E+02;  0.0000000E+00;  1.0000000E+02;  6.0477036E-05;  0.0000000E+00;  2.7191747E-06;  0.0000000E+00;
 -8.0000001E-01;  9.9999998E-03; -2.0000000E-01;30;  0.0000000E+00;  0.0000000E+00;  0.0000000E+00;  1.0001315E+01;  4.0000001E-01;  1.4147425E-01;0;  0.0000000E+00;  0.0000000E+00;  0.0000000E+00;  0.0000000E+00;  0.0000000E+00;  0.0000000E+00;0;  7.3763484E-05;  1.0000000E+02;  0.0000000E+00;  0.0000000E+00;  1.0000000E+02;  0.0000000E+00;  1.0000000E+02;  6.9595815E-05;  0.0000000E+00;  4.1676708E-06;  0.0000000E+00;
 -6.0000002E-01;  9.9999998E-03; -1.8000000E+00;43;  0.0000000E+00;  0.0000000E+00;  0.0000000E+00;  1.0000278E+01;  4.0000001E-01;  3.0013572E-02;0;  0.0000000E+00;  0.0000000E+00;  0.0000000E+00;  0.0000000E+00;  0.0000000E+00;  0.0000000E+00;0;  1.0780257E-06;  1.0000000E+02;  0.0000000E+00;  0.0000000E+00;  1.0000000E+02;  0.0000000E+00;  1.0000000E+02;  3.1686536E-06;  0.0000000E+00; -2.0906280E-06;  0.0000000E+00;
 -6.0000002E-01;  9.9999998E-03; -1.6000000E+00;44;  0.0000000E+00;  0.0000000E+00;  0.0000000E+00;  1.0000634E+01;  4.0000001E-01;  6.8235986E-02;0;  0.0000000E+00;  0.0000000E+00;  0.0000000E+00;  0.0000000E+00;  0.0000000E+00;  0.0000000E+00;0;  3.7629591E-06;  1.0000000E+02;  0.0000000E+00;  0.0000000E+00;  1.0000000E+02;  0.0000000E+00;  1.0000000E+02;  6.7693795E-06;  0.0000000E+00; -3.0064205E-06;  0.0000000E+00;
 -6.0000002E-01;  9.9999998E-03; -1.4000000E+00;45;  0.0000000E+00;  0.0000000E+00;  0.0000000E+00;  1.0001203E+01;  4.0000001E-01;  1.2941749E-01;0;  0.0000000E+00;  0.0000000E+00;  0.0000000E+00;  0.0000000E+00;  0.0000000E+00;  0.0000000E+00;0;  9.0622407E-06;  1.0000000E+02;  0.0000000E+00;  0.0000000E+00;  1.0000000E+02;  0.0000000E+00;  1.0000000E+02;  1.2609434E-05;  0.0000000E+00; -3.5471928E-06;  0.0000000E+00;
 -6.0000002E-01;  9.9999998E-03; -1.2000000E+00;46;  0.0000000E+00;  0.0000000E+00;  0.0000000E+00;  1.0001933E+01;  4.0000001E-01;  2.0804279E-01;0;  0.0000000E+00;  0.0000000E+00;  0.0000000E+00;  0.0000000E+00;  0.0000000E+00;  0.0000000E+00;0;  1.7673774E-05;  1.0000000E+02;  0.0000000E+00;  0.0000000E+00;  1.0000000E+02;  0.0000000E+00;  1.0000000E+02;  2.1240028E-05;  0.0000000E+00; -3.5662538E-06;  0.0000000E+00;
 -6.0000002E-01;  9.9999998E-03; -1.0000000E+00;47;  0.0000000E+00;  0.0000000E+00;  0.0000000E+00;  1.0001881E+01;  4.0000001E-01;  2.0239921E-01;0;  0.0000000E+00;  0.0000000E+00;  0.0000000E+00;  0.0000000E+00;  0.0000000E+00;  0.0000000E+00;0;  3.0049478E-05;  1.0000000E+02;  0.0000000E+00;  0.0000000E+00;  1.0000000E+02;  0.0000000E+00;  1.0000000E+02;  3.2936256E-05;  0.0000000E+00; -2.8867776E-06;  0.0000000E+00;
 -6.0000002E-01;  9.9999998E-03; -8.0000001E-01;48;  0.0000000E+00;  0.0000000E+00;  0.0000000E+00;  1.0002529E+01;  4.0000001E-01;  2.7217436E-01;0;  0.0000000E+00;  0.0000000E+00;  0.0000000E+00;  0.0000000E+00;  0.0000000E+00;  0.0000000E+00;0;  4.6088404E-05;  1.0000000E+02;  0.0000000E+00;  0.0000000E+00;  1.0000000E+02;  0.0000000E+00;  1.0000000E+02;  4.7454854E-05;  0.0000000E+00; -1.3664512E-06;  0.0000000E+00;
 -6.0000002E-01;  9.9999998E-03; -6.0000002E-01;49;  0.0000000E+00;  0.0000000E+00;  0.0000000E+00;  1.0003073E+01;  4.0000001E-01;  3.3066234E-01;0;  0.0000000E+00;  0.0000000E+00;  0.0000000E+00;  0.0000000E+00;  0.0000000E+00;  0.0000000E+00;0;  6.4725988E-05;  1.0000000E+02;  0.0000000E+00;  0.0000000E+00;  1.0000000E+02;  0.0000000E+00;  1.0000000E+02;  6.3801373E-05;  0.0000000E+00;  9.2461079E-07;  0.0000000E+00;
 -6.0000002E-01;  9.9999998E-03; -4.0000001E-01;50;  0.0000000E+00;  0.0000000E+00;  0.0000000E+00;  1.0002574E+01;  4.0000001E-01;  2.7692008E-01;0;  0.0000000E+00;  0.0000000E+00;  0.0000000E+00;  0.0000000E+00;  0.0000000E+00;  0.0000000E+00;0;  8.3248029E-05;  1.0000000E+02;  0.0000000E+00;  0.0000000E+00;  1.0000000E+02;  0.0000000E+00;  1.0000000E+02;  7.9709687E-05;  0.0000000E+00;  3.5383418E-06;  0.0000000E+00;
 -6.0000002E-01;  9.9999998E-03; -2.0000000E-01;51;  0.0000000E+00;  0.0000000E+00;  0.0000000E+00;  1.0002773E+01;  4.0000001E-01;  2.9834002E-01;0;  0.0000000E+00;  0.0000000E+00;  0.0000000E+00;  0.0000000E+00;  0.0000000E+00;  0.0000000E+00;0;  9.7347394E-05;  1.0000000E+02;  0.0000000E+00;  0.0000000E+00;  1.0000000E+02;  0.0000000E+00;  1.0000000E+02;  9.1661990E-05;  0.0000000E+00;  5.6854037E-06;  0.0000000E+00;
 -4.0000001E-01;  9.9999998E-03; -1.8000000E+00;64;  0.0000000E+00;  0.0000000E+00;  0.0000000E+00;  1.0000381E+01;  4.0000001E-01;  4.0915933E-02;0;  0.0000000E+00;  0.0000000E+00;  0.0000000E+00;  0.0000000E+00;  0.0000000E+00;  0.0000000E+00;0;  3.7268201E-06;  1.0000000E+02;  0.0000000E+00;  0.0000000E+00;  1.0000000E+02;  0.0000000E+00;  1.0000000E+02;  5.1620482E-06;  0.0000000E+00; -1.4352281E-06;  0.0000000E+00;
 -4.0000001E-01;  9.9999998E-03; -1.6000000E+00;65;  0.0000000E+00;  0.0000000E+00;  0.0000000E+00;  1.0000803E+01;  4.0000001E-01;  8.6449340E-02;0;  0.0000000E+00;  0.0000000E+00;  0.0000000E+00;  0.0000000E+00;  0.0000000E+00;  0.0000000E+00;0;  8.7904591E-06;  1.0000000E+02;  0.0000000E+00;  0.0000000E+00;  1.0000000E+02;  0.0000000E+00;  1.0000000E+02;  1.0964848E-05;  0.0000000E+00; -2.1743892E-06;  0.0000000E+00;
 -4.0000001E-01;  9.9999998E-03; -1.4000000E+00;66;  0.0000000E+00;  0.0000000E+00;  0.0000000E+00;  1.0001434E+01;  4.0000001E-01;  1.5430053E-01;0;  0.0000000E+00;  0.0000000E+00;  0.0000000E+00;  0.0000000E+00;  0.0000000E+00;  0.0000000E+00;0;  1.6727216E-05;  1.0000000E+02;  0.0000000E+00;  0.0000000E+00;  1.0000000E+02;  0.0000000E+00;  1.0000000E+02;  1.9687905E-05;  0.0000000E+00; -2.9606888E-06;  0.0000000E+00;
 -4.0000001E-01;  9.9999998E-03; -1.2000000E+00;67;  0.0000000E+00;  0.0000000E+00;  0.0000000E+00;  1.0001285E+01;  4.0000001E-01;  1.3826764E-01;0;  0.0000000E+00;  0.0000000E+00;  0.0000000E+00;  0.0000000E+00;  0.0000000E+00;  0.0000000E+00;0;  2.7304635E-05;  1.0000000E+02;  0.0000000E+00;  0.0000000E+00;  1.0000000E+02;  0.0000000E+00;  1.0000000E+02;  3.0805502E-05;  0.0000000E+00; -3.5008668E-06;  0.0000000E+00;
 -4.0000001E-01;  9.9999998E-03; -1.0000000E+00;68;  0.0000000E+00;  0.0000000E+00;  0.0000000E+00;  1.0002229E+01;  4.0000001E-01;  2.3985203E-01;0;  0.0000000E+00;  0.0000000E+00;  0.0000000E+00;  0.0000000E+00;  0.0000000E+00;  0.0000000E+00;0;  4.0090559E-05;  1.0000000E+02;  0.0000000E+00;  0.0000000E+00;  1.0000000E+02;  0.0000000E+00;  1.0000000E+02;  4.3393236E-05;  0.0000000E+00; -3.3026763E-06;  0.0000000E+00;
 -4.0000001E-01;  9.9999998E-03; -8.0000001E-01;69;  0.0000000E+00;  0.0000000E+00;  0.0000000E+00;  1.0003225E+01;  4.0000001E-01;  3.4707999E-01;0;  0.0000000E+00;  0.0000000E+00;  0.0000000E+00;  0.0000000E+00;  0.0000000E+00;  0.0000000E+00;0;  5.4722503E-05;  1.0000000E+02;  0.0000000E+00;  0.0000000E+00;  1.0000000E+02;  0.0000000E+00;  1.0000000E+02;  5.6695098E-05;  0.0000000E+00; -1.9725965E-06;  0.0000000E+00;
 -4.0000001E-01;  9.9999998E-03; -6.0000002E-01;70;  0.0000000E+00;  0.0000000E+00;  0.0000000E+00;  1.0003304E+01;  4.0000001E-01;  3.5541707E-01;0;  0.0000000E+00;  0.0000000E+00;  0.0000000E+00;  0.0000000E+00;  0.0000000E+00;  0.0000000E+00;0;  7.0908958E-05;  1.0000000E+02;  0.0000000E+00;  0.0000000E+00;  1.0000000E+02;  0.0000000E+00;  1.0000000E+02;  7.0435373E-05;  0.0000000E+00;  4.7358785E-07;  0.0000000E+00;
 -4.0000001E-01;  9.9999998E-03; -4.0000001E-01;71;  0.0000000E+00;  0.0000000E+00;  0.0000000E+00;  1.0003658E+01;  4.0000001E-01;  3.9363950E-01;0;  0.0000000E+00;  0.0000000E+00;  0.0000000E+00;  0.0000000E+00;  0.0000000E+00;  0.0000000E+00;0;  8.7214386E-05;  1.0000000E+02;  0.0000000E+00;  0.0000000E+00;  1.0000000E+02;  0.0000000E+00;  1.0000000E+02;  8.3789339E-05;  0.0000000E+00;  3.4250461E-06;  0.0000000E+00;
 -4.0000001E-01;  9.9999998E-03; -2.0000000E-01;72;  0.0000000E+00;  0.0000000E+00;  0.0000000E+00;  1.0004018E+01;  4.0000001E-01;  4.3224669E-01;0;  0.0000000E+00;  0.0000000E+00;  0.0000000E+00;  0.0000000E+00;  0.0000000E+00;  0.0000000E+00;0;  1.0004153E-04;  1.0000000E+02;  0.0000000E+00;  0.0000000E+00;  1.0000000E+02;  0.0000000E+00;  1.0000000E+02;  9.4236435E-05;  0.0000000E+00;  5.8050969E-06;  0.0000000E+00;
 -2.0000000E-01;  9.9999998E-03; -1.8000000E+00;85;  0.0000000E+00;  0.0000000E+00;  0.0000000E+00;  1.0000424E+01;  4.0000001E-01;  4.5661654E-02;0;  0.0000000E+00;  0.0000000E+00;  0.0000000E+00;  0.0000000E+00;  0.0000000E+00;  0.0000000E+00;0;  1.2043225E-05;  1.0000000E+02;  0.0000000E+00;  0.0000000E+00;  1.0000000E+02;  0.0000000E+00;  1.0000000E+02;  1.1038868E-05;  0.0000000E+00;  1.0043572E-06;  0.0000000E+00;
 -2.0000000E-01;  9.9999998E-03; -1.6000000E+00;86;  0.0000000E+00;  0.0000000E+00;  0.0000000E+00;  1.0000000E+01;  4.0000001E-01;  0.0000000E+00;0;  0.0000000E+00;  0.0000000E+00;  0.0000000E+00;  0.0000000E+00;  0.0000000E+00;  0.0000000E+00;0;  2.3577189E-05;  1.0000000E+02;  0.0000000E+00;  0.0000000E+00;  1.0000000E+02;  0.0000000E+00;  1.0000000E+02;  2.2802680E-05;  0.0000000E+00;  7.7450926E-07;  0.0000000E+00;
 -2.0000000E-01;  9.9999998E-03; -1.4000000E+00;87;  0.0000000E+00;  0.0000000E+00;  0.0000000E+00;  1.0000058E+01;  4.0000001E-01;  6.2848902E-03;0;  0.0000000E+00;  0.0000000E+00;  0.0000000E+00;  0.0000000E+00;  0.0000000E+00;  0.0000000E+00;0;  3.8011349E-05;  1.0000000E+02;  0.0000000E+00;  0.0000000E+00;  1.0000000E+02;  0.0000000E+00;  1.0000000E+02;  3.8396862E-05;  0.0000000E+00; -3.8551352E-07;  0.0000000E+00;
 -2.0000000E-01;  9.9999998E-03; -1.2000000E+00;88;  0.0000000E+00;  0.0000000E+00;  0.0000000E+00;  1.0000632E+01;  4.0000001E-01;  6.7979425E-02;0;  0.0000000E+00;  0.0000000E+00;  0.0000000E+00;  0.0000000E+00;  0.0000000E+00;  0.0000000E+00;0;  5.2693380E-05;  1.0000000E+02;  0.0000000E+00;  0.0000000E+00;  1.0000000E+02;  0.0000000E+00;  1.0000000E+02;  5.4687687E-05;  0.0000000E+00; -1.9943084E-06;  0.0000000E+00;
 -2.0000000E-01;  9.9999998E-03; -1.0000000E+00;89;  0.0000000E+00;  0.0000000E+00;  0.0000000E+00;  1.0000713E+01;  4.0000001E-01;  7.6701313E-02;0;  0.0000000E+00;  0.0000000E+00;  0.0000000E+00;  0.0000000E+00;  0.0000000E+00;  0.0000000E+00;0;  6.4712491E-05;  1.0000000E+02;  0.0000000E+00;  0.0000000E+00;  1.0000000E+02;  0.0000000E+00;  1.0000000E+02;  6.7747307E-05;  0.0000000E+00; -3.0348135E-06;  0.0000000E+00;
 -2.0000000E-01;  9.9999998E-03; -8.0000001E-01;90;  0.0000000E+00;  0.0000000E+00;  0.0000000E+00;  1.0001708E+01;  4.0000001E-01;  1.8380098E-01;0;  0.0000000E+00;  0.0000000E+00;  0.0000000E+00;  0.0000000E+00;  0.0000000E+00;  0.0000000E+00;0;  7.2645991E-05;  1.0000000E+02;  0.0000000E+00;  0.0000000E+00;  1.0000000E+02;  0.0000000E+00;  1.0000000E+02;  7.5311465E-05;  0.0000000E+00; -2.6654725E-06;  0.0000000E+00;
 -2.0000000E-01;  9.9999998E-03; -6.0000002E-01;91;  0.0000000E+00;  0.0000000E+00;  0.0000000E+00;  1.0002668E+01;  4.0000001E-01;  2.8705275E-01;0;  0.0000000E+00;  0.0000000E+00;  0.0000000E+00;  0.0000000E+00;  0.0000000E+00;  0.0000000E+00;0;  7.7780314E-05;  1.0000000E+02;  0.0000000E+00;  0.0000000E+00;  1.0000000E+02;  0.0000000E+00;  1.0000000E+02;  7.8604149E-05;  0.0000000E+00; -8.2383389E-07;  0.0000000E+00;
 -2.0000000E-01;  9.9999998E-03; -4.0000001E-01;92;  0.0000000E+00;  0.0000000E+00;  0.0000000E+00;  1.0003272E+01;  4.0000001E-01;  3.5208213E-01;0;  0.0000000E+00;  0.0000000E+00;  0.0000000E+00;  0.0000000E+00;  0.0000000E+00;  0.0000000E+00;0;  8.2047452E-05;  1.0000000E+02;  0.0000000E+00;  0.0000000E+00;  1.0000000E+02;  0.0000000E+00;  1.0000000E+02;  8.0410420E-05;  0.0000000E+00;  1.6370301E-06;  0.0000000E+00;
 -2.0000000E-01;  9.9999998E-03; -2.0000000E-01;93;  0.0000000E+00;  0.0000000E+00;  0.0000000E+00;  1.0003733E+01;  4.0000001E-01;  4.0159166E-01;0;  0.0000000E+00;  0.0000000E+00;  0.0000000E+00;  0.0000000E+00;  0.0000000E+00;  0.0000000E+00;0;  8.5242835E-05;  1.0000000E+02;  0.0000000E+00;  0.0000000E+00;  1.0000000E+02;  0.0000000E+00;  1.0000000E+02;  8.1799670E-05;  0.0000000E+00;  3.4431653E-06;  0.0000000E+00;
  0.0000000E+00;  9.9999998E-03; -1.8000000E+00;106;  0.0000000E+00;  0.0000000E+00;  0.0000000E+00;  1.0000000E+01;  4.0000001E-01;  0.0000000E+00;0;  0.0000000E+00;  0.0000000E+00;  0.0000000E+00;  0.0000000E+00;  0.0000000E+00;  0.0000000E+00;0;  3.2779059E-05;  1.0000000E+02;  0.0000000E+00;  0.0000000E+00;  1.0000000E+02;  0.0000000E+00;  1.0000000E+02;  2.7710423E-05;  0.0000000E+00;  5.0686363E-06;  0.0000000E+00;
  0.0000000E+00;  9.9999998E-03; -1.6000000E+00;107;  0.0000000E+00;  0.0000000E+00;  0.0000000E+00;  1.0000000E+01;  4.0000001E-01;  0.0000000E+00;0;  0.0000000E+00;  0.0000000E+00;  0.0000000E+00;  0.0000000E+00;  0.0000000E+00;  0.0000000E+00;0;  5.9335674E-05;  1.0000000E+02;  0.0000000E+00;  0.0000000E+00;  1.0000000E+02;  0.0000000E+00;  1.0000000E+02;  5.3580214E-05;  0.0000000E+00;  5.7554621E-06;  0.0000000E+00;
  0.0000000E+00;  9.9999998E-03; -1.4000000E+00;108;  0.0000000E+00;  0.0000000E+00;  0.0000000E+00;  1.0000000E+01;  4.0000001E-01;  0.0000000E+00;0;  0.0000000E+00;  0.0000000E+00;  0.0000000E+00;  0.0000000E+00;  0.0000000E+00;  0.0000000E+00;0;  8.9451380E-05;  1.0000000E+02;  0.0000000E+00;  0.0000000E+00;  1.0000000E+02;  0.0000000E+00;  1.0000000E+02;  8.4948297E-05;  0.0000000E+00;  4.5030811E-06;  0.0000000E+00;
  0.0000000E+00;  9.9999998E-03; -1.2000000E+00;109;  0.0000000E+00;  0.0000000E+00;  0.0000000E+00;  1.0000000E+01;  4.0000001E-01;  0.0000000E+00;0;  0.0000000E+00;  0.0000000E+00;  0.0000000E+00;  0.0000000E+00;  0.0000000E+00;  0.0000000E+00;0;  1.1532810E-04;  1.0000000E+02;  0.0000000E+00;  0.0000000E+00;  1.0000000E+02;  0.0000000E+00;  1.0000000E+02;  1.1361653E-04;  0.0000000E+00;  1.7115766E-06;  0.0000000E+00;
  2.0000000E-01;  9.9999998E-03; -1.8000000E+00;116;  0.0000000E+00;  0.0000000E+00;  0.0000000E+00;  1.0000000E+01;  4.0000001E-01;  0.0000000E+00;0;  0.0000000E+00;  0.0000000E+00;  0.0000000E+00;  0.0000000E+00;  0.0000000E+00;  0.0000000E+00;0;  7.6284989E-05;  1.0000000E+02;  0.0000000E+00;  0.0000000E+00;  1.0000000E+02;  0.0000000E+00;  1.0000000E+02;  6.7098612E-05;  0.0000000E+00;  9.1863749E-06;  0.0000000E+00;
  2.0000000E-01;  9.9999998E-03; -1.6000000E+00;117;  0.0000000E+00;  0.0000000E+00;  0.0000000E+00;  1.0000000E+01;  4.0000001E-01;  0.0000000E+00;0;  0.0000000E+00;  0.0000000E+00;  0.0000000E+00;  0.0000000E+00;  0.0000000E+00;  0.0000000E+00;0;  1.3383244E-04;  1.0000000E+02;  0.0000000E+00;  0.0000000E+00;  1.0000000E+02;  0.0000000E+00;  1.0000000E+02;  1.2278320E-04;  0.0000000E+00;  1.1049245E-05;  0.0000000E+00;
  2.0000000E-01;  9.9999998E-03; -1.4000000E+00;118;  0.0000000E+00;  0.0000000E+00;  0.0000000E+00;  1.0000000E+01;  4.0000001E-01;  0.0000000E+00;0;  0.0000000E+00;  0.0000000E+00;  0.0000000E+00;  0.0000000E+00;  0.0000000E+00;  0.0000000E+00;0;  1.9861506E-04;  1.0000000E+02;  0.0000000E+00;  0.0000000E+00;  1.0000000E+02;  0.0000000E+00;  1.0000000E+02;  1.8806128E-04;  0.0000000E+00;  1.0553770E-05;  0.0000000E+00;
  2.0000000E-01;  9.9999998E-03; -1.2000000E+00;119;  0.0000000E+00;  0.0000000E+00;  0.0000000E+00;  1.0000000E+01;  4.0000001E-01;  0.0000000E+00;0;  0.0000000E+00;  0.0000000E+00;  0.0000000E+00;  0.0000000E+00;  0.0000000E+00;  0.0000000E+00;0;  2.5364305E-04;  1.0000000E+02;  0.0000000E+00;  0.0000000E+00;  1.0000000E+02;  0.0000000E+00;  1.0000000E+02;  2.4596840E-04;  0.0000000E+00;  7.6746492E-06;  0.0000000E+00;
  4.0000001E-01;  9.9999998E-03; -1.8000000E+00;126;  0.0000000E+00;  0.0000000E+00;  0.0000000E+00;  1.0000000E+01;  4.0000001E-01;  0.0000000E+00;0;  0.0000000E+00;  0.0000000E+00;  0.0000000E+00;  0.0000000E+00;  0.0000000E+00;  0.0000000E+00;0;  1.5870389E-04;  1.0000000E+02;  0.0000000E+00;  0.0000000E+00;  1.0000000E+02;  0.0000000E+00;  1.0000000E+02;  1.4807600E-04;  0.0000000E+00;  1.0627892E-05;  0.0000000E+00;
  4.0000001E-01;  9.9999998E-03; -1.6000000E+00;127;  0.0000000E+00;  0.0000000E+00;  0.0000000E+00;  1.0000000E+01;  4.0000001E-01;  0.0000000E+00;0;  0.0000000E+00;  0.0000000E+00;  0.0000000E+00;  0.0000000E+00;  0.0000000E+00;  0.0000000E+00;0;  2.7455841E-04;  1.0000000E+02;  0.0000000E+00;  0.0000000E+00;  1.0000000E+02;  0.0000000E+00;  1.0000000E+02;  2.6137722E-04;  0.0000000E+00;  1.3181189E-05;  0.0000000E+00;
  4.0000001E-01;  9.9999998E-03; -1.4000000E+00;128;  0.0000000E+00;  0.0000000E+00;  0.0000000E+00;  1.0000000E+01;  4.0000001E-01;  0.0000000E+00;0;  0.0000000E+00;  0.0000000E+00;  0.0000000E+00;  0.0000000E+00;  0.0000000E+00;  0.0000000E+00;0;  4.0932160E-04;  1.0000000E+02;  0.0000000E+00;  0.0000000E+00;  1.0000000E+02;  0.0000000E+00;  1.0000000E+02;  3.9517987E-04;  0.0000000E+00;  1.4141731E-05;  0.0000000E+00;
  4.0000001E-01;  9.9999998E-03; -1.2000000E+00;129;  0.0000000E+00;  0.0000000E+00;  0.0000000E+00;  1.0000000E+01;  4.0000001E-01;  0.0000000E+00;0;  0.0000000E+00;  0.0000000E+00;  0.0000000E+00;  0.0000000E+00;  0.0000000E+00;  0.0000000E+00;0;  5.3488510E-04;  1.0000000E+02;  0.0000000E+00;  0.0000000E+00;  1.0000000E+02;  0.0000000E+00;  1.0000000E+02;  5.2218518E-04;  0.0000000E+00;  1.2699896E-05;  0.0000000E+00;
  6.0000002E-01;  9.9999998E-03; -1.8000000E+00;136;  0.0000000E+00;  0.0000000E+00;  0.0000000E+00;  1.0000000E+01;  4.0000001E-01;  0.0000000E+00;0;  0.0000000E+00;  0.0000000E+00;  0.0000000E+00;  0.0000000E+00;  0.0000000E+00;  0.0000000E+00;0;  2.9783079E-04;  1.0000000E+02;  0.0000000E+00;  0.0000000E+00;  1.0000000E+02;  0.0000000E+00;  1.0000000E+02;  2.9111249E-04;  0.0000000E+00;  6.7182941E-06;  0.0000000E+00;
  6.0000002E-01;  9.9999998E-03; -1.6000000E+00;137;  0.0000000E+00;  0.0000000E+00;  0.0000000E+00;  1.0000000E+01;  4.0000001E-01;  0.0000000E+00;0;  0.0000000E+00;  0.0000000E+00;  0.0000000E+00;  0.0000000E+00;  0.0000000E+00;  0.0000000E+00;0;  5.1147025E-04;  1.0000000E+02;  0.0000000E+00;  0.0000000E+00;  1.0000000E+02;  0.0000000E+00;  1.0000000E+02;  5.0291658E-04;  0.0000000E+00;  8.5536631E-06;  0.0000000E+00;
  6.0000002E-01;  9.9999998E-03; -1.4000000E+00;138;  0.0000000E+00;  0.0000000E+00;  0.0000000E+00;  1.0000000E+01;  4.0000001E-01;  0.0000000E+00;0;  0.0000000E+00;  0.0000000E+00;  0.0000000E+00;  0.0000000E+00;  0.0000000E+00;  0.0000000E+00;0;  7.7534834E-04;  1.0000000E+02;  0.0000000E+00;  0.0000000E+00;  1.0000000E+02;  0.0000000E+00;  1.0000000E+02;  7.6502818E-04;  0.0000000E+00;  1.0320181E-05;  0.0000000E+00;
  6.0000002E-01;  9.9999998E-03; -1.2000000E+00;139;  0.0000000E+00;  0.0000000E+00;  0.0000000E+00;  1.0000000E+01;  4.0000001E-01;  0.0000000E+00;0;  0.0000000E+00;  0.0000000E+00;  0.0000000E+00;  0.0000000E+00;  0.0000000E+00;  0.0000000E+00;0;  1.0415257E-03;  1.0000000E+02;  0.0000000E+00;  0.0000000E+00;  1.0000000E+02;  0.0000000E+00;  1.0000000E+02;  1.0306517E-03;  0.0000000E+00;  1.0873953E-05;  0.0000000E+00;
  8.0000001E-01;  9.9999998E-03; -1.8000000E+00;146;  0.0000000E+00;  0.0000000E+00;  0.0000000E+00;  1.0000000E+01;  4.0000001E-01;  0.0000000E+00;0;  0.0000000E+00;  0.0000000E+00;  0.0000000E+00;  0.0000000E+00;  0.0000000E+00;  0.0000000E+00;0;  4.9137615E-04;  1.0000000E+02;  0.0000000E+00;  0.0000000E+00;  1.0000000E+02;  0.0000000E+00;  1.0000000E+02;  4.9519335E-04;  0.0000000E+00; -3.8172279E-06;  0.0000000E+00;
  8.0000001E-01;  9.9999998E-03; -1.6000000E+00;147;  0.0000000E+00;  0.0000000E+00;  0.0000000E+00;  1.0000000E+01;  4.0000001E-01;  0.0000000E+00;0;  0.0000000E+00;  0.0000000E+00;  0.0000000E+00;  0.0000000E+00;  0.0000000E+00;  0.0000000E+00;0;  8.4386766E-04;  1.0000000E+02;  0.0000000E+00;  0.0000000E+00;  1.0000000E+02;  0.0000000E+00;  1.0000000E+02;  8.4818417E-04;  0.0000000E+00; -4.3165251E-06;  0.0000000E+00;
  8.0000001E-01;  9.9999998E-03; -1.4000000E+00;148;  0.0000000E+00;  0.0000000E+00;  0.0000000E+00;  1.0000000E+01;  4.0000001E-01;  0.0000000E+00;0;  0.0000000E+00;  0.0000000E+00;  0.0000000E+00;  0.0000000E+00;  0.0000000E+00;  0.0000000E+00;0;  1.3065431E-03;  1.0000000E+02;  0.0000000E+00;  0.0000000E+00;  1.0000000E+02;  0.0000000E+00;  1.0000000E+02;  1.3101777E-03;  0.0000000E+00; -3.6345975E-06;  0.0000000E+00;
  8.0000001E-01;  9.9999998E-03; -1.2000000E+00;149;  0.0000000E+00;  0.0000000E+00;  0.0000000E+00;  1.0000000E+01;  4.0000001E-01;  0.0000000E+00;0;  0.0000000E+00;  0.0000000E+00;  0.0000000E+00;  0.0000000E+00;  0.0000000E+00;  0.0000000E+00;0;  1.7946422E-03;  1.0000000E+02;  0.0000000E+00;  0.0000000E+00;  1.0000000E+02;  0.0000000E+00;  1.0000000E+02;  1.7967571E-03;  0.0000000E+00; -2.1149640E-06;  0.0000000E+00;
  1.0000000E+00;  9.9999998E-03; -1.8000000E+00;156;  0.0000000E+00;  0.0000000E+00;  0.0000000E+00;  1.0000000E+01;  4.0000001E-01;  0.0000000E+00;0;  0.0000000E+00;  0.0000000E+00;  0.0000000E+00;  0.0000000E+00;  0.0000000E+00;  0.0000000E+00;0;  6.9511280E-04;  1.0000000E+02;  0.0000000E+00;  0.0000000E+00;  1.0000000E+02;  0.0000000E+00;  1.0000000E+02;  7.1565172E-04;  0.0000000E+00; -2.0538897E-05;  0.0000000E+00;
  1.0000000E+00;  9.9999998E-03; -1.6000000E+00;157;  0.0000000E+00;  0.0000000E+00;  0.0000000E+00;  1.0000000E+01;  4.0000001E-01;  0.0000000E+00;0;  0.0000000E+00;  0.0000000E+00;  0.0000000E+00;  0.0000000E+00;  0.0000000E+00;  0.0000000E+00;0;  1.2114267E-03;  1.0000000E+02;  0.0000000E+00;  0.0000000E+00;  1.0000000E+02;  0.0000000E+00;  1.0000000E+02;  1.2353553E-03;  0.0000000E+00; -2.3928544E-05;  0.0000000E+00;
  1.0000000E+00;  9.9999998E-03; -1.4000000E+00;158;  0.0000000E+00;  0.0000000E+00;  0.0000000E+00;  1.0000000E+01;  4.0000001E-01;  0.0000000E+00;0;  0.0000000E+00;  0.0000000E+00;  0.0000000E+00;  0.0000000E+00;  0.0000000E+00;  0.0000000E+00;0;  1.9243470E-03;  1.0000000E+02;  0.0000000E+00;  0.0000000E+00;  1.0000000E+02;  0.0000000E+00;  1.0000000E+02;  1.9502590E-03;  0.0000000E+00; -2.5911977E-05;  0.0000000E+00;
  1.0000000E+00;  9.9999998E-03; -1.2000000E+00;159;  0.0000000E+00;  0.0000000E+00;  0.0000000E+00;  1.0000000E+01;  4.0000001E-01;  0.0000000E+00;0;  0.0000000E+00;  0.0000000E+00;  0.0000000E+00;  0.0000000E+00;  0.0000000E+00;  0.0000000E+00;0;  2.6992823E-03;  1.0000000E+02;  0.0000000E+00;  0.0000000E+00;  1.0000000E+02;  0.0000000E+00;  1.0000000E+02;  2.7233954E-03;  0.0000000E+00; -2.4113189E-05;  0.0000000E+00;
 -1.0000000E+00;  9.9999998E-03;  0.0000000E+00;10;  0.0000000E+00;  0.0000000E+00;  0.0000000E+00;  1.0000356E+01;  4.0000001E-01;  3.8222417E-02;0;  0.0000000E+00;  0.0000000E+00;  0.0000000E+00;  0.0000000E+00;  0.0000000E+00;  0.0000000E+00;0;  4.2062002E-05;  1.0000000E+02;  0.0000000E+00;  0.0000000E+00;  1.0000000E+02;  0.0000000E+00;  1.0000000E+02;  3.9459119E-05;  0.0000000E+00;  2.6028833E-06;  0.0000000E+00;
 -1.0000000E+00;  9.9999998E-03;  2.0000000E-01;11;  0.0000000E+00;  0.0000000E+00;  0.0000000E+00;  1.0000344E+01;  4.0000001E-01;  3.7068047E-02;0;  0.0000000E+00;  0.0000000E+00;  0.0000000E+00;  0.0000000E+00;  0.0000000E+00;  0.0000000E+00;0;  3.9932140E-05;  1.0000000E+02;  0.0000000E+00;  0.0000000E+00;  1.0000000E+02;  0.0000000E+00;  1.0000000E+02;  3.7590937E-05;  0.0000000E+00;  2.3412031E-06;  0.0000000E+00;
 -1.0000000E+00;  9.9999998E-03;  4.0000001E-01;12;  0.0000000E+00;  0.0000000E+00;  0.0000000E+00;  1.0000317E+01;  4.0000001E-01;  3.4117997E-02;0;  0.0000000E+00;  0.0000000E+00;  0.0000000E+00;  0.0000000E+00;  0.0000000E+00;  0.0000000E+00;0;  3.4132474E-05;  1.0000000E+02;  0.0000000E+00;  0.0000000E+00;  1.0000000E+02;  0.0000000E+00;  1.0000000E+02;  3.2524193E-05;  0.0000000E+00;  1.6082829E-06;  0.0000000E+00;
 -1.0000000E+00;  9.9999998E-03;  6.0000002E-01;13;  0.0000000E+00;  0.0000000E+00;  0.0000000E+00;  1.0000603E+01;  4.0000001E-01;  6.4901151E-02;0;  0.0000000E+00;  0.0000000E+00;  0.0000000E+00;  0.0000000E+00;  0.0000000E+00;  0.0000000E+00;0;  2.6142470E-05;  1.0000000E+02;  0.0000000E+00;  0.0000000E+00;  1.0000000E+02;  0.0000000E+00;  1.0000000E+02;  2.5572803E-05;  0.0000000E+00;  5.6966820E-07;  0.0000000E+00;
 -1.0000000E+00;  9.9999998E-03;  8.0000001E-01;14;  0.0000000E+00;  0.0000000E+00;  0.0000000E+00;  1.0001022E+01;  4.0000001E-01;  1.1004978E-01;0;  0.0000000E+00;  0.0000000E+00;  0.0000000E+00;  0.0000000E+00;  0.0000000E+00;  0.0000000E+00;0;  1.7773882E-05;  1.0000000E+02;  0.0000000E+00;  0.0000000E+00;  1.0000000E+02;  0.0000000E+00;  1.0000000E+02;  1.8266737E-05;  0.0000000E+00; -4.9285546E-07;  0.0000000E+00;
 -1.0000000E+00;  9.9999998E-03;  1.0000000E+00;15;  0.0000000E+00;  0.0000000E+00;  0.0000000E+00;  1.0000754E+01;  4.0000001E-01;  8.1190571E-02;0;  0.0000000E+00;  0.0000000E+00;  0.0000000E+00;  0.0000000E+00;  0.0000000E+00;  0.0000000E+00;0;  1.0526615E-05;  1.0000000E+02;  0.0000000E+00;  0.0000000E+00;  1.0000000E+02;  0.0000000E+00;  1.0000000E+02;  1.1833958E-05;  0.0000000E+00; -1.3073424E-06;  0.0000000E+00;
 -1.0000000E+00;  9.9999998E-03;  1.2000000E+00;16;  0.0000000E+00;  0.0000000E+00;  0.0000000E+00;  1.0000500E+01;  4.0000001E-01;  5.3742256E-02;0;  0.0000000E+00;  0.0000000E+00;  0.0000000E+00;  0.0000000E+00;  0.0000000E+00;  0.0000000E+00;0;  5.1949760E-06;  1.0000000E+02;  0.0000000E+00;  0.0000000E+00;  1.0000000E+02;  0.0000000E+00;  1.0000000E+02;  6.9241082E-06;  0.0000000E+00; -1.7291322E-06;  0.0000000E+00;
 -1.0000000E+00;  9.9999998E-03;  1.4000000E+00;17;  0.0000000E+00;  0.0000000E+00;  0.0000000E+00;  1.0000267E+01;  4.0000001E-01;  2.8730944E-02;0;  0.0000000E+00;  0.0000000E+00;  0.0000000E+00;  0.0000000E+00;  0.0000000E+00;  0.0000000E+00;0;  1.8910823E-06;  1.0000000E+02;  0.0000000E+00;  0.0000000E+00;  1.0000000E+02;  0.0000000E+00;  1.0000000E+02;  3.6271558E-06;  0.0000000E+00; -1.7360735E-06;  0.0000000E+00;
 -8.0000001E-01;  9.9999998E-03;  0.0000000E+00;31;  0.0000000E+00;  0.0000000E+00;  0.0000000E+00;  1.0001145E+01;  4.0000001E-01;  1.2326088E-01;0;  0.0000000E+00;  0.0000000E+00;  0.0000000E+00;  0.0000000E+00;  0.0000000E+00;  0.0000000E+00;0;  7.7667493E-05;  1.0000000E+02;  0.0000000E+00;  0.0000000E+00;  1.0000000E+02;  0.0000000E+00;  1.0000000E+02;  7.2944786E-05;  0.0000000E+00;  4.7227054E-06;  0.0000000E+00;
 -8.0000001E-01;  9.9999998E-03;  2.0000000E-01;32;  0.0000000E+00;  0.0000000E+00;  0.0000000E+00;  1.0001315E+01;  4.0000001E-01;  1.4147425E-01;0;  0.0000000E+00;  0.0000000E+00;  0.0000000E+00;  0.0000000E+00;  0.0000000E+00;  0.0000000E+00;0;  7.3763375E-05;  1.0000000E+02;  0.0000000E+00;  0.0000000E+00;  1.0000000E+02;  0.0000000E+00;  1.0000000E+02;  6.9595808E-05;  0.0000000E+00;  4.1675680E-06;  0.0000000E+00;
 -8.0000001E-01;  9.9999998E-03;  4.0000001E-01;33;  0.0000000E+00;  0.0000000E+00;  0.0000000E+00;  1.0001822E+01;  4.0000001E-01;  1.9611435E-01;0;  0.0000000E+00;  0.0000000E+00;  0.0000000E+00;  0.0000000E+00;  0.0000000E+00;  0.0000000E+00;0;  6.3195956E-05;  1.0000000E+02;  0.0000000E+00;  0.0000000E+00;  1.0000000E+02;  0.0000000E+00;  1.0000000E+02;  6.0476963E-05;  0.0000000E+00;  2.7189940E-06;  0.0000000E+00;
 -8.0000001E-01;  9.9999998E-03;  6.0000002E-01;34;  0.0000000E+00;  0.0000000E+00;  0.0000000E+00;  1.0001641E+01;  4.0000001E-01;  1.7661835E-01;0;  0.0000000E+00;  0.0000000E+00;  0.0000000E+00;  0.0000000E+00;  0.0000000E+00;  0.0000000E+00;0;  4.8825088E-05;  1.0000000E+02;  0.0000000E+00;  0.0000000E+00;  1.0000000E+02;  0.0000000E+00;  1.0000000E+02;  4.7960457E-05;  0.0000000E+00;  8.6463081E-07;  0.0000000E+00;
 -8.0000001E-01;  9.9999998E-03;  8.0000001E-01;35;  0.0000000E+00;  0.0000000E+00;  0.0000000E+00;  1.0001305E+01;  4.0000001E-01;  1.4031988E-01;0;  0.0000000E+00;  0.0000000E+00;  0.0000000E+00;  0.0000000E+00;  0.0000000E+00;  0.0000000E+00;0;  3.3977569E-05;  1.0000000E+02;  0.0000000E+00;  0.0000000E+00;  1.0000000E+02;  0.0000000E+00;  1.0000000E+02;  3.4850877E-05;  0.0000000E+00; -8.7330869E-07;  0.0000000E+00;
 -8.0000001E-01;  9.9999998E-03;  1.0000000E+00;36;  0.0000000E+00;  0.0000000E+00;  0.0000000E+00;  1.0001728E+01;  4.0000001E-01;  1.8598156E-01;0;  0.0000000E+00;  0.0000000E+00;  0.0000000E+00;  0.0000000E+00;  0.0000000E+00;  0.0000000E+00;0;  2.1132060E-05;  1.0000000E+02;  0.0000000E+00;  0.0000000E+00;  1.0000000E+02;  0.0000000E+00;  1.0000000E+02;  2.3269295E-05;  0.0000000E+00; -2.1372341E-06;  0.0000000E+00;
 -8.0000001E-01;  9.9999998E-03;  1.2000000E+00;37;  0.0000000E+00;  0.0000000E+00;  0.0000000E+00;  1.0001216E+01;  4.0000001E-01;  1.3082841E-01;0;  0.0000000E+00;  0.0000000E+00;  0.0000000E+00;  0.0000000E+00;  0.0000000E+00;  0.0000000E+00;0;  1.1468542E-05;  1.0000000E+02;  0.0000000E+00;  0.0000000E+00;  1.0000000E+02;  0.0000000E+00;  1.0000000E+02;  1.4269683E-05;  0.0000000E+00; -2.8011409E-06;  0.0000000E+00;
 -8.0000001E-01;  9.9999998E-03;  1.4000000E+00;38;  0.0000000E+00;  0.0000000E+00;  0.0000000E+00;  1.0000714E+01;  4.0000001E-01;  7.6829620E-02;0;  0.0000000E+00;  0.0000000E+00;  0.0000000E+00;  0.0000000E+00;  0.0000000E+00;  0.0000000E+00;0;  5.1276129E-06;  1.0000000E+02;  0.0000000E+00;  0.0000000E+00;  1.0000000E+02;  0.0000000E+00;  1.0000000E+02;  8.0123245E-06;  0.0000000E+00; -2.8847116E-06;  0.0000000E+00;
 -6.0000002E-01;  9.9999998E-03;  0.0000000E+00;52;  0.0000000E+00;  0.0000000E+00;  0.0000000E+00;  1.0002831E+01;  4.0000001E-01;  3.0449668E-01;0;  0.0000000E+00;  0.0000000E+00;  0.0000000E+00;  0.0000000E+00;  0.0000000E+00;  0.0000000E+00;0;  1.0272086E-04;  1.0000000E+02;  0.0000000E+00;  0.0000000E+00;  1.0000000E+02;  0.0000000E+00;  1.0000000E+02;  9.6191092E-05;  0.0000000E+00;  6.5297631E-06;  0.0000000E+00;
 -6.0000002E-01;  9.9999998E-03;  2.0000000E-01;53;  0.0000000E+00;  0.0000000E+00;  0.0000000E+00;  1.0002773E+01;  4.0000001E-01;  2.9834002E-01;0;  0.0000000E+00;  0.0000000E+00;  0.0000000E+00;  0.0000000E+00;  0.0000000E+00;  0.0000000E+00;0;  9.7347242E-05;  1.0000000E+02;  0.0000000E+00;  0.0000000E+00;  1.0000000E+02;  0.0000000E+00;  1.0000000E+02;  9.1662019E-05;  0.0000000E+00;  5.6852218E-06;  0.0000000E+00;
 -6.0000002E-01;  9.9999998E-03;  4.0000001E-01;54;  0.0000000E+00;  0.0000000E+00;  0.0000000E+00;  1.0002574E+01;  4.0000001E-01;  2.7692008E-01;0;  0.0000000E+00;  0.0000000E+00;  0.0000000E+00;  0.0000000E+00;  0.0000000E+00;  0.0000000E+00;0;  8.3247680E-05;  1.0000000E+02;  0.0000000E+00;  0.0000000E+00;  1.0000000E+02;  0.0000000E+00;  1.0000000E+02;  7.9709665E-05;  0.0000000E+00;  3.5380126E-06;  0.0000000E+00;
 -6.0000002E-01;  9.9999998E-03;  6.0000002E-01;55;  0.0000000E+00;  0.0000000E+00;  0.0000000E+00;  1.0003073E+01;  4.0000001E-01;  3.3066234E-01;0;  0.0000000E+00;  0.0000000E+00;  0.0000000E+00;  0.0000000E+00;  0.0000000E+00;  0.0000000E+00;0;  6.4725551E-05;  1.0000000E+02;  0.0000000E+00;  0.0000000E+00;  1.0000000E+02;  0.0000000E+00;  1.0000000E+02;  6.3801352E-05;  0.0000000E+00;  9.2419975E-07;  0.0000000E+00;
 -6.0000002E-01;  9.9999998E-03;  8.0000001E-01;56;  0.0000000E+00;  0.0000000E+00;  0.0000000E+00;  1.0002529E+01;  4.0000001E-01;  2.7217436E-01;0;  0.0000000E+00;  0.0000000E+00;  0.0000000E+00;  0.0000000E+00;  0.0000000E+00;  0.0000000E+00;0;  4.6087902E-05;  1.0000000E+02;  0.0000000E+00;  0.0000000E+00;  1.0000000E+02;  0.0000000E+00;  1.0000000E+02;  4.7454774E-05;  0.0000000E+00; -1.3668723E-06;  0.0000000E+00;
 -6.0000002E-01;  9.9999998E-03;  1.0000000E+00;57;  0.0000000E+00;  0.0000000E+00;  0.0000000E+00;  1.0001880E+01;  4.0000001E-01;  2.0227095E-01;0;  0.0000000E+00;  0.0000000E+00;  0.0000000E+00;  0.0000000E+00;  0.0000000E+00;  0.0000000E+00;0;  3.0049001E-05;  1.0000000E+02;  0.0000000E+00;  0.0000000E+00;  1.0000000E+02;  0.0000000E+00;  1.0000000E+02;  3.2936157E-05;  0.0000000E+00; -2.8871559E-06;  0.0000000E+00;
 -6.0000002E-01;  9.9999998E-03;  1.2000000E+00;58;  0.0000000E+00;  0.0000000E+00;  0.0000000E+00;  1.0001933E+01;  4.0000001E-01;  2.0804279E-01;0;  0.0000000E+00;  0.0000000E+00;  0.0000000E+00;  0.0000000E+00;  0.0000000E+00;  0.0000000E+00;0;  1.7673370E-05;  1.0000000E+02;  0.0000000E+00;  0.0000000E+00;  1.0000000E+02;  0.0000000E+00;  1.0000000E+02;  2.1239932E-05;  0.0000000E+00; -3.5665616E-06;  0.0000000E+00;
 -6.0000002E-01;  9.9999998E-03;  1.4000000E+00;59;  0.0000000E+00;  0.0000000E+00;  0.0000000E+00;  1.0001203E+01;  4.0000001E-01;  1.2941749E-01;0;  0.0000000E+00;  0.0000000E+00;  0.0000000E+00;  0.0000000E+00;  0.0000000E+00;  0.0000000E+00;0;  9.0619178E-06;  1.0000000E+02;  0.0000000E+00;  0.0000000E+00;  1.0000000E+02;  0.0000000E+00;  1.0000000E+02;  1.2609338E-05;  0.0000000E+00; -3.5474200E-06;  0.0000000E+00;
 -4.0000001E-01;  9.9999998E-03;  0.0000000E+00;73;  0.0000000E+00;  0.0000000E+00;  0.0000000E+00;  1.0004094E+01;  4.0000001E-01;  4.4045553E-01;0;  0.0000000E+00;  0.0000000E+00;  0.0000000E+00;  0.0000000E+00;  0.0000000E+00;  0.0000000E+00;0;  1.0497432E-04;  1.0000000E+02;  0.0000000E+00;  0.0000000E+00;  1.0000000E+02;  0.0000000E+00;  1.0000000E+02;  9.8281387E-05;  0.0000000E+00;  6.6929265E-06;  0.0000000E+00;
 -4.0000001E-01;  9.9999998E-03;  2.0000000E-01;74;  0.0000000E+00;  0.0000000E+00;  0.0000000E+00;  1.0004018E+01;  4.0000001E-01;  4.3224669E-01;0;  0.0000000E+00;  0.0000000E+00;  0.0000000E+00;  0.0000000E+00;  0.0000000E+00;  0.0000000E+00;0;  1.0004136E-04;  1.0000000E+02;  0.0000000E+00;  0.0000000E+00;  1.0000000E+02;  0.0000000E+00;  1.0000000E+02;  9.4236566E-05;  0.0000000E+00;  5.8047981E-06;  0.0000000E+00;
 -4.0000001E-01;  9.9999998E-03;  4.0000001E-01;75;  0.0000000E+00;  0.0000000E+00;  0.0000000E+00;  1.0003658E+01;  4.0000001E-01;  3.9363950E-01;0;  0.0000000E+00;  0.0000000E+00;  0.0000000E+00;  0.0000000E+00;  0.0000000E+00;  0.0000000E+00;0;  8.7214095E-05;  1.0000000E+02;  0.0000000E+00;  0.0000000E+00;  1.0000000E+02;  0.0000000E+00;  1.0000000E+02;  8.3789600E-05;  0.0000000E+00;  3.4244956E-06;  0.0000000E+00;
 -4.0000001E-01;  9.9999998E-03;  6.0000002E-01;76;  0.0000000E+00;  0.0000000E+00;  0.0000000E+00;  1.0003304E+01;  4.0000001E-01;  3.5541707E-01;0;  0.0000000E+00;  0.0000000E+00;  0.0000000E+00;  0.0000000E+00;  0.0000000E+00;  0.0000000E+00;0;  7.0908667E-05;  1.0000000E+02;  0.0000000E+00;  0.0000000E+00;  1.0000000E+02;  0.0000000E+00;  1.0000000E+02;  7.0435781E-05;  0.0000000E+00;  4.7288654E-07;  0.0000000E+00;
 -4.0000001E-01;  9.9999998E-03;  8.0000001E-01;77;  0.0000000E+00;  0.0000000E+00;  0.0000000E+00;  1.0003225E+01;  4.0000001E-01;  3.4707999E-01;0;  0.0000000E+00;  0.0000000E+00;  0.0000000E+00;  0.0000000E+00;  0.0000000E+00;  0.0000000E+00;0;  5.4722266E-05;  1.0000000E+02;  0.0000000E+00;  0.0000000E+00;  1.0000000E+02;  0.0000000E+00;  1.0000000E+02;  5.6695601E-05;  0.0000000E+00; -1.9733345E-06;  0.0000000E+00;
 -4.0000001E-01;  9.9999998E-03;  1.0000000E+00;78;  0.0000000E+00;  0.0000000E+00;  0.0000000E+00;  1.0002229E+01;  4.0000001E-01;  2.3985203E-01;0;  0.0000000E+00;  0.0000000E+00;  0.0000000E+00;  0.0000000E+00;  0.0000000E+00;  0.0000000E+00;0;  4.0090352E-05;  1.0000000E+02;  0.0000000E+00;  0.0000000E+00;  1.0000000E+02;  0.0000000E+00;  1.0000000E+02;  4.3393717E-05;  0.0000000E+00; -3.3033659E-06;  0.0000000E+00;
 -4.0000001E-01;  9.9999998E-03;  1.2000000E+00;79;  0.0000000E+00;  0.0000000E+00;  0.0000000E+00;  1.0001285E+01;  4.0000001E-01;  1.3826764E-01;0;  0.0000000E+00;  0.0000000E+00;  0.0000000E+00;  0.0000000E+00;  0.0000000E+00;  0.0000000E+00;0;  2.7304422E-05;  1.0000000E+02;  0.0000000E+00;  0.0000000E+00;  1.0000000E+02;  0.0000000E+00;  1.0000000E+02;  3.0805873E-05;  0.0000000E+00; -3.5014507E-06;  0.0000000E+00;
 -4.0000001E-01;  9.9999998E-03;  1.4000000E+00;80;  0.0000000E+00;  0.0000000E+00;  0.0000000E+00;  1.0001434E+01;  4.0000001E-01;  1.5430053E-01;0;  0.0000000E+00;  0.0000000E+00;  0.0000000E+00;  0.0000000E+00;  0.0000000E+00;  0.0000000E+00;0;  1.6726965E-05;  1.0000000E+02;  0.0000000E+00;  0.0000000E+00;  1.0000000E+02;  0.0000000E+00;  1.0000000E+02;  1.9688105E-05;  0.0000000E+00; -2.9611394E-06;  0.0000000E+00;
 -2.0000000E-01;  9.9999998E-03;  0.0000000E+00;94;  0.0000000E+00;  0.0000000E+00;  0.0000000E+00;  1.0003891E+01;  4.0000001E-01;  4.1865066E-01;0;  0.0000000E+00;  0.0000000E+00;  0.0000000E+00;  0.0000000E+00;  0.0000000E+00;  0.0000000E+00;0;  8.6409520E-05;  1.0000000E+02;  0.0000000E+00;  0.0000000E+00;  1.0000000E+02;  0.0000000E+00;  1.0000000E+02;  8.2351566E-05;  0.0000000E+00;  4.0579534E-06;  0.0000000E+00;
 -2.0000000E-01;  9.9999998E-03;  2.0000000E-01;95;  0.0000000E+00;  0.0000000E+00;  0.0000000E+00;  1.0003733E+01;  4.0000001E-01;  4.0159166E-01;0;  0.0000000E+00;  0.0000000E+00;  0.0000000E+00;  0.0000000E+00;  0.0000000E+00;  0.0000000E+00;0;  8.5242980E-05;  1.0000000E+02;  0.0000000E+00;  0.0000000E+00;  1.0000000E+02;  0.0000000E+00;  1.0000000E+02;  8.1800274E-05;  0.0000000E+00;  3.4427039E-06;  0.0000000E+00;
 -2.0000000E-01;  9.9999998E-03;  4.0000001E-01;96;  0.0000000E+00;  0.0000000E+00;  0.0000000E+00;  1.0003272E+01;  4.0000001E-01;  3.5208213E-01;0;  0.0000000E+00;  0.0000000E+00;  0.0000000E+00;  0.0000000E+00;  0.0000000E+00;  0.0000000E+00;0;  8.2047853E-05;  1.0000000E+02;  0.0000000E+00;  0.0000000E+00;  1.0000000E+02;  0.0000000E+00;  1.0000000E+02;  8.0411672E-05;  0.0000000E+00;  1.6361818E-06;  0.0000000E+00;
 -2.0000000E-01;  9.9999998E-03;  6.0000002E-01;97;  0.0000000E+00;  0.0000000E+00;  0.0000000E+00;  1.0002668E+01;  4.0000001E-01;  2.8705275E-01;0;  0.0000000E+00;  0.0000000E+00;  0.0000000E+00;  0.0000000E+00;  0.0000000E+00;  0.0000000E+00;0;  7.7781187E-05;  1.0000000E+02;  0.0000000E+00;  0.0000000E+00;  1.0000000E+02;  0.0000000E+00;  1.0000000E+02;  7.8606114E-05;  0.0000000E+00; -8.2492693E-07;  0.0000000E+00;
 -2.0000000E-01;  9.9999998E-03;  8.0000001E-01;98;  0.0000000E+00;  0.0000000E+00;  0.0000000E+00;  1.0001708E+01;  4.0000001E-01;  1.8380098E-01;0;  0.0000000E+00;  0.0000000E+00;  0.0000000E+00;  0.0000000E+00;  0.0000000E+00;  0.0000000E+00;0;  7.2647155E-05;  1.0000000E+02;  0.0000000E+00;  0.0000000E+00;  1.0000000E+02;  0.0000000E+00;  1.0000000E+02;  7.5313801E-05;  0.0000000E+00; -2.6666435E-06;  0.0000000E+00;
 -2.0000000E-01;  9.9999998E-03;  1.0000000E+00;99;  0.0000000E+00;  0.0000000E+00;  0.0000000E+00;  1.0000713E+01;  4.0000001E-01;  7.6701313E-02;0;  0.0000000E+00;  0.0000000E+00;  0.0000000E+00;  0.0000000E+00;  0.0000000E+00;  0.0000000E+00;0;  6.4713684E-05;  1.0000000E+02;  0.0000000E+00;  0.0000000E+00;  1.0000000E+02;  0.0000000E+00;  1.0000000E+02;  6.7749621E-05;  0.0000000E+00; -3.0359358E-06;  0.0000000E+00;
 -2.0000000E-01;  9.9999998E-03;  1.2000000E+00;100;  0.0000000E+00;  0.0000000E+00;  0.0000000E+00;  1.0000632E+01;  4.0000001E-01;  6.7979425E-02;0;  0.0000000E+00;  0.0000000E+00;  0.0000000E+00;  0.0000000E+00;  0.0000000E+00;  0.0000000E+00;0;  5.2694293E-05;  1.0000000E+02;  0.0000000E+00;  0.0000000E+00;  1.0000000E+02;  0.0000000E+00;  1.0000000E+02;  5.4689583E-05;  0.0000000E+00; -1.9952893E-06;  0.0000000E+00;
 -2.0000000E-01;  9.9999998E-03;  1.4000000E+00;101;  0.0000000E+00;  0.0000000E+00;  0.0000000E+00;  1.0000058E+01;  4.0000001E-01;  6.2848902E-03;0;  0.0000000E+00;  0.0000000E+00;  0.0000000E+00;  0.0000000E+00;  0.0000000E+00;  0.0000000E+00;0;  3.8011858E-05;  1.0000000E+02;  0.0000000E+00;  0.0000000E+00;  1.0000000E+02;  0.0000000E+00;  1.0000000E+02;  3.8398157E-05;  0.0000000E+00; -3.8629699E-07;  0.0000000E+00;
  0.0000000E+00;  9.9999998E-03;  1.2000000E+00;110;  0.0000000E+00;  0.0000000E+00;  0.0000000E+00;  1.0000000E+01;  4.0000001E-01;  0.0000000E+00;0;  0.0000000E+00;  0.0000000E+00;  0.0000000E+00;  0.0000000E+00;  0.0000000E+00;  0.0000000E+00;0;  1.1533177E-04;  1.0000000E+02;  0.0000000E+00;  0.0000000E+00;  1.0000000E+02;  0.0000000E+00;  1.0000000E+02;  1.1362166E-04;  0.0000000E+00;  1.7101110E-06;  0.0000000E+00;
  0.0000000E+00;  9.9999998E-03;  1.4000000E+00;111;  0.0000000E+00;  0.0000000E+00;  0.0000000E+00;  1.0000000E+01;  4.0000001E-01;  0.0000000E+00;0;  0.0000000E+00;  0.0000000E+00;  0.0000000E+00;  0.0000000E+00;  0.0000000E+00;  0.0000000E+00;0;  8.9453883E-05;  1.0000000E+02;  0.0000000E+00;  0.0000000E+00;  1.0000000E+02;  0.0000000E+00;  1.0000000E+02;  8.4951986E-05;  0.0000000E+00;  4.5018992E-06;  0.0000000E+00;
  2.0000000E-01;  9.9999998E-03;  1.2000000E+00;120;  0.0000000E+00;  0.0000000E+00;  0.0000000E+00;  1.0000000E+01;  4.0000001E-01;  0.0000000E+00;0;  0.0000000E+00;  0.0000000E+00;  0.0000000E+00;  0.0000000E+00;  0.0000000E+00;  0.0000000E+00;0;  2.5365260E-04;  1.0000000E+02;  0.0000000E+00;  0.0000000E+00;  1.0000000E+02;  0.0000000E+00;  1.0000000E+02;  2.4597996E-04;  0.0000000E+00;  7.6726337E-06;  0.0000000E+00;
  2.0000000E-01;  9.9999998E-03;  1.4000000E+00;121;  0.0000000E+00;  0.0000000E+00;  0.0000000E+00;  1.0000000E+01;  4.0000001E-01;  0.0000000E+00;0;  0.0000000E+00;  0.0000000E+00;  0.0000000E+00;  0.0000000E+00;  0.0000000E+00;  0.0000000E+00;0;  1.9862175E-04;  1.0000000E+02;  0.0000000E+00;  0.0000000E+00;  1.0000000E+02;  0.0000000E+00;  1.0000000E+02;  1.8806962E-04;  0.0000000E+00;  1.0552129E-05;  0.0000000E+00;
  4.0000001E-01;  9.9999998E-03;  1.2000000E+00;130;  0.0000000E+00;  0.0000000E+00;  0.0000000E+00;  1.0000000E+01;  4.0000001E-01;  0.0000000E+00;0;  0.0000000E+00;  0.0000000E+00;  0.0000000E+00;  0.0000000E+00;  0.0000000E+00;  0.0000000E+00;0;  5.3490454E-04;  1.0000000E+02;  0.0000000E+00;  0.0000000E+00;  1.0000000E+02;  0.0000000E+00;  1.0000000E+02;  5.2220729E-04;  0.0000000E+00;  1.2697222E-05;  0.0000000E+00;
  4.0000001E-01;  9.9999998E-03;  1.4000000E+00;131;  0.0000000E+00;  0.0000000E+00;  0.0000000E+00;  1.0000000E+01;  4.0000001E-01;  0.0000000E+00;0;  0.0000000E+00;  0.0000000E+00;  0.0000000E+00;  0.0000000E+00;  0.0000000E+00;  0.0000000E+00;0;  4.0933568E-04;  1.0000000E+02;  0.0000000E+00;  0.0000000E+00;  1.0000000E+02;  0.0000000E+00;  1.0000000E+02;  3.9519608E-04;  0.0000000E+00;  1.4139613E-05;  0.0000000E+00;
  6.0000002E-01;  9.9999998E-03;  1.2000000E+00;140;  0.0000000E+00;  0.0000000E+00;  0.0000000E+00;  1.0000000E+01;  4.0000001E-01;  0.0000000E+00;0;  0.0000000E+00;  0.0000000E+00;  0.0000000E+00;  0.0000000E+00;  0.0000000E+00;  0.0000000E+00;0;  1.0415582E-03;  1.0000000E+02;  0.0000000E+00;  0.0000000E+00;  1.0000000E+02;  0.0000000E+00;  1.0000000E+02;  1.0306878E-03;  0.0000000E+00;  1.0870353E-05;  0.0000000E+00;
  6.0000002E-01;  9.9999998E-03;  1.4000000E+00;141;  0.0000000E+00;  0.0000000E+00;  0.0000000E+00;  1.0000000E+01;  4.0000001E-01;  0.0000000E+00;0;  0.0000000E+00;  0.0000000E+00;  0.0000000E+00;  0.0000000E+00;  0.0000000E+00;  0.0000000E+00;0;  7.7537238E-04;  1.0000000E+02;  0.0000000E+00;  0.0000000E+00;  1.0000000E+02;  0.0000000E+00;  1.0000000E+02;  7.6505495E-04;  0.0000000E+00;  1.0317431E-05;  0.0000000E+00;
  8.0000001E-01;  9.9999998E-03;  1.2000000E+00;150;  0.0000000E+00;  0.0000000E+00;  0.0000000E+00;  1.0000000E+01;  4.0000001E-01;  0.0000000E+00;0;  0.0000000E+00;  0.0000000E+00;  0.0000000E+00;  0.0000000E+00;  0.0000000E+00;  0.0000000E+00;0;  1.7946839E-03;  1.0000000E+02;  0.0000000E+00;  0.0000000E+00;  1.0000000E+02;  0.0000000E+00;  1.0000000E+02;  1.7968039E-03;  0.0000000E+00; -2.1199828E-06;  0.0000000E+00;
  8.0000001E-01;  9.9999998E-03;  1.4000000E+00;151;  0.0000000E+00;  0.0000000E+00;  0.0000000E+00;  1.0000000E+01;  4.0000001E-01;  0.0000000E+00;0;  0.0000000E+00;  0.0000000E+00;  0.0000000E+00;  0.0000000E+00;  0.0000000E+00;  0.0000000E+00;0;  1.3065754E-03;  1.0000000E+02;  0.0000000E+00;  0.0000000E+00;  1.0000000E+02;  0.0000000E+00;  1.0000000E+02;  1.3102137E-03;  0.0000000E+00; -3.6383669E-06;  0.0000000E+00;
  1.0000000E+00;  9.9999998E-03;  1.2000000E+00;160;  0.0000000E+00;  0.0000000E+00;  0.0000000E+00;  1.0000000E+01;  4.0000001E-01;  0.0000000E+00;0;  0.0000000E+00;  0.0000000E+00;  0.0000000E+00;  0.0000000E+00;  0.0000000E+00;  0.0000000E+00;0;  2.6993230E-03;  1.0000000E+02;  0.0000000E+00;  0.0000000E+00;  1.0000000E+02;  0.0000000E+00;  1.0000000E+02;  2.7234431E-03;  0.0000000E+00; -2.4120171E-05;  0.0000000E+00;
  1.0000000E+00;  9.9999998E-03;  1.4000000E+00;161;  0.0000000E+00;  0.0000000E+00;  0.0000000E+00;  1.0000000E+01;  4.0000001E-01;  0.0000000E+00;0;  0.0000000E+00;  0.0000000E+00;  0.0000000E+00;  0.0000000E+00;  0.0000000E+00;  0.0000000E+00;0;  1.9243765E-03;  1.0000000E+02;  0.0000000E+00;  0.0000000E+00;  1.0000000E+02;  0.0000000E+00;  1.0000000E+02;  1.9502935E-03;  0.0000000E+00; -2.5917096E-05;  0.0000000E+00;
 -1.0000000E+00;  9.9999998E-03;  1.6000000E+00;18;  0.0000000E+00;  0.0000000E+00;  0.0000000E+00;  1.0000038E+01;  4.0000001E-01;  4.1044205E-03;0;  0.0000000E+00;  0.0000000E+00;  0.0000000E+00;  0.0000000E+00;  0.0000000E+00;  0.0000000E+00;0;  2.8236900E-07;  1.0000000E+02;  0.0000000E+00;  0.0000000E+00;  1.0000000E+02;  0.0000000E+00;  1.0000000E+02;  1.6722056E-06;  0.0000000E+00; -1.3898366E-06;  0.0000000E+00;
 -1.0000000E+00;  9.9999998E-03;  1.8000000E+00;19;  0.0000000E+00;  0.0000000E+00;  0.0000000E+00;  1.0000000E+01;  4.0000001E-01;  0.0000000E+00;0;  0.0000000E+00;  0.0000000E+00;  0.0000000E+00;  0.0000000E+00;  0.0000000E+00;  0.0000000E+00;0; -1.8851085E-07;  1.0000000E+02;  0.0000000E+00;  0.0000000E+00;  1.0000000E+02;  0.0000000E+00;  1.0000000E+02;  6.4534913E-07;  0.0000000E+00; -8.3385999E-07;  0.0000000E+00;
 -1.0000000E+00;  9.9999998E-03;  2.0000000E+00;20;  0.0000000E+00;  0.0000000E+00;  0.0000000E+00;  1.0000000E+01;  4.0000001E-01;  0.0000000E+00;0;  0.0000000E+00;  0.0000000E+00;  0.0000000E+00;  0.0000000E+00;  0.0000000E+00;  0.0000000E+00;0; -1.2616272E-07;  1.0000000E+02;  0.0000000E+00;  0.0000000E+00;  1.0000000E+02;  0.0000000E+00;  1.0000000E+02;  1.7948921E-07;  0.0000000E+00; -3.0565192E-07;  0.0000000E+00;
 -8.0000001E-01;  9.9999998E-03;  1.6000000E+00;39;  0.0000000E+00;  0.0000000E+00;  0.0000000E+00;  1.0000361E+01;  4.0000001E-01;  3.8863733E-02;0;  0.0000000E+00;  0.0000000E+00;  0.0000000E+00;  0.0000000E+00;  0.0000000E+00;  0.0000000E+00;0;  1.6351007E-06;  1.0000000E+02;  0.0000000E+00;  0.0000000E+00;  1.0000000E+02;  0.0000000E+00;  1.0000000E+02;  4.0928262E-06;  0.0000000E+00; -2.4577255E-06;  0.0000000E+00;
 -8.0000001E-01;  9.9999998E-03;  1.8000000E+00;40;  0.0000000E+00;  0.0000000E+00;  0.0000000E+00;  1.0000087E+01;  4.0000001E-01;  9.3632098E-03;0;  0.0000000E+00;  0.0000000E+00;  0.0000000E+00;  0.0000000E+00;  0.0000000E+00;  0.0000000E+00;0;  1.8454443E-07;  1.0000000E+02;  0.0000000E+00;  0.0000000E+00;  1.0000000E+02;  0.0000000E+00;  1.0000000E+02;  1.8200458E-06;  0.0000000E+00; -1.6355013E-06;  0.0000000E+00;
 -8.0000001E-01;  9.9999998E-03;  2.0000000E+00;41;  0.0000000E+00;  0.0000000E+00;  0.0000000E+00;  1.0000000E+01;  4.0000001E-01;  0.0000000E+00;0;  0.0000000E+00;  0.0000000E+00;  0.0000000E+00;  0.0000000E+00;  0.0000000E+00;  0.0000000E+00;0; -1.1334782E-07;  1.0000000E+02;  0.0000000E+00;  0.0000000E+00;  1.0000000E+02;  0.0000000E+00;  1.0000000E+02;  6.1844457E-07;  0.0000000E+00; -7.3179240E-07;  0.0000000E+00;
 -6.0000002E-01;  9.9999998E-03;  1.6000000E+00;60;  0.0000000E+00;  0.0000000E+00;  0.0000000E+00;  1.0000634E+01;  4.0000001E-01;  6.8235986E-02;0;  0.0000000E+00;  0.0000000E+00;  0.0000000E+00;  0.0000000E+00;  0.0000000E+00;  0.0000000E+00;0;  3.7627399E-06;  1.0000000E+02;  0.0000000E+00;  0.0000000E+00;  1.0000000E+02;  0.0000000E+00;  1.0000000E+02;  6.7693049E-06;  0.0000000E+00; -3.0065651E-06;  0.0000000E+00;
 -6.0000002E-01;  9.9999998E-03;  1.8000000E+00;61;  0.0000000E+00;  0.0000000E+00;  0.0000000E+00;  1.0000278E+01;  4.0000001E-01;  3.0013572E-02;0;  0.0000000E+00;  0.0000000E+00;  0.0000000E+00;  0.0000000E+00;  0.0000000E+00;  0.0000000E+00;0;  1.0779056E-06;  1.0000000E+02;  0.0000000E+00;  0.0000000E+00;  1.0000000E+02;  0.0000000E+00;  1.0000000E+02;  3.1686050E-06;  0.0000000E+00; -2.0906994E-06;  0.0000000E+00;
 -6.0000002E-01;  9.9999998E-03;  2.0000000E+00;62;  0.0000000E+00;  0.0000000E+00;  0.0000000E+00;  1.0000000E+01;  4.0000001E-01;  0.0000000E+00;0;  0.0000000E+00;  0.0000000E+00;  0.0000000E+00;  0.0000000E+00;  0.0000000E+00;  0.0000000E+00;0;  1.7204707E-07;  1.0000000E+02;  0.0000000E+00;  0.0000000E+00;  1.0000000E+02;  0.0000000E+00;  1.0000000E+02;  1.2499261E-06;  0.0000000E+00; -1.0778790E-06;  0.0000000E+00;
 -4.0000001E-01;  9.9999998E-03;  1.6000000E+00;81;  0.0000000E+00;  0.0000000E+00;  0.0000000E+00;  1.0000803E+01;  4.0000001E-01;  8.6449340E-02;0;  0.0000000E+00;  0.0000000E+00;  0.0000000E+00;  0.0000000E+00;  0.0000000E+00;  0.0000000E+00;0;  8.7902108E-06;  1.0000000E+02;  0.0000000E+00;  0.0000000E+00;  1.0000000E+02;  0.0000000E+00;  1.0000000E+02;  1.0964903E-05;  0.0000000E+00; -2.1746916E-06;  0.0000000E+00;
 -4.0000001E-01;  9.9999998E-03;  1.8000000E+00;82;  0.0000000E+00;  0.0000000E+00;  0.0000000E+00;  1.0000381E+01;  4.0000001E-01;  4.0915933E-02;0;  0.0000000E+00;  0.0000000E+00;  0.0000000E+00;  0.0000000E+00;  0.0000000E+00;  0.0000000E+00;0;  3.7266377E-06;  1.0000000E+02;  0.0000000E+00;  0.0000000E+00;  1.0000000E+02;  0.0000000E+00;  1.0000000E+02;  5.1620286E-06;  0.0000000E+00; -1.4353909E-06;  0.0000000E+00;
 -4.0000001E-01;  9.9999998E-03;  2.0000000E+00;83;  0.0000000E+00;  0.0000000E+00;  0.0000000E+00;  1.0000092E+01;  4.0000001E-01;  9.8762596E-03;0;  0.0000000E+00;  0.0000000E+00;  0.0000000E+00;  0.0000000E+00;  0.0000000E+00;  0.0000000E+00;0;  1.1604222E-06;  1.0000000E+02;  0.0000000E+00;  0.0000000E+00;  1.0000000E+02;  0.0000000E+00;  1.0000000E+02;  1.9928164E-06;  0.0000000E+00; -8.3239416E-07;  0.0000000E+00;
 -2.0000000E-01;  9.9999998E-03;  1.6000000E+00;102;  0.0000000E+00;  0.0000000E+00;  0.0000000E+00;  1.0000000E+01;  4.0000001E-01;  0.0000000E+00;0;  0.0000000E+00;  0.0000000E+00;  0.0000000E+00;  0.0000000E+00;  0.0000000E+00;  0.0000000E+00;0;  2.3577339E-05;  1.0000000E+02;  0.0000000E+00;  0.0000000E+00;  1.0000000E+02;  0.0000000E+00;  1.0000000E+02;  2.2803379E-05;  0.0000000E+00;  7.7395981E-07;  0.0000000E+00;
 -2.0000000E-01;  9.9999998E-03;  1.8000000E+00;103;  0.0000000E+00;  0.0000000E+00;  0.0000000E+00;  1.0000424E+01;  4.0000001E-01;  4.5661654E-02;0;  0.0000000E+00;  0.0000000E+00;  0.0000000E+00;  0.0000000E+00;  0.0000000E+00;  0.0000000E+00;0;  1.2043185E-05;  1.0000000E+02;  0.0000000E+00;  0.0000000E+00;  1.0000000E+02;  0.0000000E+00;  1.0000000E+02;  1.1039135E-05;  0.0000000E+00;  1.0040500E-06;  0.0000000E+00;
 -2.0000000E-01;  9.9999998E-03;  2.0000000E+00;104;  0.0000000E+00;  0.0000000E+00;  0.0000000E+00;  1.0000140E+01;  4.0000001E-01;  1.5135042E-02;0;  0.0000000E+00;  0.0000000E+00;  0.0000000E+00;  0.0000000E+00;  0.0000000E+00;  0.0000000E+00;0;  4.5820425E-06;  1.0000000E+02;  0.0000000E+00;  0.0000000E+00;  1.0000000E+02;  0.0000000E+00;  1.0000000E+02;  4.0735113E-06;  0.0000000E+00;  5.0853146E-07;  0.0000000E+00;
  0.0000000E+00;  9.9999998E-03;  1.6000000E+00;112;  0.0000000E+00;  0.0000000E+00;  0.0000000E+00;  1.0000000E+01;  4.0000001E-01;  0.0000000E+00;0;  0.0000000E+00;  0.0000000E+00;  0.0000000E+00;  0.0000000E+00;  0.0000000E+00;  0.0000000E+00;0;  5.9337097E-05;  1.0000000E+02;  0.0000000E+00;  0.0000000E+00;  1.0000000E+02;  0.0000000E+00;  1.0000000E+02;  5.3582480E-05;  0.0000000E+00;  5.7546167E-06;  0.0000000E+00;
  0.0000000E+00;  9.9999998E-03;  1.8000000E+00;113;  0.0000000E+00;  0.0000000E+00;  0.0000000E+00;  1.0000000E+01;  4.0000001E-01;  0.0000000E+00;0;  0.0000000E+00;  0.0000000E+00;  0.0000000E+00;  0.0000000E+00;  0.0000000E+00;  0.0000000E+00;0;  3.2779692E-05;  1.0000000E+02;  0.0000000E+00;  0.0000000E+00;  1.0000000E+02;  0.0000000E+00;  1.0000000E+02;  2.7711549E-05;  0.0000000E+00;  5.0681429E-06;  0.0000000E+00;
  0.0000000E+00;  9.9999998E-03;  2.0000000E+00;114;  0.0000000E+00;  0.0000000E+00;  0.0000000E+00;  1.0000150E+01;  4.0000001E-01;  1.6161138E-02;0;  0.0000000E+00;  0.0000000E+00;  0.0000000E+00;  0.0000000E+00;  0.0000000E+00;  0.0000000E+00;0;  1.3925028E-05;  1.0000000E+02;  0.0000000E+00;  0.0000000E+00;  1.0000000E+02;  0.0000000E+00;  1.0000000E+02;  1.0958957E-05;  0.0000000E+00;  2.9660710E-06;  0.0000000E+00;
  2.0000000E-01;  9.9999998E-03;  1.6000000E+00;122;  0.0000000E+00;  0.0000000E+00;  0.0000000E+00;  1.0000000E+01;  4.0000001E-01;  0.0000000E+00;0;  0.0000000E+00;  0.0000000E+00;  0.0000000E+00;  0.0000000E+00;  0.0000000E+00;  0.0000000E+00;0;  1.3383645E-04;  1.0000000E+02;  0.0000000E+00;  0.0000000E+00;  1.0000000E+02;  0.0000000E+00;  1.0000000E+02;  1.2278838E-04;  0.0000000E+00;  1.1048077E-05;  0.0000000E+00;
  2.0000000E-01;  9.9999998E-03;  1.8000000E+00;123;  0.0000000E+00;  0.0000000E+00;  0.0000000E+00;  1.0000000E+01;  4.0000001E-01;  0.0000000E+00;0;  0.0000000E+00;  0.0000000E+00;  0.0000000E+00;  0.0000000E+00;  0.0000000E+00;  0.0000000E+00;0;  7.6287099E-05;  1.0000000E+02;  0.0000000E+00;  0.0000000E+00;  1.0000000E+02;  0.0000000E+00;  1.0000000E+02;  6.7101406E-05;  0.0000000E+00;  9.1856946E-06;  0.0000000E+00;
  2.0000000E-01;  9.9999998E-03;  2.0000000E+00;124;  0.0000000E+00;  0.0000000E+00;  0.0000000E+00;  1.0000000E+01;  4.0000001E-01;  0.0000000E+00;0;  0.0000000E+00;  0.0000000E+00;  0.0000000E+00;  0.0000000E+00;  0.0000000E+00;  0.0000000E+00;0;  3.4588676E-05;  1.0000000E+02;  0.0000000E+00;  0.0000000E+00;  1.0000000E+02;  0.0000000E+00;  1.0000000E+02;  2.8990618E-05;  0.0000000E+00;  5.5980581E-06;  0.0000000E+00;
  4.0000001E-01;  9.9999998E-03;  1.6000000E+00;132;  0.0000000E+00;  0.0000000E+00;  0.0000000E+00;  1.0000000E+01;  4.0000001E-01;  0.0000000E+00;0;  0.0000000E+00;  0.0000000E+00;  0.0000000E+00;  0.0000000E+00;  0.0000000E+00;  0.0000000E+00;0;  2.7456717E-04;  1.0000000E+02;  0.0000000E+00;  0.0000000E+00;  1.0000000E+02;  0.0000000E+00;  1.0000000E+02;  2.6138747E-04;  0.0000000E+00;  1.3179695E-05;  0.0000000E+00;
  4.0000001E-01;  9.9999998E-03;  1.8000000E+00;133;  0.0000000E+00;  0.0000000E+00;  0.0000000E+00;  1.0000000E+01;  4.0000001E-01;  0.0000000E+00;0;  0.0000000E+00;  0.0000000E+00;  0.0000000E+00;  0.0000000E+00;  0.0000000E+00;  0.0000000E+00;0;  1.5870860E-04;  1.0000000E+02;  0.0000000E+00;  0.0000000E+00;  1.0000000E+02;  0.0000000E+00;  1.0000000E+02;  1.4808158E-04;  0.0000000E+00;  1.0627021E-05;  0.0000000E+00;
  4.0000001E-01;  9.9999998E-03;  2.0000000E+00;134;  0.0000000E+00;  0.0000000E+00;  0.0000000E+00;  1.0000000E+01;  4.0000001E-01;  0.0000000E+00;0;  0.0000000E+00;  0.0000000E+00;  0.0000000E+00;  0.0000000E+00;  0.0000000E+00;  0.0000000E+00;0;  7.5177588E-05;  1.0000000E+02;  0.0000000E+00;  0.0000000E+00;  1.0000000E+02;  0.0000000E+00;  1.0000000E+02;  6.8446119E-05;  0.0000000E+00;  6.7314695E-06;  0.0000000E+00;
  6.0000002E-01;  9.9999998E-03;  1.6000000E+00;142;  0.0000000E+00;  0.0000000E+00;  0.0000000E+00;  1.0000000E+01;  4.0000001E-01;  0.0000000E+00;0;  0.0000000E+00;  0.0000000E+00;  0.0000000E+00;  0.0000000E+00;  0.0000000E+00;  0.0000000E+00;0;  5.1148573E-04;  1.0000000E+02;  0.0000000E+00;  0.0000000E+00;  1.0000000E+02;  0.0000000E+00;  1.0000000E+02;  5.0293392E-04;  0.0000000E+00;  8.5517831E-06;  0.0000000E+00;
  6.0000002E-01;  9.9999998E-03;  1.8000000E+00;143;  0.0000000E+00;  0.0000000E+00;  0.0000000E+00;  1.0000000E+01;  4.0000001E-01;  0.0000000E+00;0;  0.0000000E+00;  0.0000000E+00;  0.0000000E+00;  0.0000000E+00;  0.0000000E+00;  0.0000000E+00;0;  2.9783946E-04;  1.0000000E+02;  0.0000000E+00;  0.0000000E+00;  1.0000000E+02;  0.0000000E+00;  1.0000000E+02;  2.9112224E-04;  0.0000000E+00;  6.7172223E-06;  0.0000000E+00;
  6.0000002E-01;  9.9999998E-03;  2.0000000E+00;144;  0.0000000E+00;  0.0000000E+00;  0.0000000E+00;  1.0000000E+01;  4.0000001E-01;  0.0000000E+00;0;  0.0000000E+00;  0.0000000E+00;  0.0000000E+00;  0.0000000E+00;  0.0000000E+00;  0.0000000E+00;0;  1.4681730E-04;  1.0000000E+02;  0.0000000E+00;  0.0000000E+00;  1.0000000E+02;  0.0000000E+00;  1.0000000E+02;  1.4212637E-04;  0.0000000E+00;  4.6909195E-06;  0.0000000E+00;
  8.0000001E-01;  9.9999998E-03;  1.6000000E+00;152;  0.0000000E+00;  0.0000000E+00;  0.0000000E+00;  1.0000000E+01;  4.0000001E-01;  0.0000000E+00;0;  0.0000000E+00;  0.0000000E+00;  0.0000000E+00;  0.0000000E+00;  0.0000000E+00;  0.0000000E+00;0;  8.4388861E-04;  1.0000000E+02;  0.0000000E+00;  0.0000000E+00;  1.0000000E+02;  0.0000000E+00;  1.0000000E+02;  8.4820768E-04;  0.0000000E+00; -4.3190548E-06;  0.0000000E+00;
  8.0000001E-01;  9.9999998E-03;  1.8000000E+00;153;  0.0000000E+00;  0.0000000E+00;  0.0000000E+00;  1.0000000E+01;  4.0000001E-01;  0.0000000E+00;0;  0.0000000E+00;  0.0000000E+00;  0.0000000E+00;  0.0000000E+00;  0.0000000E+00;  0.0000000E+00;0;  4.9138832E-04;  1.0000000E+02;  0.0000000E+00;  0.0000000E+00;  1.0000000E+02;  0.0000000E+00;  1.0000000E+02;  4.9520697E-04;  0.0000000E+00; -3.8186372E-06;  0.0000000E+00;
  8.0000001E-01;  9.9999998E-03;  2.0000000E+00;154;  0.0000000E+00;  0.0000000E+00;  0.0000000E+00;  1.0000000E+01;  4.0000001E-01;  0.0000000E+00;0;  0.0000000E+00;  0.0000000E+00;  0.0000000E+00;  0.0000000E+00;  0.0000000E+00;  0.0000000E+00;0;  2.5321372E-04;  1.0000000E+02;  0.0000000E+00;  0.0000000E+00;  1.0000000E+02;  0.0000000E+00;  1.0000000E+02;  2.5523221E-04;  0.0000000E+00; -2.0184984E-06;  0.0000000E+00;
  1.0000000E+00;  9.9999998E-03;  1.6000000E+00;162;  0.0000000E+00;  0.0000000E+00;  0.0000000E+00;  1.0000000E+01;  4.0000001E-01;  0.0000000E+00;0;  0.0000000E+00;  0.0000000E+00;  0.0000000E+00;  0.0000000E+00;  0.0000000E+00;  0.0000000E+00;0;  1.2114460E-03;  1.0000000E+02;  0.0000000E+00;  0.0000000E+00;  1.0000000E+02;  0.0000000E+00;  1.0000000E+02;  1.2353781E-03;  0.0000000E+00; -2.3932056E-05;  0.0000000E+00;
  1.0000000E+00;  9.9999998E-03;  1.8000000E+00;163;  0.0000000E+00;  0.0000000E+00;  0.0000000E+00;  1.0000000E+01;  4.0000001E-01;  0.0000000E+00;0;  0.0000000E+00;  0.0000000E+00;  0.0000000E+00;  0.0000000E+00;  0.0000000E+00;  0.0000000E+00;0;  6.9512468E-04;  1.0000000E+02;  0.0000000E+00;  0.0000000E+00;  1.0000000E+02;  0.0000000E+00;  1.0000000E+02;  7.1566569E-04;  0.0000000E+00; -2.0540998E-05;  0.0000000E+00;
  1.0000000E+00;  9.9999998E-03;  2.0000000E+00;164;  0.0000000E+00;  0.0000000E+00;  0.0000000E+00;  1.0000000E+01;  4.0000001E-01;  0.0000000E+00;0;  0.0000000E+00;  0.0000000E+00;  0.0000000E+00;  0.0000000E+00;  0.0000000E+00;  0.0000000E+00;0;  3.7014572E-04;  1.0000000E+02;  0.0000000E+00;  0.0000000E+00;  1.0000000E+02;  0.0000000E+00;  1.0000000E+02;  3.8518274E-04;  0.0000000E+00; -1.5037032E-05;  0.0000000E+00;
 -4.8499330E-04;  9.9999998E-03; -1.0001669E+00;165;  2.5024343E-05;  0.0000000E+00; -5.5480148E-05;  9.9987469E+00;  4.0008166E-01; -1.3480441E-01;3;  8.5948650E-03;  0.0000000E+00; -1.1202876E-02;  0.0000000E+00;  0.0000000E+00;  0.0000000E+00;0;  1.3009642E-04;  9.9930679E+01;  0.0000000E+00; -5.5395838E-05;  1.0000000E+02;  0.0000000E+00;  9.9998260E+01;  1.2868298E-04;  0.0000000E+00;  1.4134475E-06;  0.0000000E+00;
 -4.0008937E-04;  9.9999998E-03; -8.0017924E-01;166;  6.9649330E-05;  0.0000000E+00; -7.3229428E-05;  9.9987917E+00;  4.0005919E-01; -1.2999454E-01;3;  9.9333255E-03;  0.0000000E+00; -1.7900772E-02;  0.0000000E+00;  0.0000000E+00;  0.0000000E+00;0;  1.2330011E-04;  9.9938286E+01;  0.0000000E+00; -4.0842631E-05;  1.0000000E+02;  0.0000000E+00;  1.0000000E+02;  1.2557443E-04;  0.0000000E+00; -2.2743243E-06;  0.0000000E+00;
 -2.8043854E-04;  9.9999998E-03; -6.0014403E-01;167;  1.1471150E-04;  0.0000000E+00; -6.9059264E-05;  9.9988050E+00;  4.0002462E-01; -1.2858365E-01;3;  9.9751027E-03;  0.0000000E+00; -1.2328615E-02;  0.0000000E+00;  0.0000000E+00;  0.0000000E+00;0;  1.0653584E-04;  9.9954727E+01;  0.0000000E+00; -9.7201082E-06;  1.0000000E+02;  0.0000000E+00;  9.9998749E+01;  1.0955102E-04;  0.0000000E+00; -3.0151768E-06;  0.0000000E+00;
 -1.1384587E-04;  9.9999998E-03; -4.0005857E-01;168;  1.7554506E-04;  0.0000000E+00; -3.8094229E-05;  9.9987965E+00;  3.9999387E-01; -1.2948149E-01;3;  1.1664527E-02;  0.0000000E+00; -4.4721626E-03;  0.0000000E+00;  0.0000000E+00;  0.0000000E+00;0;  8.6949884E-05;  9.9973778E+01;  0.0000000E+00;  2.7051149E-06;  1.0000000E+02;  0.0000000E+00;  1.0000729E+02;  8.9348352E-05;  0.0000000E+00; -2.3984690E-06;  0.0000000E+00;
 -4.1647713E-06;  9.9999998E-03; -2.0002164E-01;169;  2.1820037E-04;  0.0000000E+00; -1.4001479E-05;  9.9989548E+00;  3.9996502E-01; -1.1248665E-01;3;  1.2761319E-02;  0.0000000E+00; -1.1196343E-03;  0.0000000E+00;  0.0000000E+00;  0.0000000E+00;0;  7.1686060E-05;  9.9988190E+01;  0.0000000E+00;  1.5818437E-06;  1.0000000E+02;  0.0000000E+00;  1.0000815E+02;  7.3657975E-05;  0.0000000E+00; -1.9719137E-06;  0.0000000E+00;
  1.9939104E-01;  9.9999998E-03; -9.9989152E-01;176;  4.2993284E-05;  0.0000000E+00; -3.6204503E-07;  9.9977942E+00;  4.0043420E-01; -2.3735034E-01;3;  1.2121122E-02;  0.0000000E+00; -2.1709120E-02;  0.0000000E+00;  0.0000000E+00;  0.0000000E+00;0;  2.8227051E-04;  9.9737045E+01;  0.0000000E+00; -6.1511790E-05;  1.0000000E+02;  0.0000000E+00;  1.0000108E+02;  2.7987329E-04;  0.0000000E+00;  2.3972352E-06;  0.0000000E+00;
  1.9938633E-01;  9.9999998E-03; -7.9997212E-01;177;  3.1410498E-05;  0.0000000E+00; -2.5584071E-05;  9.9977226E+00;  4.0045920E-01; -2.4504612E-01;3;  1.6292689E-02;  0.0000000E+00; -2.6913987E-02;  0.0000000E+00;  0.0000000E+00;  0.0000000E+00;0;  2.7572861E-04;  9.9716751E+01;  0.0000000E+00; -2.3290129E-04;  1.0000000E+02;  0.0000000E+00;  9.9999870E+01;  2.7822852E-04;  0.0000000E+00; -2.4998908E-06;  0.0000000E+00;
  1.9943941E-01;  9.9999998E-03; -5.9999746E-01;178;  4.9512546E-05;  0.0000000E+00; -2.9440494E-05;  9.9977436E+00;  4.0045848E-01; -2.4280152E-01;3;  2.2541791E-02;  0.0000000E+00; -2.2408579E-02;  0.0000000E+00;  0.0000000E+00;  0.0000000E+00;0;  2.4732045E-04;  9.9719482E+01;  0.0000000E+00; -1.6800147E-04;  1.0000000E+02;  0.0000000E+00;  1.0000382E+02;  2.5355976E-04;  0.0000000E+00; -6.2393015E-06;  0.0000000E+00;
  1.9958638E-01;  9.9999998E-03; -3.9997575E-01;179;  1.0655000E-04;  0.0000000E+00; -9.1156089E-06;  9.9980450E+00;  4.0042368E-01; -2.1035103E-01;3;  2.6141526E-02;  0.0000000E+00; -1.3542112E-02;  0.0000000E+00;  0.0000000E+00;  0.0000000E+00;0;  2.1155505E-04;  9.9736359E+01;  0.0000000E+00; -6.0304759E-05;  1.0000000E+02;  0.0000000E+00;  1.0001189E+02;  2.1985578E-04;  0.0000000E+00; -8.3007253E-06;  0.0000000E+00;
  1.9969298E-01;  9.9999998E-03; -1.9998400E-01;180;  1.4860748E-04;  0.0000000E+00; -1.3534806E-06;  9.9982224E+00;  4.0038884E-01; -1.9123986E-01;3;  2.9206976E-02;  0.0000000E+00; -5.9368801E-03;  0.0000000E+00;  0.0000000E+00;  0.0000000E+00;0;  1.8259449E-04;  9.9754471E+01;  0.0000000E+00; -8.9170326E-06;  1.0000000E+02;  0.0000000E+00;  1.0001152E+02;  1.9198260E-04;  0.0000000E+00; -9.3881144E-06;  0.0000000E+00;
  3.9951685E-01;  9.9999998E-03; -9.9960518E-01;187;  1.0017568E-04;  0.0000000E+00;  1.1133574E-04;  9.9962606E+00;  4.0115279E-01; -4.0235925E-01;3; -1.7778562E-02;  0.0000000E+00; -1.3824929E-01;  0.0000000E+00;  0.0000000E+00;  0.0000000E+00;0;  6.1590463E-04;  9.9346664E+01;  0.0000000E+00;  1.7588242E-03;  1.0000000E+02;  0.0000000E+00;  1.0000108E+02;  6.2105549E-04;  0.0000000E+00; -5.1508468E-06;  0.0000000E+00;
  3.9925787E-01;  9.9999998E-03; -7.9971433E-01;188; -3.8271428E-06;  0.0000000E+00;  6.4519365E-05;  9.9960756E+00;  4.0127650E-01; -4.2223993E-01;3; -1.4571426E-02;  0.0000000E+00; -1.1112075E-01;  0.0000000E+00;  0.0000000E+00;  0.0000000E+00;0;  6.3105841E-04;  9.9281067E+01;  0.0000000E+00; -1.9831639E-05;  1.0000000E+02;  0.0000000E+00;  9.9999763E+01;  6.3696608E-04;  0.0000000E+00; -5.9076519E-06;  0.0000000E+00;
  3.9923710E-01;  9.9999998E-03; -5.9983450E-01;189; -1.3761089E-06;  0.0000000E+00;  3.0204272E-05;  9.9960260E+00;  4.0131173E-01; -4.2756280E-01;3; -1.1548964E-02;  0.0000000E+00; -7.7595413E-02;  0.0000000E+00;  0.0000000E+00;  0.0000000E+00;0;  6.1248359E-04;  9.9260063E+01;  0.0000000E+00; -5.5964151E-04;  1.0000000E+02;  0.0000000E+00;  1.0001234E+02;  6.2234665E-04;  0.0000000E+00; -9.8630790E-06;  0.0000000E+00;
  3.9934826E-01;  9.9999998E-03; -3.9990103E-01;190;  5.3861178E-05;  0.0000000E+00;  1.8247558E-05;  9.9962425E+00;  4.0128890E-01; -4.0428317E-01;3; -1.1784991E-02;  0.0000000E+00; -4.5521028E-02;  0.0000000E+00;  0.0000000E+00;  0.0000000E+00;0;  5.7702826E-04;  9.9269127E+01;  0.0000000E+00; -3.3735868E-04;  1.0000000E+02;  0.0000000E+00;  1.0001160E+02;  5.8997015E-04;  0.0000000E+00; -1.2941906E-05;  0.0000000E+00;
  3.9945954E-01;  9.9999998E-03; -1.9994675E-01;191;  1.0342347E-04;  0.0000000E+00;  1.1317327E-05;  9.9964066E+00;  4.0125582E-01; -3.8664711E-01;3; -1.2270164E-02;  0.0000000E+00; -1.9925667E-02;  0.0000000E+00;  0.0000000E+00;  0.0000000E+00;0;  5.4617197E-04;  9.9286171E+01;  0.0000000E+00; -7.6240016E-05;  1.0000000E+02;  0.0000000E+00;  1.0001145E+02;  5.6067359E-04;  0.0000000E+00; -1.4501647E-05;  0.0000000E+00;
  5.9959692E-01;  9.9999998E-03; -9.9936855E-01;198;  5.6031924E-05;  0.0000000E+00;  2.1175233E-04;  9.9943590E+00;  4.0236270E-01; -6.0693377E-01;3;  6.2966190E-02;  0.0000000E+00; -2.0775951E-01;  0.0000000E+00;  0.0000000E+00;  0.0000000E+00;0;  1.2131432E-03;  9.8696388E+01;  0.0000000E+00;  1.3376025E-02;  1.0000000E+02;  0.0000000E+00;  1.0002060E+02;  1.2439815E-03;  0.0000000E+00; -3.0838288E-05;  0.0000000E+00;
  5.9906846E-01;  9.9999998E-03; -7.9950416E-01;199; -1.0105049E-04;  0.0000000E+00;  1.6004760E-04;  9.9939861E+00;  4.0260231E-01; -6.4707965E-01;3;  3.3922207E-02;  0.0000000E+00; -1.5450507E-01;  0.0000000E+00;  0.0000000E+00;  0.0000000E+00;0;  1.2907987E-03;  9.8578690E+01;  0.0000000E+00;  4.2976555E-03;  1.0000000E+02;  0.0000000E+00;  1.0001225E+02;  1.3098983E-03;  0.0000000E+00; -1.9099687E-05;  0.0000000E+00;
  5.9906495E-01;  9.9999998E-03; -5.9971797E-01;200; -6.9811111E-05;  0.0000000E+00;  8.4159437E-05;  9.9938135E+00;  4.0270045E-01; -6.6561341E-01;3;  1.4834541E-02;  0.0000000E+00; -9.5663883E-02;  0.0000000E+00;  0.0000000E+00;  0.0000000E+00;0;  1.3246587E-03;  9.8529106E+01;  0.0000000E+00; -2.8297355E-04;  1.0000000E+02;  0.0000000E+00;  1.0000945E+02;  1.3377055E-03;  0.0000000E+00; -1.3046836E-05;  0.0000000E+00;
  5.9919620E-01;  9.9999998E-03; -3.9985669E-01;201;  5.1530201E-06;  0.0000000E+00;  3.7737802E-05;  9.9938049E+00;  4.0270513E-01; -6.6657537E-01;3;  6.3383402E-03;  0.0000000E+00; -5.0881255E-02;  0.0000000E+00;  0.0000000E+00;  0.0000000E+00;0;  1.3189119E-03;  9.8529488E+01;  0.0000000E+00; -7.9256407E-04;  1.0000000E+02;  0.0000000E+00;  1.0000726E+02;  1.3307141E-03;  0.0000000E+00; -1.1802155E-05;  0.0000000E+00;
  5.9933072E-01;  9.9999998E-03; -1.9992991E-01;202;  7.5612610E-05;  0.0000000E+00;  1.8772269E-05;  9.9938011E+00;  4.0267688E-01; -6.6696018E-01;3;  5.7908322E-04;  0.0000000E+00; -2.1006335E-02;  0.0000000E+00;  0.0000000E+00;  0.0000000E+00;0;  1.3059574E-03;  9.8545113E+01;  0.0000000E+00; -2.3650037E-04;  1.0000000E+02;  0.0000000E+00;  1.0000481E+02;  1.3176432E-03;  0.0000000E+00; -1.1685779E-05;  0.0000000E+00;
  8.0219269E-01;  9.9999998E-03; -1.0000504E+00;209;  9.1555365E-04;  0.0000000E+00; -4.8477032E-05;  9.9912128E+00;  4.0450898E-01; -9.4540143E-01;3;  2.3854573E-01;  0.0000000E+00; -1.1542491E-01;  0.0000000E+00;  0.0000000E+00;  0.0000000E+00;0;  2.5419528E-03;  9.7609215E+01;  0.0000000E+00;  3.7322003E-02;  1.0000000E+02;  0.0000000E+00;  9.9998924E+01;  2.5267324E-03;  0.0000000E+00;  1.5220416E-05;  0.0000000E+00;
  7.9905510E-01;  9.9999998E-03; -7.9973978E-01;210; -2.0313004E-04;  0.0000000E+00;  9.3559342E-05;  9.9918842E+00;  4.0448827E-01; -8.7319160E-01;3;  1.2756036E-01;  0.0000000E+00; -1.3583620E-01;  0.0000000E+00;  0.0000000E+00;  0.0000000E+00;0;  2.3105375E-03;  9.7619370E+01;  0.0000000E+00;  2.1020422E-02;  1.0000000E+02;  0.0000000E+00;  1.0000956E+02;  2.3294503E-03;  0.0000000E+00; -1.8912793E-05;  0.0000000E+00;
  7.9893702E-01;  9.9999998E-03; -5.9980583E-01;211; -1.7681108E-04;  0.0000000E+00;  7.3381845E-05;  9.9914961E+00;  4.0463787E-01; -9.1494012E-01;3;  4.3016471E-02;  0.0000000E+00; -9.1094196E-02;  0.0000000E+00;  0.0000000E+00;  0.0000000E+00;0;  2.4162889E-03;  9.7552048E+01;  0.0000000E+00;  3.7930200E-03;  1.0000000E+02;  0.0000000E+00;  9.9998558E+01;  2.4252902E-03;  0.0000000E+00; -9.0012527E-06;  0.0000000E+00;
  7.9910243E-01;  9.9999998E-03; -3.9992464E-01;212; -4.5783789E-05;  0.0000000E+00;  2.3366611E-05;  9.9912996E+00;  4.0465289E-01; -9.3610293E-01;3;  1.4576243E-02;  0.0000000E+00; -4.5091711E-02;  0.0000000E+00;  0.0000000E+00;  0.0000000E+00;0;  2.4685594E-03;  9.7549263E+01;  0.0000000E+00; -6.4669101E-04;  1.0000000E+02;  0.0000000E+00;  9.9994041E+01;  2.4688519E-03;  0.0000000E+00; -2.9243483E-07;  0.0000000E+00;
  7.9927963E-01;  9.9999998E-03; -1.9996475E-01;213;  5.2071620E-05;  0.0000000E+00;  9.7789180E-06;  9.9912081E+00;  4.0461585E-01; -9.4591480E-01;3;  3.2470792E-03;  0.0000000E+00; -1.7874163E-02;  0.0000000E+00;  0.0000000E+00;  0.0000000E+00;0;  2.4912201E-03;  9.7566673E+01;  0.0000000E+00; -3.7422040E-04;  1.0000000E+02;  0.0000000E+00;  9.9989700E+01;  2.4887850E-03;  0.0000000E+00;  2.4352721E-06;  0.0000000E+00;
  1.0126226E+00;  9.9999998E-03; -1.0007036E+00;220;  2.5974035E-03;  0.0000000E+00; -1.0804685E-04;  9.9875441E+00;  4.0871575E-01; -1.3401355E+00;3;  4.0286139E-02;  0.0000000E+00;  4.0048737E-02;  0.0000000E+00;  0.0000000E+00;  0.0000000E+00;0;  4.6500722E-03;  9.5601616E+01;  0.0000000E+00;  6.3169007E-03;  1.0000000E+02;  0.0000000E+00;  9.9938828E+01;  4.6073007E-03;  0.0000000E+00;  4.2771535E-05;  0.0000000E+00;
  1.0032212E+00;  9.9999998E-03; -8.0077302E-01;221;  8.7186194E-04;  0.0000000E+00; -1.6087826E-04;  9.9892416E+00;  4.0731841E-01; -1.1575032E+00;3;  1.5966575E-01;  0.0000000E+00;  7.5168841E-02;  0.0000000E+00;  0.0000000E+00;  0.0000000E+00;0;  3.9926772E-03;  9.6293060E+01;  0.0000000E+00;  3.6049232E-02;  1.0000000E+02;  0.0000000E+00;  9.9931694E+01;  3.9280690E-03;  0.0000000E+00;  6.4608343E-05;  0.0000000E+00;
  1.0008358E+00;  9.9999998E-03; -6.0011953E-01;222; -2.4032807E-04;  0.0000000E+00; -3.0341632E-06;  9.9896736E+00;  4.0712833E-01; -1.1110114E+00;3;  6.2880181E-02;  0.0000000E+00; -5.0551519E-02;  0.0000000E+00;  0.0000000E+00;  0.0000000E+00;0;  3.8279742E-03;  9.6351456E+01;  0.0000000E+00;  1.1474761E-02;  1.0000000E+02;  0.0000000E+00;  9.9974915E+01;  3.8127257E-03;  0.0000000E+00;  1.5248464E-05;  0.0000000E+00;
  1.0010992E+00;  9.9999998E-03; -4.0019390E-01;223; -9.3290946E-05;  0.0000000E+00; -2.3336817E-05;  9.9893646E+00;  4.0709224E-01; -1.1442294E+00;3;  1.7514544E-02;  0.0000000E+00; -2.9813290E-02;  0.0000000E+00;  0.0000000E+00;  0.0000000E+00;0;  3.9412356E-03;  9.6368347E+01;  0.0000000E+00;  6.0773746E-05;  1.0000000E+02;  0.0000000E+00;  9.9971535E+01;  3.9172471E-03;  0.0000000E+00;  2.3988707E-05;  0.0000000E+00;
  1.0007099E+00;  9.9999998E-03; -2.0012748E-01;224;  2.7811848E-05;  0.0000000E+00; -2.3710776E-05;  9.9892054E+00;  4.0699846E-01; -1.1613517E+00;3;  3.6074019E-03;  0.0000000E+00; -1.2764121E-02;  0.0000000E+00;  0.0000000E+00;  0.0000000E+00;0;  3.9970079E-03;  9.6407272E+01;  0.0000000E+00; -3.9993162E-04;  1.0000000E+02;  0.0000000E+00;  9.9973129E+01;  3.9701783E-03;  0.0000000E+00;  2.6829763E-05;  0.0000000E+00;
  1.2172217E+00;  9.9999998E-03; -1.0005995E+00;231;  3.6150385E-03;  0.0000000E+00; -1.2504350E-04;  9.9868002E+00;  4.1179958E-01; -1.4200512E+00;3;  3.7621311E-03;  0.0000000E+00;  8.8646069E-02;  0.0000000E+00;  0.0000000E+00;  0.0000000E+00;0;  6.3586850E-03;  9.4177254E+01;  0.0000000E+00; -1.2697343E-03;  1.0000000E+02;  0.0000000E+00;  9.9921677E+01;  6.2869298E-03;  0.0000000E+00;  7.1754992E-05;  0.0000000E+00;
  1.2115993E+00;  9.9999998E-03; -8.0060518E-01;232;  2.3873709E-03;  0.0000000E+00; -1.7211361E-04;  9.9877481E+00;  4.1074440E-01; -1.3180369E+00;3;  9.0897635E-02;  0.0000000E+00;  1.0018741E-01;  0.0000000E+00;  0.0000000E+00;  0.0000000E+00;0;  5.8547165E-03;  9.4692429E+01;  0.0000000E+00;  1.8150099E-02;  1.0000000E+02;  0.0000000E+00;  9.9909210E+01;  5.7476540E-03;  0.0000000E+00;  1.0706268E-04;  0.0000000E+00;
  1.2034322E+00;  9.9999998E-03; -6.0004151E-01;233; -6.7611742E-05;  0.0000000E+00; -4.7005218E-05;  9.9887199E+00;  4.0994865E-01; -1.2135229E+00;3;  7.4489377E-02;  0.0000000E+00; -1.6074091E-02;  0.0000000E+00;  0.0000000E+00;  0.0000000E+00;0;  5.3837094E-03;  9.5025497E+01;  0.0000000E+00;  2.0660261E-02;  1.0000000E+02;  0.0000000E+00;  9.9958946E+01;  5.3381855E-03;  0.0000000E+00;  4.5523768E-05;  0.0000000E+00;
  1.2050818E+00;  9.9999998E-03; -4.0023315E-01;234; -7.6056887E-05;  0.0000000E+00; -1.0440591E-05;  9.9884424E+00;  4.0995368E-01; -1.2433387E+00;3;  1.7385563E-02;  0.0000000E+00; -1.5448463E-02;  0.0000000E+00;  0.0000000E+00;  0.0000000E+00;0;  5.5240784E-03;  9.5028358E+01;  0.0000000E+00; -3.1791616E-04;  1.0000000E+02;  0.0000000E+00;  9.9948441E+01;  5.4806792E-03;  0.0000000E+00;  4.3399021E-05;  0.0000000E+00;
  1.2089871E+00;  9.9999998E-03; -2.0028564E-01;235;  4.5594170E-05;  0.0000000E+00; -4.0042309E-05;  9.9882545E+00;  4.0985307E-01; -1.2635988E+00;3;  3.5669501E-03;  0.0000000E+00; -8.2430337E-03;  0.0000000E+00;  0.0000000E+00;  0.0000000E+00;0;  5.6375787E-03;  9.5069038E+01;  0.0000000E+00; -1.3147461E-03;  1.0000000E+02;  0.0000000E+00;  9.9953743E+01;  5.5840365E-03;  0.0000000E+00;  5.3542211E-05;  0.0000000E+00;
  1.4218540E+00;  9.9999998E-03; -1.0004752E+00;242;  4.6397788E-03;  0.0000000E+00; -1.1451450E-04;  9.9873943E+00;  4.1447380E-01; -1.3558717E+00;3;  8.0640540E-03;  0.0000000E+00;  7.5996131E-02;  0.0000000E+00;  0.0000000E+00;  0.0000000E+00;0;  7.7084852E-03;  9.2983482E+01;  0.0000000E+00; -2.3437561E-03;  1.0000000E+02;  0.0000000E+00;  9.9915802E+01;  7.6210881E-03;  0.0000000E+00;  8.7397144E-05;  0.0000000E+00;
  1.4174018E+00;  9.9999998E-03; -8.0031461E-01;243;  3.8018483E-03;  0.0000000E+00; -8.9964669E-05;  9.9878473E+00;  4.1389015E-01; -1.3071554E+00;3;  5.4265365E-02;  0.0000000E+00;  5.4644171E-02;  0.0000000E+00;  0.0000000E+00;  0.0000000E+00;0;  7.4033397E-03;  9.3256050E+01;  0.0000000E+00;  8.3371485E-03;  1.0000000E+02;  0.0000000E+00;  9.9912605E+01;  7.3230299E-03;  0.0000000E+00;  8.0310012E-05;  0.0000000E+00;
  1.4116733E+00;  9.9999998E-03; -6.0003185E-01;244;  1.4958292E-03;  0.0000000E+00; -6.5302513E-05;  9.9883823E+00;  4.1344953E-01; -1.2495929E+00;3;  4.0248837E-02;  0.0000000E+00; -2.5234842E-03;  0.0000000E+00;  0.0000000E+00;  0.0000000E+00;0;  7.0566316E-03;  9.3442833E+01;  0.0000000E+00;  6.9455071E-03;  1.0000000E+02;  0.0000000E+00;  9.9935280E+01;  6.9839973E-03;  0.0000000E+00;  7.2634335E-05;  0.0000000E+00;
  1.4134356E+00;  9.9999998E-03; -4.0024656E-01;245;  5.9222046E-04;  0.0000000E+00;  1.6056825E-04;  9.9884205E+00;  4.1341445E-01; -1.2454871E+00;3;  8.9115966E-03;  0.0000000E+00; -7.0942906E-03;  0.0000000E+00;  0.0000000E+00;  0.0000000E+00;0;  7.0084124E-03;  9.3471138E+01;  0.0000000E+00; -5.3966050E-03;  1.0000000E+02;  0.0000000E+00;  9.9926186E+01;  6.9949040E-03;  0.0000000E+00;  1.3508465E-05;  0.0000000E+00;
  1.4187493E+00;  9.9999998E-03; -2.0045638E-01;246;  4.6323850E-03;  0.0000000E+00; -1.1672355E-04;  9.9883080E+00;  4.1322702E-01; -1.2575955E+00;3; -1.2860453E-04;  0.0000000E+00; -5.1985322E-03;  0.0000000E+00;  0.0000000E+00;  0.0000000E+00;0;  7.1579535E-03;  9.3537689E+01;  0.0000000E+00; -2.4791993E-03;  1.0000000E+02;  0.0000000E+00;  9.9934891E+01;  7.0773042E-03;  0.0000000E+00;  8.0649152E-05;  0.0000000E+00;
  1.6278353E+00;  9.9999998E-03; -1.0004619E+00;253;  5.8700708E-03;  0.0000000E+00; -8.2235849E-05;  9.9883709E+00;  4.1744125E-01; -1.2502695E+00;3;  1.3598715E-02;  0.0000000E+00;  3.6916073E-02;  0.0000000E+00;  0.0000000E+00;  0.0000000E+00;0;  8.9342715E-03;  9.1697914E+01;  0.0000000E+00; -2.4165197E-03;  1.0000000E+02;  0.0000000E+00;  9.9900894E+01;  8.8605760E-03;  0.0000000E+00;  7.3695308E-05;  0.0000000E+00;
  1.6238680E+00;  9.9999998E-03; -8.0017072E-01;254;  4.8719072E-03;  0.0000000E+00; -5.1397692E-05;  9.9885445E+00;  4.1747475E-01; -1.2316357E+00;3;  2.5317447E-02;  0.0000000E+00;  1.6472200E-02;  0.0000000E+00;  0.0000000E+00;  0.0000000E+00;0;  8.7647736E-03;  9.1684364E+01;  0.0000000E+00;  1.6461679E-03;  1.0000000E+02;  0.0000000E+00;  9.9898262E+01;  8.6952429E-03;  0.0000000E+00;  6.9530615E-05;  0.0000000E+00;
  1.6208533E+00;  9.9999998E-03; -6.0003769E-01;255;  4.0940172E-03;  0.0000000E+00; -1.4267125E-05;  9.9886208E+00;  4.1758516E-01; -1.2234436E+00;3;  9.5676668E-03;  0.0000000E+00;  7.6387754E-05;  0.0000000E+00;  0.0000000E+00;  0.0000000E+00;0;  8.6395657E-03;  9.1645897E+01;  0.0000000E+00; -5.7064444E-03;  1.0000000E+02;  0.0000000E+00;  9.9887589E+01;  8.5796947E-03;  0.0000000E+00;  5.9871018E-05;  0.0000000E+00;
  1.6220300E+00;  9.9999998E-03; -4.0025881E-01;256;  6.8863258E-03;  0.0000000E+00; -9.4578914E-05;  9.9886541E+00;  4.1765410E-01; -1.2198508E+00;3;  3.3914682E-03;  0.0000000E+00; -3.3988315E-03;  0.0000000E+00;  0.0000000E+00;  0.0000000E+00;0;  8.6653540E-03;  9.1614967E+01;  0.0000000E+00; -6.7151720E-03;  1.0000000E+02;  0.0000000E+00;  9.9884644E+01;  8.5700946E-03;  0.0000000E+00;  9.5259740E-05;  0.0000000E+00;
  1.6205658E+00;  9.9999998E-03; -2.0052098E-01;257;  6.9502732E-03;  0.0000000E+00; -2.3338798E-04;  9.9888735E+00;  4.1755164E-01; -1.1962727E+00;3;  1.6996902E-03;  0.0000000E+00; -3.2030686E-03;  0.0000000E+00;  0.0000000E+00;  0.0000000E+00;0;  8.4719658E-03;  9.1647469E+01;  0.0000000E+00; -1.4306901E-03;  1.0000000E+02;  0.0000000E+00;  9.9908699E+01;  8.3681615E-03;  0.0000000E+00;  1.0380388E-04;  0.0000000E+00;
  1.8361284E+00;  9.9999998E-03; -1.0006596E+00;264;  7.4947095E-03;  0.0000000E+00; -7.3848438E-05;  9.9891348E+00;  4.2119673E-01; -1.1670506E+00;3;  1.1318787E-02;  0.0000000E+00;  6.8414174E-03;  0.0000000E+00;  0.0000000E+00;  0.0000000E+00;0;  1.0382052E-02;  9.0121086E+01;  0.0000000E+00; -4.0898761E-03;  1.0000000E+02;  0.0000000E+00;  9.9856758E+01;  1.0294249E-02;  0.0000000E+00;  8.7802116E-05;  0.0000000E+00;
  1.8333277E+00;  9.9999998E-03; -8.0015934E-01;265;  7.2642653E-03;  0.0000000E+00; -3.3424425E-05;  9.9890156E+00;  4.2194593E-01; -1.1798772E+00;3;  1.0019992E-02;  0.0000000E+00; -2.7730779E-03;  0.0000000E+00;  0.0000000E+00;  0.0000000E+00;0;  1.0453196E-02;  8.9803810E+01;  0.0000000E+00; -5.2504851E-03;  1.0000000E+02;  0.0000000E+00;  9.9849831E+01;  1.0365025E-02;  0.0000000E+00;  8.8171313E-05;  0.0000000E+00;
  1.8292544E+00;  9.9999998E-03; -5.9979618E-01;266;  7.3548667E-03;  0.0000000E+00; -2.9186940E-05;  9.9890003E+00;  4.2256120E-01; -1.1815100E+00;3;  3.9106510E-03;  0.0000000E+00; -4.4649793E-03;  0.0000000E+00;  0.0000000E+00;  0.0000000E+00;0;  1.0423838E-02;  8.9552505E+01;  0.0000000E+00; -3.3849189E-03;  1.0000000E+02;  0.0000000E+00;  9.9835808E+01;  1.0322279E-02;  0.0000000E+00;  1.0155899E-04;  0.0000000E+00;
  1.8244691E+00;  9.9999998E-03; -3.9979526E-01;267;  7.1908259E-03;  0.0000000E+00; -1.6484151E-04;  9.9890251E+00;  4.2298388E-01; -1.1789219E+00;3;  1.2868453E-03;  0.0000000E+00; -3.2844632E-03;  0.0000000E+00;  0.0000000E+00;  0.0000000E+00;0;  1.0309007E-02;  8.9377769E+01;  0.0000000E+00; -1.1996070E-03;  1.0000000E+02;  0.0000000E+00;  9.9833824E+01;  1.0172831E-02;  0.0000000E+00;  1.3617627E-04;  0.0000000E+00;
  1.8215989E+00;  9.9999998E-03; -2.0002866E-01;268;  6.9475602E-03;  0.0000000E+00; -2.5974092E-04;  9.9891729E+00;  4.2321315E-01; -1.1630648E+00;3;  1.0209592E-03;  0.0000000E+00; -1.7868640E-03;  0.0000000E+00;  0.0000000E+00;  0.0000000E+00;0;  1.0139455E-02;  8.9265236E+01;  0.0000000E+00; -2.1237927E-04;  1.0000000E+02;  0.0000000E+00;  9.9856308E+01;  1.0031911E-02;  0.0000000E+00;  1.0754455E-04;  0.0000000E+00;
  2.0489986E+00;  9.9999998E-03; -1.0012641E+00;275;  1.0113928E-02;  0.0000000E+00; -8.5809304E-05;  9.9896841E+00;  4.2580357E-01; -1.1055256E+00;3;  4.5271330E-03;  0.0000000E+00; -2.4312558E-03;  0.0000000E+00;  0.0000000E+00;  0.0000000E+00;0;  1.2187175E-02;  8.8290077E+01;  0.0000000E+00; -1.0870008E-02;  1.0000000E+02;  0.0000000E+00;  9.9746597E+01;  1.2065853E-02;  0.0000000E+00;  1.2132109E-04;  0.0000000E+00;
  2.0496407E+00;  9.9999998E-03; -8.0042672E-01;276;  9.5883757E-03;  0.0000000E+00; -2.6541325E-05;  9.9893494E+00;  4.2724565E-01; -1.1414133E+00;3;  2.9586379E-03;  0.0000000E+00; -4.2028949E-03;  0.0000000E+00;  0.0000000E+00;  0.0000000E+00;0;  1.2548264E-02;  8.7700798E+01;  0.0000000E+00; -1.1369432E-02;  1.0000000E+02;  0.0000000E+00;  9.9729347E+01;  1.2403197E-02;  0.0000000E+00;  1.4506710E-04;  0.0000000E+00;
  2.0436828E+00;  9.9999998E-03; -5.9960699E-01;277;  8.2908608E-03;  0.0000000E+00; -2.1411070E-05;  9.9891071E+00;  4.2848825E-01; -1.1674546E+00;3;  1.1157229E-03;  0.0000000E+00; -3.1100169E-03;  0.0000000E+00;  0.0000000E+00;  0.0000000E+00;0;  1.2759320E-02;  8.7200829E+01;  0.0000000E+00; -2.6034422E-03;  1.0000000E+02;  0.0000000E+00;  9.9715874E+01;  1.2588805E-02;  0.0000000E+00;  1.7051467E-04;  0.0000000E+00;
  2.0308912E+00;  9.9999998E-03; -3.9908287E-01;278;  7.3585766E-03;  0.0000000E+00; -1.6228092E-04;  9.9889421E+00;  4.2937958E-01; -1.1853755E+00;3;  6.6645304E-04;  0.0000000E+00; -1.6752186E-03;  0.0000000E+00;  0.0000000E+00;  0.0000000E+00;0;  1.2774047E-02;  8.6833237E+01;  0.0000000E+00; -7.8503756E-05;  1.0000000E+02;  0.0000000E+00;  9.9717590E+01;  1.2593466E-02;  0.0000000E+00;  1.8058157E-04;  0.0000000E+00;
  2.0261784E+00;  9.9999998E-03; -1.9933648E-01;279;  6.8695610E-03;  0.0000000E+00; -2.6334201E-05;  9.9889259E+00;  4.3008596E-01; -1.1871810E+00;3;  6.5720855E-04;  0.0000000E+00; -7.4240123E-04;  0.0000000E+00;  0.0000000E+00;  0.0000000E+00;0;  1.2711555E-02;  8.6550018E+01;  0.0000000E+00; -3.8738061E-05;  1.0000000E+02;  0.0000000E+00;  9.9716309E+01;  1.2621689E-02;  0.0000000E+00;  8.9866131E-05;  0.0000000E+00;
  2.2719889E+00;  9.9999998E-03; -1.0026141E+00;286;  1.7049408E-02;  0.0000000E+00; -1.8344006E-04;  9.9902229E+00;  4.3085349E-01; -1.0421003E+00;3;  9.1480114E-04;  0.0000000E+00; -9.1916980E-04;  0.0000000E+00;  0.0000000E+00;  0.0000000E+00;0;  1.4199665E-02;  8.6448524E+01;  0.0000000E+00; -1.2386966E-02;  1.0000000E+02;  0.0000000E+00;  9.9504196E+01;  1.3960226E-02;  0.0000000E+00;  2.3943839E-04;  0.0000000E+00;
  2.2715094E+00;  9.9999998E-03; -8.0123580E-01;287;  1.5075411E-02;  0.0000000E+00; -3.4635985E-05;  9.9896536E+00;  4.3264857E-01; -1.1027913E+00;3; -3.0758248E-03;  0.0000000E+00; -1.1069466E-03;  0.0000000E+00;  0.0000000E+00;  0.0000000E+00;0;  1.5019754E-02;  8.5742851E+01;  0.0000000E+00; -2.3953379E-03;  1.0000000E+02;  0.0000000E+00;  9.9482040E+01;  1.4778878E-02;  0.0000000E+00;  2.4087657E-04;  0.0000000E+00;
  2.2657549E+00;  9.9999998E-03; -5.9972322E-01;288;  1.2157479E-02;  0.0000000E+00;  6.0372440E-05;  9.9890451E+00;  4.3456393E-01; -1.1678951E+00;3; -4.6560476E-03;  0.0000000E+00; -7.4949890E-04;  0.0000000E+00;  0.0000000E+00;  0.0000000E+00;0;  1.5819922E-02;  8.4990623E+01;  0.0000000E+00;  5.4422382E-04;  1.0000000E+02;  0.0000000E+00;  9.9465508E+01;  1.5560512E-02;  0.0000000E+00;  2.5940972E-04;  0.0000000E+00;
  2.2509768E+00;  9.9999998E-03; -3.9846623E-01;289;  8.0020232E-03;  0.0000000E+00;  2.2317600E-04;  9.9885836E+00;  4.3631068E-01; -1.2177552E+00;3;  4.7967589E-04;  0.0000000E+00; -4.3596423E-04;  0.0000000E+00;  0.0000000E+00;  0.0000000E+00;0;  1.6226770E-02;  8.4322243E+01;  0.0000000E+00; -7.8875961E-04;  1.0000000E+02;  0.0000000E+00;  9.9447830E+01;  1.6051279E-02;  0.0000000E+00;  1.7549188E-04;  0.0000000E+00;
  2.2467208E+00;  9.9999998E-03; -1.9904518E-01;290;  6.9831228E-03;  0.0000000E+00;  1.8103240E-04;  9.9882822E+00;  4.3762931E-01; -1.2500367E+00;3;  1.3973337E-04;  0.0000000E+00; -7.6230426E-05;  0.0000000E+00;  0.0000000E+00;  0.0000000E+00;0;  1.6590992E-02;  8.3849129E+01;  0.0000000E+00; -2.2107981E-04;  1.0000000E+02;  0.0000000E+00;  9.9398796E+01;  1.6434375E-02;  0.0000000E+00;  1.5661771E-04;  0.0000000E+00;
  2.4724209E+00;  9.9999998E-03; -1.0050340E+00;297;  1.7141314E-02;  0.0000000E+00; -3.4892271E-04;  9.9905367E+00;  4.3669727E-01; -9.9828285E-01;3;  5.7111657E-04;  0.0000000E+00;  1.1115744E-04;  0.0000000E+00;  0.0000000E+00;  0.0000000E+00;0;  1.6389236E-02;  8.4538261E+01;  0.0000000E+00;  9.1975991E-04;  1.0000000E+02;  0.0000000E+00;  9.9056274E+01;  1.6031466E-02;  0.0000000E+00;  3.5776960E-04;  0.0000000E+00;
  2.4750135E+00;  9.9999998E-03; -8.0299848E-01;298;  1.7268425E-02;  0.0000000E+00; -1.0134612E-04;  9.9898539E+00;  4.3852234E-01; -1.0700784E+00;3;  6.0305488E-04;  0.0000000E+00;  3.6249243E-05;  0.0000000E+00;  0.0000000E+00;  0.0000000E+00;0;  1.7610207E-02;  8.3848152E+01;  0.0000000E+00;  2.1978337E-04;  1.0000000E+02;  0.0000000E+00;  9.9024742E+01;  1.7213199E-02;  0.0000000E+00;  3.9700879E-04;  0.0000000E+00;
  2.4794860E+00;  9.9999998E-03; -6.0070091E-01;299;  1.5960718E-02;  0.0000000E+00;  1.7141449E-04;  9.9890747E+00;  4.4068655E-01; -1.1519343E+00;3; -2.5596688E-04;  0.0000000E+00; -1.7596393E-04;  0.0000000E+00;  0.0000000E+00;  0.0000000E+00;0;  1.9033380E-02;  8.3047256E+01;  0.0000000E+00;  1.1859075E-04;  1.0000000E+02;  0.0000000E+00;  9.8985977E+01;  1.8612957E-02;  0.0000000E+00;  4.2042270E-04;  0.0000000E+00;
  2.4863265E+00;  9.9999998E-03; -3.9876550E-01;300;  1.3580348E-02;  0.0000000E+00;  4.5338518E-04;  9.9883442E+00;  4.4287774E-01; -1.2283028E+00;3; -3.1618576E-03;  0.0000000E+00; -3.0430929E-05;  0.0000000E+00;  0.0000000E+00;  0.0000000E+00;0;  2.0424196E-02;  8.2276199E+01;  0.0000000E+00;  9.2689319E-05;  1.0000000E+02;  0.0000000E+00;  9.8916000E+01;  2.0010417E-02;  0.0000000E+00;  4.1378007E-04;  0.0000000E+00;
  2.4901235E+00;  9.9999998E-03; -1.9911379E-01;301;  1.1368171E-02;  0.0000000E+00;  3.3491154E-04;  9.9877939E+00;  4.4453466E-01; -1.2859153E+00;3; -5.2621500E-03;  0.0000000E+00;  4.8685804E-05;  0.0000000E+00;  0.0000000E+00;  0.0000000E+00;0;  2.1458521E-02;  8.1725807E+01;  0.0000000E+00;  5.2622407E-05;  1.0000000E+02;  0.0000000E+00;  9.8824738E+01;  2.1005204E-02;  0.0000000E+00;  4.5331698E-04;  0.0000000E+00;
  2.6762364E+00;  9.9999998E-03; -1.0090659E+00;308;  1.7081017E-02;  0.0000000E+00; -7.6466909E-04;  9.9903841E+00;  4.4486603E-01; -9.9455255E-01;3;  4.0409301E-04;  0.0000000E+00;  3.9940182E-04;  0.0000000E+00;  0.0000000E+00;  0.0000000E+00;0;  1.9668324E-02;  8.2114365E+01;  0.0000000E+00;  3.4866901E-03;  1.0000000E+02;  0.0000000E+00;  9.8263222E+01;  1.8958747E-02;  0.0000000E+00;  7.0957653E-04;  0.0000000E+00;
  2.6822257E+00;  9.9999998E-03; -8.0628937E-01;309;  1.7217463E-02;  0.0000000E+00; -3.6403287E-04;  9.9897928E+00;  4.4615501E-01; -1.0549092E+00;3;  5.5932289E-04;  0.0000000E+00;  2.5994272E-04;  0.0000000E+00;  0.0000000E+00;  0.0000000E+00;0;  2.0977179E-02;  8.1663582E+01;  0.0000000E+00;  2.8934651E-03;  1.0000000E+02;  0.0000000E+00;  9.8226128E+01;  2.0208469E-02;  0.0000000E+00;  7.6870929E-04;  0.0000000E+00;
  2.6942234E+00;  9.9999998E-03; -6.0319299E-01;310;  1.7841684E-02;  0.0000000E+00;  8.9060108E-05;  9.9891100E+00;  4.4767556E-01; -1.1237044E+00;3; -2.2434031E-03;  0.0000000E+00; -7.2139705E-06;  0.0000000E+00;  0.0000000E+00;  0.0000000E+00;0;  2.2597030E-02;  8.1134064E+01;  0.0000000E+00;  1.9688997E-03;  1.0000000E+02;  0.0000000E+00;  9.8183319E+01;  2.1747882E-02;  0.0000000E+00;  8.4914814E-04;  0.0000000E+00;
  2.7123170E+00;  9.9999998E-03; -4.0022370E-01;311;  2.2057032E-02;  0.0000000E+00;  3.9617458E-04;  9.9885168E+00;  4.4916147E-01; -1.1821120E+00;3; -4.6763499E-03;  0.0000000E+00; -4.6664165E-05;  0.0000000E+00;  0.0000000E+00;  0.0000000E+00;0;  2.4200508E-02;  8.0644218E+01;  0.0000000E+00;  3.2670627E-04;  1.0000000E+02;  0.0000000E+00;  9.8112320E+01;  2.3208719E-02;  0.0000000E+00;  9.9179009E-04;  0.0000000E+00;
  2.7246389E+00;  9.9999998E-03; -1.9944412E-01;312;  2.3663493E-02;  0.0000000E+00;  2.5282404E-04;  9.9880838E+00;  4.5034873E-01; -1.2245795E+00;3; -7.3105469E-03;  0.0000000E+00; -1.0659305E-05;  0.0000000E+00;  0.0000000E+00;  0.0000000E+00;0;  2.5352707E-02;  8.0302422E+01;  0.0000000E+00;  7.8278892E-05;  1.0000000E+02;  0.0000000E+00;  9.8004158E+01;  2.4251031E-02;  0.0000000E+00;  1.1016772E-03;  0.0000000E+00;
  2.8909929E+00;  9.9999998E-03; -1.0149933E+00;319;  1.7019028E-02;  0.0000000E+00; -1.6282953E-03;  9.9897528E+00;  4.5607275E-01; -1.0251890E+00;3;  3.0686011E-04;  0.0000000E+00;  9.3273568E-04;  0.0000000E+00;  0.0000000E+00;  0.0000000E+00;0;  2.4605937E-02;  7.9094818E+01;  0.0000000E+00; -2.4194987E-03;  1.0000000E+02;  0.0000000E+00;  9.7050995E+01;  2.3074236E-02;  0.0000000E+00;  1.5317015E-03;  0.0000000E+00;
  2.9000983E+00;  9.9999998E-03; -8.1134021E-01;320;  1.8879060E-02;  0.0000000E+00; -1.0192947E-03;  9.9894800E+00;  4.5621151E-01; -1.0507703E+00;3; -2.9753195E-03;  0.0000000E+00;  5.6493824E-04;  0.0000000E+00;  0.0000000E+00;  0.0000000E+00;0;  2.5459845E-02;  7.9049889E+01;  0.0000000E+00; -4.1214208E-04;  1.0000000E+02;  0.0000000E+00;  9.7043243E+01;  2.3883013E-02;  0.0000000E+00;  1.5768318E-03;  0.0000000E+00;
  2.9149332E+00;  9.9999998E-03; -6.0747772E-01;321;  2.3663066E-02;  0.0000000E+00; -3.1706353E-04;  9.9891539E+00;  4.5641446E-01; -1.0804052E+00;3; -3.0948699E-03;  0.0000000E+00; -6.6873698E-05;  0.0000000E+00;  0.0000000E+00;  0.0000000E+00;0;  2.6530528E-02;  7.8976814E+01;  0.0000000E+00;  6.1765971E-04;  1.0000000E+02;  0.0000000E+00;  9.7037224E+01;  2.4859531E-02;  0.0000000E+00;  1.6709976E-03;  0.0000000E+00;
  2.9307182E+00;  9.9999998E-03; -4.0341020E-01;322;  2.9753158E-02;  0.0000000E+00;  2.2273384E-04;  9.9888592E+00;  4.5661727E-01; -1.1065044E+00;3; -2.3763373E-03;  0.0000000E+00;  1.5040215E-04;  0.0000000E+00;  0.0000000E+00;  0.0000000E+00;0;  2.7594583E-02;  7.8909882E+01;  0.0000000E+00;  1.7460353E-04;  1.0000000E+02;  0.0000000E+00;  9.7027824E+01;  2.5714355E-02;  0.0000000E+00;  1.8802278E-03;  0.0000000E+00;
  2.9434757E+00;  9.9999998E-03; -2.0049396E-01;323;  3.3591814E-02;  0.0000000E+00;  2.3109252E-04;  9.9886522E+00;  4.5687246E-01; -1.1243695E+00;3; -2.6614361E-03;  0.0000000E+00;  2.2415828E-05;  0.0000000E+00;  0.0000000E+00;  0.0000000E+00;0;  2.8361162E-02;  7.8868301E+01;  0.0000000E+00;  3.4444474E-05;  1.0000000E+02;  0.0000000E+00;  9.6968948E+01;  2.6292637E-02;  0.0000000E+00;  2.0685256E-03;  0.0000000E+00;
  3.1274023E+00;  9.9999998E-03; -1.0224499E+00;330;  2.2958962E-02;  0.0000000E+00; -3.2320244E-03;  9.9887743E+00;  4.6971938E-01; -1.0744866E+00;3; -2.4228177E-03;  0.0000000E+00;  1.0351114E-03;  0.0000000E+00;  0.0000000E+00;  0.0000000E+00;0;  3.1668372E-02;  7.5745094E+01;  0.0000000E+00; -7.7429232E-03;  1.0000000E+02;  0.0000000E+00;  9.5523911E+01;  2.8470010E-02;  0.0000000E+00;  3.1983627E-03;  0.0000000E+00;
  3.1284537E+00;  9.9999998E-03; -8.1773186E-01;331;  2.3952279E-02;  0.0000000E+00; -2.3676555E-03;  9.9888697E+00;  4.6854830E-01; -1.0651560E+00;3; -8.3534367E-04;  0.0000000E+00;  8.3965051E-04;  0.0000000E+00;  0.0000000E+00;  0.0000000E+00;0;  3.1457961E-02;  7.6072632E+01;  0.0000000E+00; -6.8587549E-03;  1.0000000E+02;  0.0000000E+00;  9.5588959E+01;  2.8277632E-02;  0.0000000E+00;  3.1803283E-03;  0.0000000E+00;
  3.1354940E+00;  9.9999998E-03; -6.1309093E-01;332;  2.9447515E-02;  0.0000000E+00; -1.4236997E-03;  9.9889460E+00;  4.6732002E-01; -1.0565141E+00;3; -3.7019278E-04;  0.0000000E+00;  8.7425421E-04;  0.0000000E+00;  0.0000000E+00;  0.0000000E+00;0;  3.1384710E-02;  7.6417664E+01;  0.0000000E+00; -2.1778173E-03;  1.0000000E+02;  0.0000000E+00;  9.5657570E+01;  2.8233590E-02;  0.0000000E+00;  3.1511199E-03;  0.0000000E+00;
  3.1459427E+00;  9.9999998E-03; -4.0829626E-01;333;  3.3911988E-02;  0.0000000E+00; -3.7835122E-04;  9.9889975E+00;  4.6625599E-01; -1.0495975E+00;3; -6.2782178E-04;  0.0000000E+00;  1.1504767E-03;  0.0000000E+00;  0.0000000E+00;  0.0000000E+00;0;  3.1447276E-02;  7.6714714E+01;  0.0000000E+00; -3.2735683E-04;  1.0000000E+02;  0.0000000E+00;  9.5725159E+01;  2.8271817E-02;  0.0000000E+00;  3.1754600E-03;  0.0000000E+00;
  3.1555190E+00;  9.9999998E-03; -2.0298852E-01;334;  3.8144849E-02;  0.0000000E+00;  8.0924314E-05;  9.9889984E+00;  4.6552667E-01; -1.0477655E+00;3; -7.5321004E-04;  0.0000000E+00;  1.0646501E-04;  0.0000000E+00;  0.0000000E+00;  0.0000000E+00;0;  3.1676892E-02;  7.6921371E+01;  0.0000000E+00; -2.2712362E-05;  1.0000000E+02;  0.0000000E+00;  9.5765930E+01;  2.8319944E-02;  0.0000000E+00;  3.3569473E-03;  0.0000000E+00;
  3.4298809E+00;  9.9999998E-03; -1.0301653E+00;341;  3.4384288E-02;  0.0000000E+00; -5.8715222E-03;  9.9876280E+00;  2.4182536E-01; -1.1336993E+00;3; -2.7949372E-03;  0.0000000E+00;  9.6719535E-03;  0.0000000E+00;  0.0000000E+00;  0.0000000E+00;1;  4.1504208E-02;  2.9030316E+02;  0.0000000E+00; -1.3217363E-02;  1.0000000E+02;  0.0000000E+00;  9.4014511E+01;  3.5535380E-02;  0.0000000E+00;  5.9688287E-03;  0.0000000E+00;
  3.4269376E+00;  9.9999998E-03; -8.2428128E-01;342;  3.3203837E-02;  0.0000000E+00; -4.7368272E-03;  9.9880829E+00;  2.4087745E-01; -1.0923543E+00;3; -1.4885556E-03;  0.0000000E+00; -8.0042910E-03;  0.0000000E+00;  0.0000000E+00;  0.0000000E+00;1;  4.0500592E-02;  2.9219861E+02;  0.0000000E+00;  9.6984329E-03;  1.0000000E+02;  0.0000000E+00;  9.4148087E+01;  3.4587517E-02;  0.0000000E+00;  5.9130760E-03;  0.0000000E+00;
  3.3679683E+00;  9.9999998E-03; -6.1873811E-01;343;  3.2900009E-02;  0.0000000E+00; -3.0196314E-03;  9.9885035E+00;  4.7971597E-01; -1.0606974E+00;3; -4.1758628E-03;  0.0000000E+00;  7.6370745E-04;  0.0000000E+00;  0.0000000E+00;  0.0000000E+00;0;  3.7551384E-02;  7.3575745E+01;  0.0000000E+00; -1.3370423E-03;  1.0000000E+02;  0.0000000E+00;  9.4277138E+01;  3.2436915E-02;  0.0000000E+00;  5.1144683E-03;  0.0000000E+00;
  3.3710909E+00;  9.9999998E-03; -4.1329351E-01;344;  3.5853345E-02;  0.0000000E+00; -2.1712801E-03;  9.9887390E+00;  4.7792584E-01; -1.0385895E+00;3; -4.5858527E-04;  0.0000000E+00;  6.4759416E-04;  0.0000000E+00;  0.0000000E+00;  0.0000000E+00;0;  3.6845777E-02;  7.4045212E+01;  0.0000000E+00; -1.0499694E-04;  1.0000000E+02;  0.0000000E+00;  9.4386467E+01;  3.1707019E-02;  0.0000000E+00;  5.1387581E-03;  0.0000000E+00;
  3.3756785E+00;  9.9999998E-03; -2.0727544E-01;345;  3.9276030E-02;  0.0000000E+00; -1.0126506E-03;  9.9889288E+00;  4.7664946E-01; -1.0205015E+00;3; -3.5917497E-04;  0.0000000E+00;  1.0851016E-03;  0.0000000E+00;  0.0000000E+00;  0.0000000E+00;0;  3.6317371E-02;  7.4379227E+01;  0.0000000E+00;  8.9036570E-05;  1.0000000E+02;  0.0000000E+00;  9.4470131E+01;  3.1257756E-02;  0.0000000E+00;  5.0596129E-03;  0.0000000E+00;
  3.6749866E+00;  9.9999998E-03; -1.0367532E+00;352;  4.6238575E-02;  0.0000000E+00; -7.9744859E-03;  9.9873686E+00;  2.4773204E-01; -1.1372201E+00;3; -2.4683098E-03;  0.0000000E+00;  2.3104465E-03;  0.0000000E+00;  0.0000000E+00;  0.0000000E+00;1;  4.8278235E-02;  2.8008392E+02;  0.0000000E+00; -4.4799153E-02;  1.0000000E+02;  0.0000000E+00;  9.2848885E+01;  4.0221114E-02;  0.0000000E+00;  8.0571221E-03;  0.0000000E+00;
  3.6705801E+00;  9.9999998E-03; -8.2996619E-01;353;  4.4166639E-02;  0.0000000E+00; -6.4367503E-03;  9.9876280E+00;  2.4698274E-01; -1.1141095E+00;3; -3.4104402E-03;  0.0000000E+00;  1.6269223E-03;  0.0000000E+00;  0.0000000E+00;  0.0000000E+00;1;  4.7191117E-02;  2.8149930E+02;  0.0000000E+00; -5.8226015E-02;  1.0000000E+02;  0.0000000E+00;  9.2947823E+01;  3.9409600E-02;  0.0000000E+00;  7.7815158E-03;  0.0000000E+00;
  3.6684217E+00;  9.9999998E-03; -6.2352610E-01;354;  4.3536048E-02;  0.0000000E+00; -4.8314570E-03;  9.9879560E+00;  2.4611978E-01; -1.0846474E+00;3; -3.5579996E-03;  0.0000000E+00;  1.5006653E-03;  0.0000000E+00;  0.0000000E+00;  0.0000000E+00;1;  4.5865461E-02;  2.8314810E+02;  0.0000000E+00; -4.3301478E-02;  1.0000000E+02;  0.0000000E+00;  9.3060394E+01;  3.8451716E-02;  0.0000000E+00;  7.4137431E-03;  0.0000000E+00;
  3.6677346E+00;  9.9999998E-03; -4.1711980E-01;355;  4.4141453E-02;  0.0000000E+00; -3.7026806E-03;  9.9882040E+00;  2.4527863E-01; -1.0623519E+00;3; -3.0273958E-03;  0.0000000E+00;  9.5813652E-04;  0.0000000E+00;  0.0000000E+00;  0.0000000E+00;1;  4.4935428E-02;  2.8477237E+02;  0.0000000E+00; -2.1024195E-02;  1.0000000E+02;  0.0000000E+00;  9.3171097E+01;  3.7520956E-02;  0.0000000E+00;  7.4144732E-03;  0.0000000E+00;
  3.6671162E+00;  9.9999998E-03; -2.1028866E-01;356;  4.4877775E-02;  0.0000000E+00; -2.1405809E-03;  9.9884176E+00;  2.4463758E-01; -1.0431652E+00;3; -2.1640987E-03;  0.0000000E+00;  6.2245107E-04;  0.0000000E+00;  0.0000000E+00;  0.0000000E+00;1;  4.4108901E-02;  2.8601804E+02;  0.0000000E+00; -5.3004986E-03;  1.0000000E+02;  0.0000000E+00;  9.3253769E+01;  3.6815695E-02;  0.0000000E+00;  7.2932048E-03;  0.0000000E+00;
  3.9193645E+00;  9.9999998E-03; -1.0415227E+00;363;  5.8108233E-02;  0.0000000E+00; -9.3975030E-03;  9.9875822E+00;  2.5196278E-01; -1.1094898E+00;3; -8.7410375E-04;  0.0000000E+00;  3.8487549E-04;  0.0000000E+00;  0.0000000E+00;  0.0000000E+00;1;  5.2568786E-02;  2.7295813E+02;  0.0000000E+00; -1.7540384E-02;  1.0000000E+02;  0.0000000E+00;  9.2102287E+01;  4.3362539E-02;  0.0000000E+00;  9.2062475E-03;  0.0000000E+00;
  3.9162650E+00;  9.9999998E-03; -8.3389825E-01;364;  5.6365199E-02;  0.0000000E+00; -7.6796440E-03;  9.9876604E+00;  2.5164610E-01; -1.1025265E+00;3; -1.9720881E-03;  0.0000000E+00;  1.1773926E-03;  0.0000000E+00;  0.0000000E+00;  0.0000000E+00;1;  5.2139238E-02;  2.7352856E+02;  0.0000000E+00; -4.2290814E-02;  1.0000000E+02;  0.0000000E+00;  9.2142944E+01;  4.3072235E-02;  0.0000000E+00;  9.0670018E-03;  0.0000000E+00;
  3.9145274E+00;  9.9999998E-03; -6.2647563E-01;365;  5.6088518E-02;  0.0000000E+00; -6.1714789E-03;  9.9877691E+00;  2.5124580E-01; -1.0928710E+00;3; -2.0566734E-03;  0.0000000E+00; -1.2999185E-04;  0.0000000E+00;  0.0000000E+00;  0.0000000E+00;1;  5.1687021E-02;  2.7425064E+02;  0.0000000E+00; -3.5020903E-02;  1.0000000E+02;  0.0000000E+00;  9.2195869E+01;  4.2651080E-02;  0.0000000E+00;  9.0359412E-03;  0.0000000E+00;
  3.9124629E+00;  9.9999998E-03; -4.1895831E-01;366;  5.5768337E-02;  0.0000000E+00; -4.7148117E-03;  9.9878817E+00;  2.5082076E-01; -1.0828489E+00;3; -1.8618323E-03;  0.0000000E+00;  1.3277949E-04;  0.0000000E+00;  0.0000000E+00;  0.0000000E+00;1;  5.1150106E-02;  2.7501947E+02;  0.0000000E+00; -1.6731815E-02;  1.0000000E+02;  0.0000000E+00;  9.2250481E+01;  4.2189054E-02;  0.0000000E+00;  8.9610517E-03;  0.0000000E+00;
  3.9088624E+00;  9.9999998E-03; -2.1068652E-01;367;  5.4511014E-02;  0.0000000E+00; -2.6628657E-03;  9.9879951E+00;  2.5046360E-01; -1.0728062E+00;3; -1.9257776E-03;  0.0000000E+00; -5.1189010E-05;  0.0000000E+00;  0.0000000E+00;  0.0000000E+00;1;  5.0585300E-02;  2.7566864E+02;  0.0000000E+00; -3.9316416E-03;  1.0000000E+02;  0.0000000E+00;  9.2298134E+01;  4.1771460E-02;  0.0000000E+00;  8.8138413E-03;  0.0000000E+00;
  4.1612267E+00;  9.9999998E-03; -1.0449431E+00;374;  6.8031497E-02;  0.0000000E+00; -1.0337730E-02;  9.9879274E+00;  2.5512201E-01; -1.0753369E+00;3; -5.0823909E-04;  0.0000000E+00; -1.1091048E-03;  0.0000000E+00;  0.0000000E+00;  0.0000000E+00;1;  5.5289328E-02;  2.6769348E+02;  0.0000000E+00; -4.9870755E-03;  1.0000000E+02;  0.0000000E+00;  9.1606728E+01;  4.5420654E-02;  0.0000000E+00;  9.8686721E-03;  0.0000000E+00;
  4.1609678E+00;  9.9999998E-03; -8.3656889E-01;375;  6.8017758E-02;  0.0000000E+00; -8.4165977E-03;  9.9879084E+00;  2.5513637E-01; -1.0770379E+00;3; -8.8046776E-04;  0.0000000E+00;  5.4593620E-06;  0.0000000E+00;  0.0000000E+00;  0.0000000E+00;1;  5.5325430E-02;  2.6767010E+02;  0.0000000E+00; -1.6447360E-02;  1.0000000E+02;  0.0000000E+00;  9.1604599E+01;  4.5529440E-02;  0.0000000E+00;  9.7959889E-03;  0.0000000E+00;
  4.1607628E+00;  9.9999998E-03; -6.2817019E-01;376;  6.8287931E-02;  0.0000000E+00; -6.7040795E-03;  9.9878597E+00;  2.5513235E-01; -1.0813932E+00;3; -9.6167618E-04;  0.0000000E+00;  3.6099809E-04;  0.0000000E+00;  0.0000000E+00;  0.0000000E+00;1;  5.5554129E-02;  2.6767188E+02;  0.0000000E+00; -1.3231884E-02;  1.0000000E+02;  0.0000000E+00;  9.1604912E+01;  4.5631312E-02;  0.0000000E+00;  9.9228155E-03;  0.0000000E+00;
  4.1595902E+00;  9.9999998E-03; -4.1932523E-01;377;  6.8055682E-02;  0.0000000E+00; -5.0000492E-03;  9.9878244E+00;  2.5510666E-01; -1.0845354E+00;3; -1.0050865E-03;  0.0000000E+00; -8.6446009E-05;  0.0000000E+00;  0.0000000E+00;  0.0000000E+00;1;  5.5686366E-02;  2.6771002E+02;  0.0000000E+00; -5.7217693E-03;  1.0000000E+02;  0.0000000E+00;  9.1610283E+01;  4.5714516E-02;  0.0000000E+00;  9.9718496E-03;  0.0000000E+00;
  4.1564465E+00;  9.9999998E-03; -2.0881948E-01;378;  6.6725269E-02;  0.0000000E+00; -2.5091607E-03;  9.9878235E+00;  2.5505203E-01; -1.0846677E+00;3; -1.2623360E-03;  0.0000000E+00; -7.3773169E-04;  0.0000000E+00;  0.0000000E+00;  0.0000000E+00;1;  5.5643030E-02;  2.6777338E+02;  0.0000000E+00; -1.1809041E-03;  1.0000000E+02;  0.0000000E+00;  9.1628006E+01;  4.5756433E-02;  0.0000000E+00;  9.8865945E-03;  0.0000000E+00;
  4.0448356E+00;  9.9999998E-03; -1.0445160E+00;549;  6.7847893E-02;  0.0000000E+00; -9.9046724E-03;  9.9878225E+00;  2.5473988E-01; -1.0858897E+00;3; -5.7921989E-04;  0.0000000E+00; -3.7451051E-04; -4.3160208E+08; -4.3160208E+08; -4.3160208E+08;1;  5.3848535E-02;  2.6831302E+02;  0.0000000E+00; -3.6499656E-03;  1.0000000E+02;  0.0000000E+00;  9.1667809E+01;  4.4324849E-02;  0.0000000E+00;  9.5236879E-03;  0.0000000E+00;
  4.0444064E+00;  9.9999998E-03; -8.3623129E-01;550;  6.7453772E-02;  0.0000000E+00; -8.0880336E-03;  9.9878254E+00;  2.5472265E-01; -1.0856827E+00;3; -1.4764584E-03;  0.0000000E+00;  9.5172803E-04; -4.3160208E+08; -4.3160208E+08; -4.3160208E+08;1;  5.3784098E-02;  2.6834702E+02;  0.0000000E+00; -7.2652614E-03;  1.0000000E+02;  0.0000000E+00;  9.1669266E+01;  4.4328820E-02;  0.0000000E+00;  9.4552785E-03;  0.0000000E+00;
  4.0441656E+00;  9.9999998E-03; -6.2795061E-01;553;  6.7704313E-02;  0.0000000E+00; -6.4275935E-03;  9.9878359E+00;  2.5467604E-01; -1.0847291E+00;3; -1.4447352E-03;  0.0000000E+00; -2.7145579E-04; -4.3160208E+08; -4.3160208E+08; -4.3160208E+08;1;  5.3770509E-02;  2.6842593E+02;  0.0000000E+00; -6.7193648E-03;  1.0000000E+02;  0.0000000E+00;  9.1675865E+01;  4.4271413E-02;  0.0000000E+00;  9.4990954E-03;  0.0000000E+00;
  4.0429778E+00;  9.9999998E-03; -4.1929299E-01;555;  6.7495041E-02;  0.0000000E+00; -4.6562217E-03;  9.9878521E+00;  2.5460345E-01; -1.0833093E+00;3; -1.3098631E-03;  0.0000000E+00; -1.2322456E-04; -4.3160208E+08; -4.3160208E+08; -4.3160208E+08;1;  5.3640038E-02;  2.6855139E+02;  0.0000000E+00; -3.4655828E-03;  1.0000000E+02;  0.0000000E+00;  9.1685745E+01;  4.4173945E-02;  0.0000000E+00;  9.4660949E-03;  0.0000000E+00;
  4.0398083E+00;  9.9999998E-03; -2.0926373E-01;557;  6.6131637E-02;  0.0000000E+00; -3.1257195E-03;  9.9878616E+00;  2.5451043E-01; -1.0825003E+00;3; -1.5439109E-03;  0.0000000E+00; -5.2381691E-04; -4.3160208E+08; -4.3160208E+08; -4.3160208E+08;1;  5.3546414E-02;  2.6869455E+02;  0.0000000E+00; -8.5809553E-04;  1.0000000E+02;  0.0000000E+00;  9.1703499E+01;  4.4051953E-02;  0.0000000E+00;  9.4944630E-03;  0.0000000E+00;
  3.8027189E+00;  9.9999998E-03; -1.0409781E+00;566;  5.7319004E-02;  0.0000000E+00; -8.7464247E-03;  9.9875212E+00;  2.5151753E-01; -1.1180676E+00;3; -1.8271025E-03;  0.0000000E+00; -5.9042207E-04; -4.3160208E+08; -4.3160208E+08; -4.3160208E+08;1;  5.0479937E-02;  2.7367807E+02;  0.0000000E+00; -7.6680393E-03;  1.0000000E+02;  0.0000000E+00;  9.2184303E+01;  4.1834965E-02;  0.0000000E+00;  8.6449729E-03;  0.0000000E+00;
  3.7994800E+00;  9.9999998E-03; -8.3343750E-01;568;  5.5136163E-02;  0.0000000E+00; -7.1041980E-03;  9.9876614E+00;  2.5116721E-01; -1.1056249E+00;3; -3.8359517E-03;  0.0000000E+00; -8.3178940E-04; -4.3160208E+08; -4.3160208E+08; -4.3160208E+08;1;  4.9839035E-02;  2.7431595E+02;  0.0000000E+00; -2.7412634E-02;  1.0000000E+02;  0.0000000E+00;  9.2229431E+01;  4.1387271E-02;  0.0000000E+00;  8.4517635E-03;  0.0000000E+00;
  3.7978559E+00;  9.9999998E-03; -6.2614745E-01;572;  5.5172306E-02;  0.0000000E+00; -5.5476981E-03;  9.9878368E+00;  2.5073278E-01; -1.0899227E+00;3; -3.3518854E-03;  0.0000000E+00;  8.8414946E-04; -4.3160208E+08; -4.3160208E+08; -4.3160208E+08;1;  4.9054198E-02;  2.7511514E+02;  0.0000000E+00; -2.5609201E-02;  1.0000000E+02;  0.0000000E+00;  9.2283684E+01;  4.0763751E-02;  0.0000000E+00;  8.2904482E-03;  0.0000000E+00;
  3.7959218E+00;  9.9999998E-03; -4.1878408E-01;574;  5.5206180E-02;  0.0000000E+00; -4.0981006E-03;  9.9880104E+00;  2.5027752E-01; -1.0744430E+00;3; -2.5225810E-03;  0.0000000E+00;  5.8529875E-04; -4.3160208E+08; -4.3160208E+08; -4.3160208E+08;1;  4.8317470E-02;  2.7595648E+02;  0.0000000E+00; -1.3436924E-02;  1.0000000E+02;  0.0000000E+00;  9.2341805E+01;  4.0102907E-02;  0.0000000E+00;  8.2145631E-03;  0.0000000E+00;
  3.7924280E+00;  9.9999998E-03; -2.1085295E-01;576;  5.4218628E-02;  0.0000000E+00; -2.9170217E-03;  9.9881439E+00;  2.4989469E-01; -1.0625921E+00;3; -2.1695986E-03;  0.0000000E+00;  3.5079871E-04; -4.3160208E+08; -4.3160208E+08; -4.3160208E+08;1;  4.7708444E-02;  2.7666251E+02;  0.0000000E+00; -3.3782371E-03;  1.0000000E+02;  0.0000000E+00;  9.2389862E+01;  3.9521217E-02;  0.0000000E+00;  8.1872288E-03;  0.0000000E+00;
  3.5581465E+00;  9.9999998E-03; -1.0361801E+00;582;  4.4936307E-02;  0.0000000E+00; -7.0421868E-03;  9.9875240E+00;  2.4727216E-01; -1.1308091E+00;3; -4.2021610E-03;  0.0000000E+00; -9.4311108E-04; -4.3160208E+08; -4.3160208E+08; -4.3160208E+08;1;  4.5160800E-02;  2.8084277E+02;  0.0000000E+00; -3.3457432E-02;  1.0000000E+02;  0.0000000E+00;  9.2945808E+01;  3.8031455E-02;  0.0000000E+00;  7.1293465E-03;  0.0000000E+00;
  3.5538027E+00;  9.9999998E-03; -8.2949305E-01;584;  4.2997677E-02;  0.0000000E+00; -5.7343380E-03;  9.9877691E+00;  2.4654476E-01; -1.1089414E+00;3; -5.1484522E-03;  0.0000000E+00; -1.1346539E-03; -4.3160208E+08; -4.3160208E+08; -4.3160208E+08;1;  4.4187922E-02;  2.8222946E+02;  0.0000000E+00; -4.6792939E-02;  1.0000000E+02;  0.0000000E+00;  9.3039726E+01;  3.7164487E-02;  0.0000000E+00;  7.0234360E-03;  0.0000000E+00;
  3.5519145E+00;  9.9999998E-03; -6.2314701E-01;586;  4.3070067E-02;  0.0000000E+00; -4.5236251E-03;  9.9880743E+00;  2.4571386E-01; -1.0814162E+00;3; -4.5594005E-03;  0.0000000E+00;  3.3144446E-04; -4.3160208E+08; -4.3160208E+08; -4.3160208E+08;1;  4.3005623E-02;  2.8383221E+02;  0.0000000E+00; -3.7004728E-02;  1.0000000E+02;  0.0000000E+00;  9.3145332E+01;  3.6168970E-02;  0.0000000E+00;  6.8366537E-03;  0.0000000E+00;
  3.5513124E+00;  9.9999998E-03; -4.1689256E-01;588;  4.4005349E-02;  0.0000000E+00; -2.7175420E-03;  9.9884405E+00;  2.4492025E-01; -1.0482748E+00;3; -3.3717309E-03;  0.0000000E+00;  2.5074868E-03; -4.3160208E+08; -4.3160208E+08; -4.3160208E+08;1;  4.1631501E-02;  2.8539581E+02;  0.0000000E+00; -1.9236304E-02;  1.0000000E+02;  0.0000000E+00;  9.3243027E+01;  3.5223003E-02;  0.0000000E+00;  6.4084991E-03;  0.0000000E+00;
  3.5507333E+00;  9.9999998E-03; -2.1022473E-01;592;  4.4883411E-02;  0.0000000E+00; -1.8151117E-03;  9.9886265E+00;  2.4431354E-01; -1.0314531E+00;3; -2.1613208E-03;  0.0000000E+00;  1.6474378E-03; -4.3160208E+08; -4.3160208E+08; -4.3160208E+08;1;  4.0950917E-02;  2.8658875E+02;  0.0000000E+00; -5.0540939E-03;  1.0000000E+02;  0.0000000E+00;  9.3318855E+01;  3.4508988E-02;  0.0000000E+00;  6.4419289E-03;  0.0000000E+00;
  3.3132255E+00;  9.9999998E-03; -1.0299628E+00;601;  3.4076609E-02;  0.0000000E+00; -5.0433581E-03;  9.9880686E+00;  2.4166708E-01; -1.1085483E+00;3; -5.0979890E-03;  0.0000000E+00; -4.3611987E-03; -4.3160208E+08; -4.3160208E+08; -4.3160208E+08;1;  3.8045499E-02;  2.9058310E+02;  0.0000000E+00; -8.9441380E-03;  1.0000000E+02;  0.0000000E+00;  9.4055206E+01;  3.2832123E-02;  0.0000000E+00;  5.2133757E-03;  0.0000000E+00;
  3.3102934E+00;  9.9999998E-03; -8.2424784E-01;606;  3.2984175E-02;  0.0000000E+00; -3.5660246E-03;  9.9883146E+00;  2.4081858E-01; -1.0861099E+00;3; -3.7942370E-03;  0.0000000E+00;  7.5099729E-03; -4.3160208E+08; -4.3160208E+08; -4.3160208E+08;1;  3.6639206E-02;  2.9233066E+02;  0.0000000E+00;  1.1986089E-02;  1.0000000E+02;  0.0000000E+00;  9.4155899E+01;  3.2097738E-02;  0.0000000E+00;  4.5414683E-03;  0.0000000E+00;
  4.2844691E+00;  9.9999998E-03; -1.0472581E+00;544;  7.7144794E-02;  0.0000000E+00; -1.0684158E-02;  9.9880772E+00;  2.5766695E-01; -1.0612271E+00;3; -6.2814413E-04;  0.0000000E+00; -1.1917198E-03; -4.3160208E+08; -4.3160208E+08; -4.3160208E+08;1;  5.6332272E-02;  2.6346521E+02;  0.0000000E+00;  7.7249150E-04;  1.0000000E+02;  0.0000000E+00;  9.1248795E+01;  4.6237577E-02;  0.0000000E+00;  1.0094695E-02;  0.0000000E+00;
  4.2863002E+00;  9.9999998E-03; -8.3840853E-01;545;  7.7902950E-02;  0.0000000E+00; -8.6903274E-03;  9.9880266E+00;  2.5776720E-01; -1.0657275E+00;3; -8.1295596E-04;  0.0000000E+00;  2.7383165E-04; -4.3160208E+08; -4.3160208E+08; -4.3160208E+08;1;  5.6551188E-02;  2.6329614E+02;  0.0000000E+00; -1.4487455E-03;  1.0000000E+02;  0.0000000E+00;  9.1235550E+01;  4.6482820E-02;  0.0000000E+00;  1.0068367E-02;  0.0000000E+00;
  4.2882237E+00;  9.9999998E-03; -6.2938011E-01;538;  7.8748614E-02;  0.0000000E+00; -6.8965512E-03;  9.9879360E+00;  2.5788689E-01; -1.0737820E+00;3; -8.4698305E-04;  0.0000000E+00; -5.7438687E-05; -4.3160208E+08; -4.3160208E+08; -4.3160208E+08;1;  5.7017758E-02;  2.6308774E+02;  0.0000000E+00; -1.8135845E-03;  1.0000000E+02;  0.0000000E+00;  9.1221512E+01;  4.6756066E-02;  0.0000000E+00;  1.0261690E-02;  0.0000000E+00;
  4.2899313E+00;  9.9999998E-03; -4.1963533E-01;539;  7.9346597E-02;  0.0000000E+00; -4.8761806E-03;  9.9878721E+00;  2.5800750E-01; -1.0794502E+00;3; -9.3116332E-04;  0.0000000E+00;  3.6454655E-04; -4.3160208E+08; -4.3160208E+08; -4.3160208E+08;1;  5.7324115E-02;  2.6288120E+02;  0.0000000E+00; -9.1408257E-04;  1.0000000E+02;  0.0000000E+00;  9.1206909E+01;  4.7031317E-02;  0.0000000E+00;  1.0292797E-02;  0.0000000E+00;
  4.2903552E+00;  9.9999998E-03; -2.0726028E-01;389;  7.9265967E-02;  0.0000000E+00; -2.4175995E-03;  9.9878263E+00;  2.5807312E-01; -1.0835332E+00;3; -1.0992092E-03;  0.0000000E+00; -1.0744970E-03;  0.0000000E+00;  0.0000000E+00;  0.0000000E+00;1;  5.7550102E-02;  2.6272104E+02;  0.0000000E+00;  2.9577895E-05;  1.0000000E+02;  0.0000000E+00;  9.1215515E+01;  4.7254980E-02;  0.0000000E+00;  1.0295122E-02;  0.0000000E+00;
  4.4007745E+00;  9.9999998E-03; -1.0475863E+00;385;  7.7181034E-02;  0.0000000E+00; -1.0948748E-02;  9.9881172E+00;  2.5803736E-01; -1.0572138E+00;3; -7.0084829E-04;  0.0000000E+00; -1.3184972E-03;  0.0000000E+00;  0.0000000E+00;  0.0000000E+00;1;  5.7491519E-02;  2.6286151E+02;  0.0000000E+00; -6.6753933E-03;  1.0000000E+02;  0.0000000E+00;  9.1196014E+01;  4.7188506E-02;  0.0000000E+00;  1.0303015E-02;  0.0000000E+00;
  4.4026518E+00;  9.9999998E-03; -8.3866698E-01;386;  7.7991977E-02;  0.0000000E+00; -8.9365821E-03;  9.9880514E+00;  2.5813311E-01; -1.0630414E+00;3; -8.4737601E-04;  0.0000000E+00;  9.7434135E-04;  0.0000000E+00;  0.0000000E+00;  0.0000000E+00;1;  5.7779837E-02;  2.6270337E+02;  0.0000000E+00; -5.6605204E-03;  1.0000000E+02;  0.0000000E+00;  9.1183075E+01;  4.7431774E-02;  0.0000000E+00;  1.0348063E-02;  0.0000000E+00;
  4.4046249E+00;  9.9999998E-03; -6.2953347E-01;387;  7.8892268E-02;  0.0000000E+00; -7.0052785E-03;  9.9879713E+00;  2.5824991E-01; -1.0701942E+00;3; -9.0722734E-04;  0.0000000E+00; -3.3276391E-04;  0.0000000E+00;  0.0000000E+00;  0.0000000E+00;1;  5.8209796E-02;  2.6249817E+02;  0.0000000E+00; -2.6098469E-03;  1.0000000E+02;  0.0000000E+00;  9.1170280E+01;  4.7716893E-02;  0.0000000E+00;  1.0492901E-02;  0.0000000E+00;
  4.4064579E+00;  9.9999998E-03; -4.1963342E-01;388;  7.9630196E-02;  0.0000000E+00; -4.9393042E-03;  9.9878960E+00;  2.5837296E-01; -1.0768704E+00;3; -9.9214260E-04;  0.0000000E+00;  5.3271622E-04;  0.0000000E+00;  0.0000000E+00;  0.0000000E+00;1;  5.8579464E-02;  2.6228882E+02;  0.0000000E+00; -4.8465480E-04;  1.0000000E+02;  0.0000000E+00;  9.1155342E+01;  4.8015215E-02;  0.0000000E+00;  1.0564249E-02;  0.0000000E+00;
  4.5409646E+00;  9.9999998E-03; -2.0756127E-01;400;  9.2566505E-02;  0.0000000E+00; -1.5339066E-03;  9.9878902E+00;  2.6070106E-01; -1.0770786E+00;3; -1.1708046E-03;  0.0000000E+00; -1.1561116E-03;  0.0000000E+00;  0.0000000E+00;  0.0000000E+00;1;  5.9790052E-02;  2.5844458E+02;  0.0000000E+00;  2.3567502E-04;  1.0000000E+02;  0.0000000E+00;  9.0866966E+01;  4.9096577E-02;  0.0000000E+00;  1.0693474E-02;  0.0000000E+00;
  4.6425328E+00;  9.9999998E-03; -8.4049839E-01;397;  8.7623119E-02;  0.0000000E+00; -9.3109030E-03;  9.9879827E+00;  2.6091498E-01; -1.0687114E+00;3; -7.8192190E-04;  0.0000000E+00;  8.2053232E-04;  0.0000000E+00;  0.0000000E+00;  0.0000000E+00;1;  5.9907988E-02;  2.5816885E+02;  0.0000000E+00;  8.1681251E-04;  1.0000000E+02;  0.0000000E+00;  9.0816231E+01;  4.9134877E-02;  0.0000000E+00;  1.0773110E-02;  0.0000000E+00;
  4.6465993E+00;  9.9999998E-03; -6.3117862E-01;398;  8.8845536E-02;  0.0000000E+00; -7.2742221E-03;  9.9879503E+00;  2.6087502E-01; -1.0715688E+00;3; -1.0672176E-03;  0.0000000E+00; -5.3077802E-04;  0.0000000E+00;  0.0000000E+00;  0.0000000E+00;1;  6.0106166E-02;  2.5822382E+02;  0.0000000E+00;  1.1918063E-03;  1.0000000E+02;  0.0000000E+00;  9.0822670E+01;  4.9237773E-02;  0.0000000E+00;  1.0868393E-02;  0.0000000E+00;
  4.5353584E+00;  9.9999998E-03; -4.2095029E-01;399;  9.0412989E-02;  0.0000000E+00; -5.0301473E-03;  9.9879055E+00;  2.6068547E-01; -1.0757104E+00;3; -1.0271452E-03;  0.0000000E+00;  1.2360547E-03;  0.0000000E+00;  0.0000000E+00;  0.0000000E+00;1;  5.9671447E-02;  2.5852850E+02;  0.0000000E+00;  2.8379011E-04;  1.0000000E+02;  0.0000000E+00;  9.0848114E+01;  4.8883248E-02;  0.0000000E+00;  1.0788197E-02;  0.0000000E+00;
  4.6402574E+00;  9.9999998E-03; -1.0496486E+00;396;  8.7945215E-02;  0.0000000E+00; -1.1386215E-02;  9.9880075E+00;  2.6097015E-01; -1.0664879E+00;3;  8.0104248E-04;  0.0000000E+00; -1.5296664E-03;  0.0000000E+00;  0.0000000E+00;  0.0000000E+00;1;  5.9813309E-02;  2.5807587E+02;  0.0000000E+00;  2.5235773E-03;  1.0000000E+02;  0.0000000E+00;  9.0810318E+01;  4.9081311E-02;  0.0000000E+00;  1.0732000E-02;  0.0000000E+00;
  4.8868418E+00;  9.9999998E-03; -1.0507221E+00;407;  1.0023217E-01;  0.0000000E+00; -1.1568012E-02;  9.9876947E+00;  2.6308751E-01; -1.0941219E+00;3;  2.4292083E-03;  0.0000000E+00; -1.2754842E-03;  0.0000000E+00;  0.0000000E+00;  0.0000000E+00;1;  6.1576575E-02;  2.5468449E+02;  0.0000000E+00;  2.0898361E-02;  1.0000000E+02;  0.0000000E+00;  9.0539917E+01;  5.0543379E-02;  0.0000000E+00;  1.1033197E-02;  0.0000000E+00;
  4.8873959E+00;  9.9999998E-03; -8.4168470E-01;408;  9.8841049E-02;  0.0000000E+00; -9.5479749E-03;  9.9877357E+00;  2.6281494E-01; -1.0904649E+00;3; -5.4008200E-05;  0.0000000E+00;  1.0031401E-03;  0.0000000E+00;  0.0000000E+00;  0.0000000E+00;1;  6.1347831E-02;  2.5512527E+02;  0.0000000E+00;  4.5962622E-03;  1.0000000E+02;  0.0000000E+00;  9.0572479E+01;  5.0268929E-02;  0.0000000E+00;  1.1078901E-02;  0.0000000E+00;
  4.8910308E+00;  9.9999998E-03; -6.3276112E-01;409;  1.0000779E-01;  0.0000000E+00; -7.4599134E-03;  9.9878082E+00;  2.6249498E-01; -1.0839976E+00;3; -4.3702670E-04;  0.0000000E+00; -2.1532735E-04;  0.0000000E+00;  0.0000000E+00;  0.0000000E+00;1;  6.0979012E-02;  2.5563599E+02;  0.0000000E+00;  3.7655116E-03;  1.0000000E+02;  0.0000000E+00;  9.0611893E+01;  4.9986288E-02;  0.0000000E+00;  1.0992724E-02;  0.0000000E+00;
  4.8972640E+00;  9.9999998E-03; -4.2332420E-01;410;  1.0266111E-01;  0.0000000E+00; -5.1985476E-03;  9.9878855E+00;  2.6218447E-01; -1.0771582E+00;3; -1.2896526E-04;  0.0000000E+00; -2.0071476E-04;  0.0000000E+00;  0.0000000E+00;  0.0000000E+00;1;  6.0570177E-02;  2.5614130E+02;  0.0000000E+00;  2.9761922E-03;  1.0000000E+02;  0.0000000E+00;  9.0648857E+01;  4.9648162E-02;  0.0000000E+00;  1.0922016E-02;  0.0000000E+00;
  4.9056454E+00;  9.9999998E-03; -2.1220158E-01;411;  1.0691407E-01;  0.0000000E+00; -2.0654073E-03;  9.9879599E+00;  2.6195669E-01; -1.0705301E+00;3;  8.5436227E-04;  0.0000000E+00;  2.8090627E-04;  0.0000000E+00;  0.0000000E+00;  0.0000000E+00;1;  6.0167909E-02;  2.5652618E+02;  0.0000000E+00;  7.6388929E-04;  1.0000000E+02;  0.0000000E+00;  9.0671478E+01;  4.9343094E-02;  0.0000000E+00;  1.0824814E-02;  0.0000000E+00;
  5.1575465E+00;  9.9999998E-03; -1.0498495E+00;418;  1.1567368E-01;  0.0000000E+00; -1.1211188E-02;  9.9874487E+00;  2.6262271E-01; -1.1159316E+00;3;  6.0981454E-04;  0.0000000E+00; -5.5911136E-04;  0.0000000E+00;  0.0000000E+00;  0.0000000E+00;1;  6.0734004E-02;  2.5542514E+02;  0.0000000E+00; -3.1079240E-03;  1.0000000E+02;  0.0000000E+00;  9.0594917E+01;  4.9868919E-02;  0.0000000E+00;  1.0865086E-02;  0.0000000E+00;
  5.1535678E+00;  9.9999998E-03; -8.4116662E-01;419;  1.1593501E-01;  0.0000000E+00; -9.3384879E-03;  9.9875221E+00;  2.6223886E-01; -1.1093611E+00;3;  1.2634073E-03;  0.0000000E+00;  1.0529732E-03;  0.0000000E+00;  0.0000000E+00;  0.0000000E+00;1;  6.0425941E-02;  2.5604672E+02;  0.0000000E+00;  1.6428938E-03;  1.0000000E+02;  0.0000000E+00;  9.0640556E+01;  4.9485691E-02;  0.0000000E+00;  1.0940250E-02;  0.0000000E+00;
  5.1488304E+00;  9.9999998E-03; -6.3293743E-01;420;  1.1547145E-01;  0.0000000E+00; -7.3221042E-03;  9.9876938E+00;  2.6175982E-01; -1.0940998E+00;3;  1.3821892E-03;  0.0000000E+00;  4.0939656E-05;  0.0000000E+00;  0.0000000E+00;  0.0000000E+00;1;  5.9654288E-02;  2.5682767E+02;  0.0000000E+00; -8.7650847E-03;  1.0000000E+02;  0.0000000E+00;  9.0698441E+01;  4.8952546E-02;  0.0000000E+00;  1.0701744E-02;  0.0000000E+00;
  5.1470423E+00;  9.9999998E-03; -4.2482528E-01;421;  1.1534546E-01;  0.0000000E+00; -5.6066676E-03;  9.9878492E+00;  2.6125187E-01; -1.0803218E+00;3;  1.2727638E-03;  0.0000000E+00; -5.3492177E-04;  0.0000000E+00;  0.0000000E+00;  0.0000000E+00;1;  5.8925390E-02;  2.5766116E+02;  0.0000000E+00; -3.1455967E-03;  1.0000000E+02;  0.0000000E+00;  9.0758499E+01;  4.8248313E-02;  0.0000000E+00;  1.0677078E-02;  0.0000000E+00;
  5.1473718E+00;  9.9999998E-03; -2.1712010E-01;422;  1.1642706E-01;  0.0000000E+00; -3.1746947E-03;  9.9880199E+00;  2.6085389E-01; -1.0651127E+00;3;  1.6870028E-03;  0.0000000E+00;  1.0735784E-03;  0.0000000E+00;  0.0000000E+00;  0.0000000E+00;1;  5.8087796E-02;  2.5837366E+02;  0.0000000E+00;  3.0929379E-05;  1.0000000E+02;  0.0000000E+00;  9.0787643E+01;  4.7575947E-02;  0.0000000E+00;  1.0511851E-02;  0.0000000E+00;
  5.4482059E+00;  9.9999998E-03; -1.0465441E+00;429;  1.3947886E-01;  0.0000000E+00; -1.0056938E-02;  9.9874697E+00;  2.5876004E-01; -1.1139964E+00;3;  4.1667051E-03;  0.0000000E+00;  1.0563044E-03;  0.0000000E+00;  0.0000000E+00;  0.0000000E+00;1;  5.5527791E-02;  2.6171481E+02;  0.0000000E+00; -2.6321557E-01;  1.0000000E+02;  0.0000000E+00;  9.1077988E+01;  4.5620065E-02;  0.0000000E+00;  9.9077281E-03;  0.0000000E+00;
  5.4341016E+00;  9.9999998E-03; -8.3792692E-01;430;  1.3240665E-01;  0.0000000E+00; -8.2393494E-03;  9.9877176E+00;  2.5791144E-01; -1.0919524E+00;3;  3.4121752E-03;  0.0000000E+00;  1.7905020E-03;  0.0000000E+00;  0.0000000E+00;  0.0000000E+00;1;  5.4750577E-02;  2.6313913E+02;  0.0000000E+00;  1.9130908E-01;  1.0000000E+02;  0.0000000E+00;  9.1185226E+01;  4.4857379E-02;  0.0000000E+00;  9.8931985E-03;  0.0000000E+00;
  5.4271173E+00;  9.9999998E-03; -6.3014185E-01;431;  1.3813074E-01;  0.0000000E+00; -6.4149480E-03;  9.9878798E+00;  2.5734359E-01; -1.0775391E+00;3;  6.2287888E-03;  0.0000000E+00;  1.4986082E-03;  0.0000000E+00;  0.0000000E+00;  0.0000000E+00;1;  5.4200977E-02;  2.6410104E+02;  0.0000000E+00; -5.1348242E-03;  1.0000000E+02;  0.0000000E+00;  9.1256721E+01;  4.4463199E-02;  0.0000000E+00;  9.7377785E-03;  0.0000000E+00;
  5.4158711E+00;  9.9999998E-03; -4.2262495E-01;432;  1.3435072E-01;  0.0000000E+00; -5.0678113E-03;  9.9880800E+00;  2.5677443E-01; -1.0597343E+00;3;  4.1160663E-03;  0.0000000E+00; -3.7990283E-04;  0.0000000E+00;  0.0000000E+00;  0.0000000E+00;1;  5.3552717E-02;  2.6506186E+02;  0.0000000E+00; -5.9999775E-02;  1.0000000E+02;  0.0000000E+00;  9.1331871E+01;  4.3780666E-02;  0.0000000E+00;  9.7720530E-03;  0.0000000E+00;
  5.3990211E+00;  9.9999998E-03; -2.1557426E-01;433;  1.2666506E-01;  0.0000000E+00; -2.5651311E-03;  9.9882622E+00;  2.5645238E-01; -1.0435728E+00;3;  9.8760356E-04;  0.0000000E+00; -4.8757897E-04;  0.0000000E+00;  0.0000000E+00;  0.0000000E+00;1;  5.3056180E-02;  2.6562030E+02;  0.0000000E+00; -2.6870027E-02;  1.0000000E+02;  0.0000000E+00;  9.1371964E+01;  4.3503731E-02;  0.0000000E+00;  9.5524509E-03;  0.0000000E+00;
  5.6525526E+00;  9.9999998E-03; -1.0411873E+00;440;  1.3937940E-01;  0.0000000E+00; -8.6996201E-03;  9.9881086E+00;  2.5093502E-01; -1.0571824E+00;3;  4.2047505E-03;  0.0000000E+00;  2.5689437E-03;  0.0000000E+00;  0.0000000E+00;  0.0000000E+00;1;  4.7600061E-02;  2.7525989E+02;  0.0000000E+00; -2.3245603E-01;  1.0000000E+02;  0.0000000E+00;  9.2090309E+01;  3.9049082E-02;  0.0000000E+00;  8.5509792E-03;  0.0000000E+00;
  5.6757855E+00;  9.9999998E-03; -8.3314234E-01;441;  1.4604683E-01;  0.0000000E+00; -6.8274634E-03;  9.9879932E+00;  2.5131044E-01; -1.0674624E+00;3;  2.4396372E-03;  0.0000000E+00; -1.8888784E-03;  0.0000000E+00;  0.0000000E+00;  0.0000000E+00;1;  4.7500081E-02;  2.7456497E+02;  0.0000000E+00;  9.5337078E-02;  1.0000000E+02;  0.0000000E+00;  9.2045151E+01;  3.8985081E-02;  0.0000000E+00;  8.5150013E-03;  0.0000000E+00;
  5.6811380E+00;  9.9999998E-03; -6.2532341E-01;442;  1.5228662E-01;  0.0000000E+00; -5.4857573E-03;  9.9879885E+00;  2.5064227E-01; -1.0678861E+00;3;  3.2065974E-03;  0.0000000E+00;  2.9990764E-04;  0.0000000E+00;  0.0000000E+00;  0.0000000E+00;1;  4.7345601E-02;  2.7573856E+02;  0.0000000E+00; -1.4165449E-01;  1.0000000E+02;  0.0000000E+00;  9.2141769E+01;  3.8579192E-02;  0.0000000E+00;  8.7664099E-03;  0.0000000E+00;
  5.6962037E+00;  9.9999998E-03; -4.1794690E-01;443;  1.5308662E-01;  0.0000000E+00; -3.8439988E-03;  9.9884062E+00;  2.4978735E-01; -1.0307388E+00;3;  4.8396387E-03;  0.0000000E+00; -6.3496141E-04;  0.0000000E+00;  0.0000000E+00;  0.0000000E+00;1;  4.5271881E-02;  2.7728870E+02;  0.0000000E+00; -3.4332655E-02;  1.0000000E+02;  0.0000000E+00;  9.2262032E+01;  3.6879364E-02;  0.0000000E+00;  8.3925156E-03;  0.0000000E+00;
  5.6809506E+00;  9.9999998E-03; -2.0929056E-01;444;  1.4459148E-01;  0.0000000E+00; -7.1989419E-04;  9.9888029E+00;  2.4891424E-01; -9.9549967E-01;3;  7.8238314E-04;  0.0000000E+00;  1.2363538E-03;  0.0000000E+00;  0.0000000E+00;  0.0000000E+00;1;  4.4112701E-02;  2.7886792E+02;  0.0000000E+00; -6.2684685E-02;  1.0000000E+02;  0.0000000E+00;  9.2390846E+01;  3.6173053E-02;  0.0000000E+00;  7.9396479E-03;  0.0000000E+00;
  5.8834167E+00;  9.9999998E-03; -1.0349598E+00;451;  1.4895190E-01;  0.0000000E+00; -7.3360722E-03;  9.9882641E+00;  2.4270549E-01; -1.0434015E+00;3;  3.4539760E-03;  0.0000000E+00; -1.2506179E-03;  0.0000000E+00;  0.0000000E+00;  0.0000000E+00;1;  3.9994441E-02;  2.9069971E+02;  0.0000000E+00;  1.4300497E-01;  1.0000000E+02;  0.0000000E+00;  9.3214157E+01;  3.2620128E-02;  0.0000000E+00;  7.3743118E-03;  0.0000000E+00;
  5.9066782E+00;  9.9999998E-03; -8.2796073E-01;452;  1.5182330E-01;  0.0000000E+00; -5.5606212E-03;  9.9881506E+00;  2.4413483E-01; -1.0534697E+00;3;  6.1291005E-03;  0.0000000E+00;  3.5109802E-03;  0.0000000E+00;  0.0000000E+00;  0.0000000E+00;1;  3.9340802E-02;  2.8792294E+02;  0.0000000E+00; -2.3875121E-02;  1.0000000E+02;  0.0000000E+00;  9.3013634E+01;  3.2066088E-02;  0.0000000E+00;  7.2747134E-03;  0.0000000E+00;
  5.9094081E+00;  9.9999998E-03; -6.2018335E-01;453;  1.5523876E-01;  0.0000000E+00; -3.6063476E-03;  9.9881830E+00;  2.4320780E-01; -1.0506082E+00;3;  3.8676462E-03;  0.0000000E+00; -1.6355583E-03;  0.0000000E+00;  0.0000000E+00;  0.0000000E+00;1;  3.9223298E-02;  2.8965887E+02;  0.0000000E+00; -2.9627764E-01;  1.0000000E+02;  0.0000000E+00;  9.3162056E+01;  3.2343935E-02;  0.0000000E+00;  6.8793623E-03;  0.0000000E+00;
  5.9164157E+00;  9.9999998E-03; -4.1359007E-01;454;  1.5592086E-01;  0.0000000E+00; -2.5052316E-03;  9.9883871E+00;  2.4255152E-01; -1.0324321E+00;3;  5.9152259E-03;  0.0000000E+00;  2.6771338E-03;  0.0000000E+00;  0.0000000E+00;  0.0000000E+00;1;  3.8219839E-02;  2.9099924E+02;  0.0000000E+00; -3.7008461E-01;  1.0000000E+02;  0.0000000E+00;  9.3240921E+01;  3.1222984E-02;  0.0000000E+00;  6.9968542E-03;  0.0000000E+00;
  5.9102635E+00;  9.9999998E-03; -2.0631072E-01;455;  1.4920016E-01;  0.0000000E+00;  1.0791232E-04;  9.9891653E+00;  2.4144967E-01; -9.6327823E-01;3;  2.0440975E-03;  0.0000000E+00; -1.1993735E-04;  0.0000000E+00;  0.0000000E+00;  0.0000000E+00;1;  3.5886124E-02;  2.9320999E+02;  0.0000000E+00; -2.0755702E-01;  1.0000000E+02;  0.0000000E+00;  9.3396370E+01;  2.9340990E-02;  0.0000000E+00;  6.5451325E-03;  0.0000000E+00;
  5.0400515E+00;  9.9999998E-03; -1.0502820E+00;494;  1.1414185E-01;  0.0000000E+00; -1.1470991E-02;  9.9874744E+00;  2.6313296E-01; -1.1136239E+00;3; -2.0930044E-04;  0.0000000E+00; -9.1211259E-04; -4.3160208E+08; -4.3160208E+08; -4.3160208E+08;1;  6.1815947E-02;  2.5461139E+02;  0.0000000E+00;  1.6691495E-03;  1.0000000E+02;  0.0000000E+00;  9.0532341E+01;  5.0757591E-02;  0.0000000E+00;  1.1058358E-02;  0.0000000E+00;
  4.7697444E+00;  9.9999998E-03; -1.0507755E+00;496;  9.8796852E-02;  0.0000000E+00; -1.1551875E-02;  9.9878111E+00;  2.6300329E-01; -1.0838560E+00;3;  6.0352695E-04;  0.0000000E+00; -1.4530331E-03; -4.3160208E+08; -4.3160208E+08; -4.3160208E+08;1;  6.1130375E-02;  2.5482091E+02;  0.0000000E+00;  4.8130158E-02;  1.0000000E+02;  0.0000000E+00;  9.0551376E+01;  5.0170511E-02;  0.0000000E+00;  1.0959866E-02;  0.0000000E+00;
  4.7704916E+00;  9.9999998E-03; -8.4168446E-01;498;  9.8006681E-02;  0.0000000E+00; -9.4990851E-03;  9.9878235E+00;  2.6277521E-01; -1.0827422E+00;3; -6.4989494E-04;  0.0000000E+00;  9.6801890E-04; -4.3160208E+08; -4.3160208E+08; -4.3160208E+08;1;  6.1034504E-02;  2.5518842E+02;  0.0000000E+00;  1.5156408E-02;  1.0000000E+02;  0.0000000E+00;  9.0578606E+01;  5.0033227E-02;  0.0000000E+00;  1.1001278E-02;  0.0000000E+00;
  5.0359244E+00;  9.9999998E-03; -8.4151745E-01;500;  1.1410804E-01;  0.0000000E+00; -9.5587680E-03;  9.9875345E+00;  2.6273927E-01; -1.1083255E+00;3;  1.7019693E-04;  0.0000000E+00;  7.6988683E-04; -4.3160208E+08; -4.3160208E+08; -4.3160208E+08;1;  6.1546177E-02;  2.5524377E+02;  0.0000000E+00; -6.8736360E-03;  1.0000000E+02;  0.0000000E+00;  9.0579208E+01;  5.0400771E-02;  0.0000000E+00;  1.1145404E-02;  0.0000000E+00;
  4.7741175E+00;  9.9999998E-03; -6.3268030E-01;502;  9.9187829E-02;  0.0000000E+00; -7.3886043E-03;  9.9878550E+00;  2.6251566E-01; -1.0799308E+00;3; -8.9406932E-04;  0.0000000E+00; -3.6243437E-04; -4.3160208E+08; -4.3160208E+08; -4.3160208E+08;1;  6.0885884E-02;  2.5559917E+02;  0.0000000E+00;  6.8297354E-03;  1.0000000E+02;  0.0000000E+00;  9.0611473E+01;  4.9920429E-02;  0.0000000E+00;  1.0965455E-02;  0.0000000E+00;
  5.0313725E+00;  9.9999998E-03; -6.3314867E-01;504;  1.1382255E-01;  0.0000000E+00; -7.5365538E-03;  9.9876814E+00;  2.6225016E-01; -1.0952370E+00;3;  3.0228088E-04;  0.0000000E+00; -5.0604186E-04; -4.3160208E+08; -4.3160208E+08; -4.3160208E+08;1;  6.0869016E-02;  2.5603336E+02;  0.0000000E+00; -1.6761890E-02;  1.0000000E+02;  0.0000000E+00;  9.0639091E+01;  4.9905889E-02;  0.0000000E+00;  1.0963126E-02;  0.0000000E+00;
  4.7802939E+00;  9.9999998E-03; -4.2318994E-01;506;  1.0169483E-01;  0.0000000E+00; -5.2396501E-03;  9.9878759E+00;  2.6228490E-01; -1.0780714E+00;3; -5.8725628E-04;  0.0000000E+00;  1.1490340E-03; -4.3160208E+08; -4.3160208E+08; -4.3160208E+08;1;  6.0784280E-02;  2.5597855E+02;  0.0000000E+00;  4.0252064E-03;  1.0000000E+02;  0.0000000E+00;  9.0637192E+01;  4.9796265E-02;  0.0000000E+00;  1.0988017E-02;  0.0000000E+00;
  4.7886872E+00;  9.9999998E-03; -2.1126622E-01;508;  1.0577656E-01;  0.0000000E+00; -1.3912125E-03;  9.9879303E+00;  2.6210520E-01; -1.0732427E+00;3; -2.3518865E-04;  0.0000000E+00; -6.9723022E-04; -4.3160208E+08; -4.3160208E+08; -4.3160208E+08;1;  6.0509920E-02;  2.5624045E+02;  0.0000000E+00;  1.0341499E-03;  1.0000000E+02;  0.0000000E+00;  9.0669228E+01;  4.9697060E-02;  0.0000000E+00;  1.0812861E-02;  0.0000000E+00;
  5.0302300E+00;  9.9999998E-03; -4.2485341E-01;511;  1.1447798E-01;  0.0000000E+00; -5.5907201E-03;  9.9878178E+00;  2.6176414E-01; -1.0831016E+00;3;  6.6728488E-04;  0.0000000E+00;  4.0899910E-04; -4.3160208E+08; -4.3160208E+08; -4.3160208E+08;1;  6.0193680E-02;  2.5683383E+02;  0.0000000E+00; -6.3781301E-03;  1.0000000E+02;  0.0000000E+00;  9.0694733E+01;  4.9303241E-02;  0.0000000E+00;  1.0890437E-02;  0.0000000E+00;
  5.0311522E+00;  9.9999998E-03; -2.1629710E-01;513;  1.1638020E-01;  0.0000000E+00; -2.3500386E-03;  9.9879684E+00;  2.6138240E-01; -1.0697467E+00;3;  1.6138365E-03;  0.0000000E+00;  6.6094636E-04; -4.3160208E+08; -4.3160208E+08; -4.3160208E+08;1;  5.9436772E-02;  2.5749118E+02;  0.0000000E+00; -6.0857617E-04;  1.0000000E+02;  0.0000000E+00;  9.0730103E+01;  4.8757549E-02;  0.0000000E+00;  1.0679222E-02;  0.0000000E+00;
  4.5233111E+00;  9.9999998E-03; -1.0494541E+00;516;  8.6796254E-02;  0.0000000E+00; -1.1210301E-02;  9.9880819E+00;  2.6063508E-01; -1.0600407E+00;3; -5.3133373E-04;  0.0000000E+00; -1.4724804E-03; -4.3160208E+08; -4.3160208E+08; -4.3160208E+08;1;  5.8753110E-02;  2.5861783E+02;  0.0000000E+00;  2.8050097E-02;  1.0000000E+02;  0.0000000E+00;  9.0854767E+01;  4.8214111E-02;  0.0000000E+00;  1.0539000E-02;  0.0000000E+00;
  4.5259900E+00;  9.9999998E-03; -8.4032422E-01;518;  8.7320052E-02;  0.0000000E+00; -9.1633722E-03;  9.9880276E+00;  2.6062846E-01; -1.0648601E+00;3; -9.0408191E-04;  0.0000000E+00;  8.5575867E-04; -4.3160208E+08; -4.3160208E+08; -4.3160208E+08;1;  5.8999382E-02;  2.5862881E+02;  0.0000000E+00;  1.0866731E-02;  1.0000000E+02;  0.0000000E+00;  9.0854790E+01;  4.8403319E-02;  0.0000000E+00;  1.0596062E-02;  0.0000000E+00;
  4.5300603E+00;  9.9999998E-03; -6.3103271E-01;520;  8.8599898E-02;  0.0000000E+00; -7.1467641E-03;  9.9879646E+00;  2.6064461E-01; -1.0704719E+00;3; -1.0159080E-03;  0.0000000E+00; -2.4635952E-05; -4.3160208E+08; -4.3160208E+08; -4.3160208E+08;1;  5.9342343E-02;  2.5859607E+02;  0.0000000E+00;  2.7828838E-03;  1.0000000E+02;  0.0000000E+00;  9.0854057E+01;  4.8635099E-02;  0.0000000E+00;  1.0707245E-02;  0.0000000E+00;
  4.6520796E+00;  9.9999998E-03; -4.2101419E-01;523;  9.0913765E-02;  0.0000000E+00; -4.9205408E-03;  9.9879322E+00;  2.6086175E-01; -1.0731527E+00;3; -9.6039713E-04;  0.0000000E+00;  7.6909765E-04; -4.3160208E+08; -4.3160208E+08; -4.3160208E+08;1;  6.0207788E-02;  2.5824915E+02;  0.0000000E+00;  4.2779362E-04;  1.0000000E+02;  0.0000000E+00;  9.0823708E+01;  4.9347427E-02;  0.0000000E+00;  1.0860361E-02;  0.0000000E+00;
  4.6580734E+00;  9.9999998E-03; -2.0780332E-01;525;  9.3602665E-02;  0.0000000E+00; -1.5377424E-03;  9.9879303E+00;  2.6084396E-01; -1.0733578E+00;3; -8.5758226E-04;  0.0000000E+00; -4.9536343E-04; -4.3160208E+08; -4.3160208E+08; -4.3160208E+08;1;  6.0240682E-02;  2.5824448E+02;  0.0000000E+00;  2.9372767E-04;  1.0000000E+02;  0.0000000E+00;  9.0838142E+01;  4.9436547E-02;  0.0000000E+00;  1.0804136E-02;  0.0000000E+00;
  5.3305941E+00;  9.9999998E-03; -1.0471852E+00;527;  1.3745672E-01;  0.0000000E+00; -1.0686042E-02;  9.9873352E+00;  2.5981602E-01; -1.1259801E+00;3;  3.3489503E-03;  0.0000000E+00;  1.5699618E-03; -4.3160208E+08; -4.3160208E+08; -4.3160208E+08;1;  5.8568768E-02;  2.5996567E+02;  0.0000000E+00; -2.7320233E-01;  1.0000000E+02;  0.0000000E+00;  9.0944931E+01;  4.8036020E-02;  0.0000000E+00;  1.0532750E-02;  0.0000000E+00;
  5.3155036E+00;  9.9999998E-03; -8.3878618E-01;529;  1.2833206E-01;  0.0000000E+00; -8.8255117E-03;  9.9875622E+00;  2.5897732E-01; -1.1057913E+00;3; -3.2600536E-04;  0.0000000E+00;  1.0006399E-03; -4.3160208E+08; -4.3160208E+08; -4.3160208E+08;1;  5.7829078E-02;  2.6135776E+02;  0.0000000E+00;  1.5666540E-01;  1.0000000E+02;  0.0000000E+00;  9.1049866E+01;  4.7357496E-02;  0.0000000E+00;  1.0471581E-02;  0.0000000E+00;
  5.3083348E+00;  9.9999998E-03; -6.3082284E-01;531;  1.3408376E-01;  0.0000000E+00; -6.9889841E-03;  9.9877291E+00;  2.5832137E-01; -1.0909541E+00;3;  2.8745402E-03;  0.0000000E+00;  3.1978343E-04; -4.3160208E+08; -4.3160208E+08; -4.3160208E+08;1;  5.7172090E-02;  2.6245798E+02;  0.0000000E+00; -1.8463235E-02;  1.0000000E+02;  0.0000000E+00;  9.1131706E+01;  4.6875361E-02;  0.0000000E+00;  1.0296728E-02;  0.0000000E+00;
  5.2981234E+00;  9.9999998E-03; -4.2326447E-01;533;  1.3189147E-01;  0.0000000E+00; -5.0795991E-03;  9.9879599E+00;  2.5772381E-01; -1.0704470E+00;3;  2.1823116E-03;  0.0000000E+00; -8.4664894E-04; -4.3160208E+08; -4.3160208E+08; -4.3160208E+08;1;  5.6284491E-02;  2.6347202E+02;  0.0000000E+00; -7.0480332E-02;  1.0000000E+02;  0.0000000E+00;  9.1205261E+01;  4.6159413E-02;  0.0000000E+00;  1.0125078E-02;  0.0000000E+00;
  4.4071212E+00;  9.9999998E-03; -2.0693804E-01;536;  7.9859592E-02;  0.0000000E+00; -1.9151712E-03;  9.9878559E+00;  2.5844216E-01; -1.0804212E+00;3; -1.1420024E-03;  0.0000000E+00; -9.1251475E-04; -4.3160208E+08; -4.3160208E+08; -4.3160208E+08;1;  5.8779959E-02;  2.6212177E+02;  0.0000000E+00;  2.7116170E-04;  1.0000000E+02;  0.0000000E+00;  9.1164467E+01;  4.8263591E-02;  0.0000000E+00;  1.0516368E-02;  0.0000000E+00;
  5.2827311E+00;  9.9999998E-03; -2.1675320E-01;540;  1.2655890E-01;  0.0000000E+00; -3.7010871E-03;  9.9881105E+00;  2.5735566E-01; -1.0570412E+00;3;  1.0079019E-03;  0.0000000E+00;  7.0696563E-04; -4.3160208E+08; -4.3160208E+08; -4.3160208E+08;1;  5.5811957E-02;  2.6414700E+02;  0.0000000E+00; -3.0981226E-02;  1.0000000E+02;  0.0000000E+00;  9.1234886E+01;  4.5663819E-02;  0.0000000E+00;  1.0148137E-02;  0.0000000E+00;
  5.5548048E+00;  9.9999998E-03; -8.3388394E-01;560;  1.3932706E-01;  0.0000000E+00; -7.6488145E-03;  9.9878569E+00;  2.5223634E-01; -1.0796006E+00;3;  3.0811706E-03;  0.0000000E+00;  1.5211193E-03; -4.3160208E+08; -4.3160208E+08; -4.3160208E+08;1;  5.1324539E-02;  2.7291711E+02;  0.0000000E+00;  1.0219906E-01;  1.0000000E+02;  0.0000000E+00;  9.1920113E+01;  4.1949011E-02;  0.0000000E+00;  9.3755284E-03;  0.0000000E+00;
  5.5363760E+00;  9.9999998E-03; -1.0418329E+00;562;  1.3945377E-01;  0.0000000E+00; -9.5117437E-03;  9.9876509E+00;  2.5211293E-01; -1.0978832E+00;3;  4.2158663E-03;  0.0000000E+00;  2.2280545E-03; -4.3160208E+08; -4.3160208E+08; -4.3160208E+08;1;  5.2594338E-02;  2.7312738E+02;  0.0000000E+00; -2.2783224E-01;  1.0000000E+02;  0.0000000E+00;  9.1936111E+01;  4.3177757E-02;  0.0000000E+00;  9.4165802E-03;  0.0000000E+00;
  5.5611444E+00;  9.9999998E-03; -6.2584692E-01;564;  1.4815712E-01;  0.0000000E+00; -5.6699216E-03;  9.9880333E+00;  2.5144139E-01; -1.0639148E+00;3;  6.4496160E-03;  0.0000000E+00; -4.8297420E-03; -4.3160208E+08; -4.3160208E+08; -4.3160208E+08;1;  5.0497107E-02;  2.7431128E+02;  0.0000000E+00; -1.2650968E-01;  1.0000000E+02;  0.0000000E+00;  9.2034439E+01;  4.1461699E-02;  0.0000000E+00;  9.0354076E-03;  0.0000000E+00;
  5.5794582E+00;  9.9999998E-03; -4.1867387E-01;570;  1.5190521E-01;  0.0000000E+00; -4.1423114E-03;  9.9883232E+00;  2.5060678E-01; -1.0381073E+00;3;  2.8246252E-03;  0.0000000E+00;  8.9481828E-04; -4.3160208E+08; -4.3160208E+08; -4.3160208E+08;1;  4.8737735E-02;  2.7584119E+02;  0.0000000E+00; -4.1546866E-02;  1.0000000E+02;  0.0000000E+00;  9.2139877E+01;  3.9826423E-02;  0.0000000E+00;  8.9113107E-03;  0.0000000E+00;
  5.5641236E+00;  9.9999998E-03; -2.1109483E-01;578;  1.4359552E-01;  0.0000000E+00; -3.3103989E-03;  9.9885416E+00;  2.4973847E-01; -1.0187126E+00;3; -7.6714036E-04;  0.0000000E+00;  5.5166276E-04; -4.3160208E+08; -4.3160208E+08; -4.3160208E+08;1;  4.8200257E-02;  2.7744089E+02;  0.0000000E+00; -6.6761293E-02;  1.0000000E+02;  0.0000000E+00;  9.2249680E+01;  3.9300069E-02;  0.0000000E+00;  8.9001888E-03;  0.0000000E+00;
  5.7900414E+00;  9.9999998E-03; -8.2829851E-01;590;  1.5024126E-01;  0.0000000E+00; -6.6085677E-03;  9.9878387E+00;  2.4465989E-01; -1.0811855E+00;3;  3.4145804E-03;  0.0000000E+00;  3.9582453E-03; -4.3160208E+08; -4.3160208E+08; -4.3160208E+08;1;  4.4483028E-02;  2.8689648E+02;  0.0000000E+00; -4.0128119E-02;  1.0000000E+02;  0.0000000E+00;  9.2940636E+01;  3.5983361E-02;  0.0000000E+00;  8.4996661E-03;  0.0000000E+00;
  5.7927976E+00;  9.9999998E-03; -6.2029171E-01;595;  1.5344407E-01;  0.0000000E+00; -4.7864402E-03;  9.9880562E+00;  2.4355559E-01; -1.0618434E+00;3;  5.1549166E-03;  0.0000000E+00;  2.2288086E-03; -4.3160208E+08; -4.3160208E+08; -4.3160208E+08;1;  4.3590434E-02;  2.8899591E+02;  0.0000000E+00; -3.0581927E-01;  1.0000000E+02;  0.0000000E+00;  9.3106491E+01;  3.5502948E-02;  0.0000000E+00;  8.0874860E-03;  0.0000000E+00;
  5.7666407E+00;  9.9999998E-03; -1.0353079E+00;597;  1.4598525E-01;  0.0000000E+00; -7.8682108E-03;  9.9881258E+00;  2.4307105E-01; -1.0556967E+00;3;  8.4009650E-04;  0.0000000E+00; -1.2630611E-03; -4.3160208E+08; -4.3160208E+08; -4.3160208E+08;1;  4.4125497E-02;  2.8998886E+02;  0.0000000E+00;  1.4823647E-01;  1.0000000E+02;  0.0000000E+00;  9.3159454E+01;  3.6392573E-02;  0.0000000E+00;  7.7329236E-03;  0.0000000E+00;
  5.8001504E+00;  9.9999998E-03; -4.1341084E-01;599;  1.5559009E-01;  0.0000000E+00; -3.0806421E-03;  9.9884157E+00;  2.4279721E-01; -1.0298895E+00;3;  3.7108059E-03;  0.0000000E+00; -7.5284240E-04; -4.3160208E+08; -4.3160208E+08; -4.3160208E+08;1;  4.2061377E-02;  2.9049094E+02;  0.0000000E+00; -3.7558877E-01;  1.0000000E+02;  0.0000000E+00;  9.3215424E+01;  3.4357239E-02;  0.0000000E+00;  7.7041378E-03;  0.0000000E+00;
  5.7939658E+00;  9.9999998E-03; -2.0627873E-01;603;  1.4849050E-01;  0.0000000E+00; -4.5585426E-04;  9.9889460E+00;  2.4162364E-01; -9.8278010E-01;3; -1.0824867E-04;  0.0000000E+00;  1.6598944E-03; -4.3160208E+08; -4.3160208E+08; -4.3160208E+08;1;  4.0310651E-02;  2.9284827E+02;  0.0000000E+00; -2.0929861E-01;  1.0000000E+02;  0.0000000E+00;  9.3373062E+01;  3.3018712E-02;  0.0000000E+00;  7.2919405E-03;  0.0000000E+00;
  6.0481963E+00;  9.9999998E-03; -1.0282810E+00;462;  1.5274793E-01;  0.0000000E+00; -6.0588047E-03;  9.9882374E+00;  4.6827587E-01; -1.0457323E+00;3;  6.9212466E-03;  0.0000000E+00;  5.5641774E-03;  0.0000000E+00;  0.0000000E+00;  0.0000000E+00;0;  3.3676125E-02;  7.7075752E+01;  0.0000000E+00; -3.0468704E-02;  1.0000000E+02;  0.0000000E+00;  9.4441353E+01;  2.7573423E-02;  0.0000000E+00;  6.1027007E-03;  0.0000000E+00;
  6.0548472E+00;  9.9999998E-03; -8.2111722E-01;463;  1.5303938E-01;  0.0000000E+00; -4.4596894E-03;  9.9887133E+00;  4.6775079E-01; -1.0034450E+00;3;  4.9577416E-03;  0.0000000E+00;  7.3154294E-04;  0.0000000E+00;  0.0000000E+00;  0.0000000E+00;0;  3.2239959E-02;  7.7228622E+01;  0.0000000E+00; -1.0633517E-02;  1.0000000E+02;  0.0000000E+00;  9.4475426E+01;  2.6204353E-02;  0.0000000E+00;  6.0356064E-03;  0.0000000E+00;
  6.0635538E+00;  9.9999998E-03; -2.0139927E-01;466;  1.5564480E-01;  0.0000000E+00; -1.2008013E-03;  9.9886560E+00;  4.6661732E-01; -1.0085322E+00;3;  5.9266724E-03;  0.0000000E+00; -3.7183473E-04;  0.0000000E+00;  0.0000000E+00;  0.0000000E+00;0;  3.2058135E-02;  7.7547241E+01;  0.0000000E+00;  4.0169016E-02;  1.0000000E+02;  0.0000000E+00;  9.4543480E+01;  2.6040103E-02;  0.0000000E+00;  6.0180328E-03;  0.0000000E+00;
  6.0644197E+00;  9.9999998E-03; -6.1476433E-01;464;  1.5656343E-01;  0.0000000E+00; -3.1230571E-03;  9.9880342E+00;  4.6948311E-01; -1.0638021E+00;3;  4.4920952E-03;  0.0000000E+00; -7.0510828E-04;  0.0000000E+00;  0.0000000E+00;  0.0000000E+00;0;  3.3772212E-02;  7.6756439E+01;  0.0000000E+00;  5.0830241E-02;  1.0000000E+02;  0.0000000E+00;  9.4344124E+01;  2.7576910E-02;  0.0000000E+00;  6.1952998E-03;  0.0000000E+00;
  6.0647883E+00;  9.9999998E-03; -4.0805882E-01;465;  1.5700202E-01;  0.0000000E+00; -1.7106159E-03;  9.9882755E+00;  4.6800187E-01; -1.0423406E+00;3;  5.6876973E-03;  0.0000000E+00;  2.7368218E-04;  0.0000000E+00;  0.0000000E+00;  0.0000000E+00;0;  3.3064689E-02;  7.7163109E+01;  0.0000000E+00;  8.5542336E-02;  1.0000000E+02;  0.0000000E+00;  9.4445755E+01;  2.7065558E-02;  0.0000000E+00;  5.9991311E-03;  0.0000000E+00;
  6.2666807E+00;  9.9999998E-03; -4.0122834E-01;475;  1.5654747E-01;  0.0000000E+00; -2.3005190E-04;  9.9888783E+00;  4.4724211E-01; -9.8876584E-01;3;  5.7292227E-03;  0.0000000E+00; -5.7089236E-04;  0.0000000E+00;  0.0000000E+00;  0.0000000E+00;0;  2.3448449E-02;  8.3104431E+01;  0.0000000E+00;  7.0170134E-02;  1.0000000E+02;  0.0000000E+00;  9.6035736E+01;  1.9222623E-02;  0.0000000E+00;  4.2258264E-03;  0.0000000E+00;
  6.2658157E+00;  9.9999998E-03; -6.0780865E-01;474;  1.5589570E-01;  0.0000000E+00; -1.5681516E-03;  9.9891243E+00;  4.4735458E-01; -9.6688044E-01;3;  4.5149033E-03;  0.0000000E+00; -5.5380724E-04;  0.0000000E+00;  0.0000000E+00;  0.0000000E+00;0;  2.2926522E-02;  8.3060921E+01;  0.0000000E+00; -4.3833908E-02;  1.0000000E+02;  0.0000000E+00;  9.6040993E+01;  1.8702442E-02;  0.0000000E+00;  4.2240806E-03;  0.0000000E+00;
  6.2715836E+00;  9.9999998E-03; -8.1590015E-01;473;  1.5726280E-01;  0.0000000E+00; -3.6249424E-03;  9.9874668E+00;  4.5327523E-01; -1.1142493E+00;3;  8.8030491E-03;  0.0000000E+00;  4.4378010E-03;  0.0000000E+00;  0.0000000E+00;  0.0000000E+00;0;  2.6113208E-02;  8.1273834E+01;  0.0000000E+00; -5.6079853E-02;  1.0000000E+02;  0.0000000E+00;  9.5577133E+01;  2.0884397E-02;  0.0000000E+00;  5.2288119E-03;  0.0000000E+00;
  6.2767410E+00;  9.9999998E-03; -1.9937842E-01;476;  1.5792391E-01;  0.0000000E+00;  1.7124343E-04;  9.9880505E+00;  4.5182100E-01; -1.0623709E+00;3;  5.9546866E-03;  0.0000000E+00; -5.7047233E-05;  0.0000000E+00;  0.0000000E+00;  0.0000000E+00;0;  2.4689097E-02;  8.1753639E+01;  0.0000000E+00;  3.0833595E-02;  1.0000000E+02;  0.0000000E+00;  9.5639832E+01;  2.0134503E-02;  0.0000000E+00;  4.5545939E-03;  0.0000000E+00;
  6.4773345E+00;  9.9999998E-03; -3.9921105E-01;483;  1.5802683E-01;  0.0000000E+00;  3.0939456E-04;  9.9877949E+00;  4.3312255E-01; -1.0851039E+00;3;  6.6491831E-03;  0.0000000E+00;  1.6834959E-04;  0.0000000E+00;  0.0000000E+00;  0.0000000E+00;0;  1.5716959E-02;  8.7587700E+01;  0.0000000E+00; -1.2488025E-01;  1.0000000E+02;  0.0000000E+00;  9.7140526E+01;  1.2822316E-02;  0.0000000E+00;  2.8946432E-03;  0.0000000E+00;
  6.4852600E+00;  9.9999998E-03; -6.0682189E-01;482;  1.6105755E-01;  0.0000000E+00; -1.1486331E-03;  9.9836578E+00;  4.4068241E-01; -1.4529169E+00;3;  1.7420514E-02;  0.0000000E+00;  1.1042620E-02;  0.0000000E+00;  0.0000000E+00;  0.0000000E+00;0;  2.0971633E-02;  8.5066559E+01;  0.0000000E+00; -9.4761573E-02;  1.0000000E+02;  0.0000000E+00;  9.6543175E+01;  1.7615689E-02;  0.0000000E+00;  3.3559445E-03;  0.0000000E+00;
  6.4848099E+00;  9.9999998E-03; -1.9756871E-01;484;  1.5949810E-01;  0.0000000E+00;  7.3267065E-04;  9.9857540E+00;  4.3790948E-01; -1.2665464E+00;3;  6.3161035E-03;  0.0000000E+00;  6.6602603E-05;  0.0000000E+00;  0.0000000E+00;  0.0000000E+00;0;  1.7927490E-02;  8.6044624E+01;  0.0000000E+00; -1.8859250E-02;  1.0000000E+02;  0.0000000E+00;  9.6696968E+01;  1.4606843E-02;  0.0000000E+00;  3.3206467E-03;  0.0000000E+00;
  6.6900573E+00;  9.9999998E-03; -4.0091860E-01;489;  1.6093913E-01;  0.0000000E+00; -4.3282760E-04;  9.9638853E+00;  4.2706773E-01; -3.2107456E+00;3;  1.6144775E-03;  0.0000000E+00; -7.8276061E-03;  0.0000000E+00;  0.0000000E+00;  0.0000000E+00;0;  1.4004599E-02;  8.9378220E+01;  0.0000000E+00; -1.6114222E-01;  1.0000000E+02;  0.0000000E+00;  9.7468407E+01;  1.1126617E-02;  0.0000000E+00;  2.8779823E-03;  0.0000000E+00;
  6.6879764E+00;  9.9999998E-03; -1.9596948E-01;490;  1.6075881E-01;  0.0000000E+00;  7.4264943E-04;  9.9704409E+00;  4.2419860E-01; -2.6279469E+00;3;  8.4709655E-03;  0.0000000E+00;  1.0175286E-03;  0.0000000E+00;  0.0000000E+00;  0.0000000E+00;0;  1.2858365E-02;  9.0513283E+01;  0.0000000E+00; -1.2094449E-01;  1.0000000E+02;  0.0000000E+00;  9.7674637E+01;  1.0429331E-02;  0.0000000E+00;  2.4290339E-03;  0.0000000E+00;
  3.6860340E-05;  9.9999998E-03;  2.3370744E-10;170;  2.3350753E-04;  0.0000000E+00;  1.5970650E-09;  9.9990187E+00;  3.9995360E-01; -1.0556044E-01;3;  1.3394693E-02;  0.0000000E+00; -9.9123717E-08;  0.0000000E+00;  0.0000000E+00;  0.0000000E+00;0;  6.5889762E-05;  9.9994339E+01;  0.0000000E+00; -4.9447756E-16;  1.0000000E+02;  0.0000000E+00;  1.0000816E+02;  6.7766421E-05;  0.0000000E+00; -1.8766577E-06;  0.0000000E+00;
 -4.1662056E-06;  9.9999998E-03;  2.0002164E-01;171;  2.1820022E-04;  0.0000000E+00;  1.4004670E-05;  9.9989548E+00;  3.9996502E-01; -1.1248665E-01;3;  1.2761355E-02;  0.0000000E+00;  1.1195119E-03;  0.0000000E+00;  0.0000000E+00;  0.0000000E+00;0;  7.1687537E-05;  9.9988190E+01;  0.0000000E+00;  1.5819477E-06;  1.0000000E+02;  0.0000000E+00;  1.0000815E+02;  7.3660107E-05;  0.0000000E+00; -1.9725692E-06;  0.0000000E+00;
 -1.1384903E-04;  9.9999998E-03;  4.0005857E-01;172;  1.7554464E-04;  0.0000000E+00;  3.8096743E-05;  9.9987965E+00;  3.9999387E-01; -1.2948149E-01;3;  1.1664714E-02;  0.0000000E+00;  4.4720834E-03;  0.0000000E+00;  0.0000000E+00;  0.0000000E+00;0;  8.6952816E-05;  9.9973770E+01;  0.0000000E+00;  2.7052806E-06;  1.0000000E+02;  0.0000000E+00;  1.0000729E+02;  8.9352492E-05;  0.0000000E+00; -2.3996788E-06;  0.0000000E+00;
 -2.8044402E-04;  9.9999998E-03;  6.0014403E-01;173;  1.1471111E-04;  0.0000000E+00;  6.9060108E-05;  9.9988050E+00;  4.0002462E-01; -1.2858365E-01;3;  9.9754306E-03;  0.0000000E+00;  1.2328708E-02;  0.0000000E+00;  0.0000000E+00;  0.0000000E+00;0;  1.0654003E-04;  9.9954727E+01;  0.0000000E+00; -9.7199754E-06;  1.0000000E+02;  0.0000000E+00;  9.9998749E+01;  1.0955679E-04;  0.0000000E+00; -3.0167594E-06;  0.0000000E+00;
 -4.0009446E-04;  9.9999998E-03;  8.0017924E-01;174;  6.9648777E-05;  0.0000000E+00;  7.3229683E-05;  9.9987917E+00;  4.0005919E-01; -1.2999454E-01;3;  9.9336943E-03;  0.0000000E+00;  1.7900990E-02;  0.0000000E+00;  0.0000000E+00;  0.0000000E+00;0;  1.2330490E-04;  9.9938286E+01;  0.0000000E+00; -4.0843079E-05;  1.0000000E+02;  0.0000000E+00;  1.0000000E+02;  1.2558090E-04;  0.0000000E+00; -2.2760123E-06;  0.0000000E+00;
 -4.8499770E-04;  9.9999998E-03;  1.0001669E+00;175;  2.5024046E-05;  0.0000000E+00;  5.5480086E-05;  9.9987469E+00;  4.0008166E-01; -1.3480441E-01;3;  8.5951686E-03;  0.0000000E+00;  1.1203222E-02;  0.0000000E+00;  0.0000000E+00;  0.0000000E+00;0;  1.3010102E-04;  9.9930679E+01;  0.0000000E+00; -5.5396602E-05;  1.0000000E+02;  0.0000000E+00;  9.9998260E+01;  1.2868922E-04;  0.0000000E+00;  1.4118013E-06;  0.0000000E+00;
  1.9973269E-01;  9.9999998E-03;  7.0669248E-11;181;  1.6446969E-04;  0.0000000E+00;  1.8478945E-09;  9.9982567E+00;  4.0037450E-01; -1.8758437E-01;3;  3.0655339E-02;  0.0000000E+00; -6.6743020E-08;  0.0000000E+00;  0.0000000E+00;  0.0000000E+00;0;  1.7159643E-04;  9.9762115E+01;  0.0000000E+00; -6.0943401E-16;  1.0000000E+02;  0.0000000E+00;  1.0001247E+02;  1.8137015E-04;  0.0000000E+00; -9.7737184E-06;  0.0000000E+00;
  1.9969298E-01;  9.9999998E-03;  1.9998400E-01;182;  1.4860781E-04;  0.0000000E+00;  1.3569884E-06;  9.9982224E+00;  4.0038884E-01; -1.9123986E-01;3;  2.9207019E-02;  0.0000000E+00;  5.9367982E-03;  0.0000000E+00;  0.0000000E+00;  0.0000000E+00;0;  1.8259886E-04;  9.9754471E+01;  0.0000000E+00; -8.9166315E-06;  1.0000000E+02;  0.0000000E+00;  1.0001152E+02;  1.9198783E-04;  0.0000000E+00; -9.3889639E-06;  0.0000000E+00;
  1.9958638E-01;  9.9999998E-03;  3.9997575E-01;183;  1.0655036E-04;  0.0000000E+00;  9.1186339E-06;  9.9980450E+00;  4.0042368E-01; -2.1035103E-01;3;  2.6141703E-02;  0.0000000E+00;  1.3542100E-02;  0.0000000E+00;  0.0000000E+00;  0.0000000E+00;0;  2.1156314E-04;  9.9736359E+01;  0.0000000E+00; -6.0304050E-05;  1.0000000E+02;  0.0000000E+00;  1.0001189E+02;  2.1986544E-04;  0.0000000E+00; -8.3023033E-06;  0.0000000E+00;
  1.9943939E-01;  9.9999998E-03;  5.9999746E-01;184;  4.9512979E-05;  0.0000000E+00;  2.9442281E-05;  9.9977436E+00;  4.0045848E-01; -2.4280152E-01;3;  2.2542117E-02;  0.0000000E+00;  2.2408785E-02;  0.0000000E+00;  0.0000000E+00;  0.0000000E+00;0;  2.4733128E-04;  9.9719490E+01;  0.0000000E+00; -1.6800083E-04;  1.0000000E+02;  0.0000000E+00;  1.0000382E+02;  2.5357265E-04;  0.0000000E+00; -6.2413856E-06;  0.0000000E+00;
  1.9938633E-01;  9.9999998E-03;  7.9997212E-01;185;  3.1410415E-05;  0.0000000E+00;  2.5585226E-05;  9.9977226E+00;  4.0045920E-01; -2.4504612E-01;3;  1.6293144E-02;  0.0000000E+00;  2.6914421E-02;  0.0000000E+00;  0.0000000E+00;  0.0000000E+00;0;  2.7574072E-04;  9.9716751E+01;  0.0000000E+00; -2.3290257E-04;  1.0000000E+02;  0.0000000E+00;  9.9999870E+01;  2.7824289E-04;  0.0000000E+00; -2.5021700E-06;  0.0000000E+00;
  1.9939104E-01;  9.9999998E-03;  9.9989152E-01;186;  4.2992313E-05;  0.0000000E+00;  3.6313193E-07;  9.9977942E+00;  4.0043420E-01; -2.3735034E-01;3;  1.2121586E-02;  0.0000000E+00;  2.1709574E-02;  0.0000000E+00;  0.0000000E+00;  0.0000000E+00;0;  2.8228213E-04;  9.9737053E+01;  0.0000000E+00; -6.1513034E-05;  1.0000000E+02;  0.0000000E+00;  1.0000108E+02;  2.7988706E-04;  0.0000000E+00;  2.3950638E-06;  0.0000000E+00;
  3.9949626E-01;  9.9999998E-03;  6.4527689E-11;192;  1.2004131E-04;  0.0000000E+00;  2.0144386E-09;  9.9964323E+00;  4.0124294E-01; -3.8388944E-01;3; -1.2076819E-02;  0.0000000E+00; -7.8741600E-08;  0.0000000E+00;  0.0000000E+00;  0.0000000E+00;0;  5.3433224E-04;  9.9294205E+01;  0.0000000E+00; -3.5715393E-16;  1.0000000E+02;  0.0000000E+00;  1.0001144E+02;  5.4929795E-04;  0.0000000E+00; -1.4965713E-05;  0.0000000E+00;
  3.9945954E-01;  9.9999998E-03;  1.9994675E-01;193;  1.0342430E-04;  0.0000000E+00; -1.1313809E-05;  9.9964066E+00;  4.0125582E-01; -3.8664711E-01;3; -1.2270151E-02;  0.0000000E+00;  1.9925565E-02;  0.0000000E+00;  0.0000000E+00;  0.0000000E+00;0;  5.4618029E-04;  9.9286171E+01;  0.0000000E+00; -7.6239099E-05;  1.0000000E+02;  0.0000000E+00;  1.0001145E+02;  5.6068302E-04;  0.0000000E+00; -1.4502711E-05;  0.0000000E+00;
  3.9934823E-01;  9.9999998E-03;  3.9990103E-01;194;  5.3862412E-05;  0.0000000E+00; -1.8243751E-05;  9.9962425E+00;  4.0128890E-01; -4.0428317E-01;3; -1.1784826E-02;  0.0000000E+00;  4.5520984E-02;  0.0000000E+00;  0.0000000E+00;  0.0000000E+00;0;  5.7704415E-04;  9.9269127E+01;  0.0000000E+00; -3.3735705E-04;  1.0000000E+02;  0.0000000E+00;  1.0001160E+02;  5.8998808E-04;  0.0000000E+00; -1.2943921E-05;  0.0000000E+00;
  3.9923710E-01;  9.9999998E-03;  5.9983450E-01;195; -1.3754575E-06;  0.0000000E+00; -3.0200254E-05;  9.9960260E+00;  4.0131173E-01; -4.2756280E-01;3; -1.1548547E-02;  0.0000000E+00;  7.7595443E-02;  0.0000000E+00;  0.0000000E+00;  0.0000000E+00;0;  6.1250472E-04;  9.9260071E+01;  0.0000000E+00; -5.5964169E-04;  1.0000000E+02;  0.0000000E+00;  1.0001234E+02;  6.2237045E-04;  0.0000000E+00; -9.8657474E-06;  0.0000000E+00;
  3.9925787E-01;  9.9999998E-03;  7.9971433E-01;196; -3.8265580E-06;  0.0000000E+00; -6.4515640E-05;  9.9960756E+00;  4.0127650E-01; -4.2223993E-01;3; -1.4570900E-02;  0.0000000E+00;  1.1112107E-01;  0.0000000E+00;  0.0000000E+00;  0.0000000E+00;0;  6.3108245E-04;  9.9281067E+01;  0.0000000E+00; -1.9832018E-05;  1.0000000E+02;  0.0000000E+00;  9.9999763E+01;  6.3699298E-04;  0.0000000E+00; -5.9105514E-06;  0.0000000E+00;
  3.9951685E-01;  9.9999998E-03;  9.9960518E-01;197;  1.0017436E-04;  0.0000000E+00; -1.1133326E-04;  9.9962606E+00;  4.0115279E-01; -4.0235925E-01;3; -1.7777678E-02;  0.0000000E+00;  1.3824992E-01;  0.0000000E+00;  0.0000000E+00;  0.0000000E+00;0;  6.1592774E-04;  9.9346664E+01;  0.0000000E+00;  1.7588226E-03;  1.0000000E+02;  0.0000000E+00;  1.0000108E+02;  6.2108139E-04;  0.0000000E+00; -5.1536554E-06;  0.0000000E+00;
  5.9937096E-01;  9.9999998E-03; -3.2435669E-11;203;  9.7301076E-05;  0.0000000E+00;  1.8265438E-09;  9.9937963E+00;  4.0266261E-01; -6.6747320E-01;3; -8.7830779E-04;  0.0000000E+00; -8.2162515E-08;  0.0000000E+00;  0.0000000E+00;  0.0000000E+00;0;  1.3006249E-03;  9.8553215E+01;  0.0000000E+00; -2.9584167E-15;  1.0000000E+02;  0.0000000E+00;  1.0000430E+02;  1.3121770E-03;  0.0000000E+00; -1.1552068E-05;  0.0000000E+00;
  5.9933072E-01;  9.9999998E-03;  1.9992991E-01;204;  7.5614196E-05;  0.0000000E+00; -1.8768529E-05;  9.9938011E+00;  4.0267688E-01; -6.6696018E-01;3;  5.7912437E-04;  0.0000000E+00;  2.1006171E-02;  0.0000000E+00;  0.0000000E+00;  0.0000000E+00;0;  1.3059709E-03;  9.8545113E+01;  0.0000000E+00; -2.3649885E-04;  1.0000000E+02;  0.0000000E+00;  1.0000481E+02;  1.3176582E-03;  0.0000000E+00; -1.1687326E-05;  0.0000000E+00;
  5.9919620E-01;  9.9999998E-03;  3.9985669E-01;205;  5.1561024E-06;  0.0000000E+00; -3.7732771E-05;  9.9938059E+00;  4.0270510E-01; -6.6644710E-01;3;  6.3348170E-03;  0.0000000E+00;  5.0884161E-02;  0.0000000E+00;  0.0000000E+00;  0.0000000E+00;0;  1.3189355E-03;  9.8529488E+01;  0.0000000E+00; -7.9255953E-04;  1.0000000E+02;  0.0000000E+00;  1.0000726E+02;  1.3307405E-03;  0.0000000E+00; -1.1804941E-05;  0.0000000E+00;
  5.9906489E-01;  9.9999998E-03;  5.9971797E-01;206; -6.9809386E-05;  0.0000000E+00; -8.4155203E-05;  9.9938135E+00;  4.0270045E-01; -6.6561341E-01;3;  1.4834911E-02;  0.0000000E+00;  9.5663875E-02;  0.0000000E+00;  0.0000000E+00;  0.0000000E+00;0;  1.3246919E-03;  9.8529114E+01;  0.0000000E+00; -2.8297113E-04;  1.0000000E+02;  0.0000000E+00;  1.0000945E+02;  1.3377424E-03;  0.0000000E+00; -1.3050510E-05;  0.0000000E+00;
  5.9906846E-01;  9.9999998E-03;  7.9950416E-01;207; -1.0104855E-04;  0.0000000E+00; -1.6004323E-04;  9.9939861E+00;  4.0260231E-01; -6.4707965E-01;3;  3.3922706E-02;  0.0000000E+00;  1.5450525E-01;  0.0000000E+00;  0.0000000E+00;  0.0000000E+00;0;  1.2908366E-03;  9.8578697E+01;  0.0000000E+00;  4.2976579E-03;  1.0000000E+02;  0.0000000E+00;  1.0001225E+02;  1.3099402E-03;  0.0000000E+00; -1.9103587E-05;  0.0000000E+00;
  5.9959692E-01;  9.9999998E-03;  9.9936855E-01;208;  5.6033208E-05;  0.0000000E+00; -2.1174942E-04;  9.9943590E+00;  4.0236270E-01; -6.0693377E-01;3;  6.2966913E-02;  0.0000000E+00;  2.0775983E-01;  0.0000000E+00;  0.0000000E+00;  0.0000000E+00;0;  1.2131812E-03;  9.8696373E+01;  0.0000000E+00;  1.3376018E-02;  1.0000000E+02;  0.0000000E+00;  1.0002060E+02;  1.2440232E-03;  0.0000000E+00; -3.0842013E-05;  0.0000000E+00;
  7.9937160E-01;  9.9999998E-03; -1.9729771E-10;214;  8.6602813E-05;  0.0000000E+00;  1.9876292E-09;  9.9911737E+00;  4.0460074E-01; -9.4963431E-01;3;  1.1560910E-04;  0.0000000E+00;  2.5605242E-09;  0.0000000E+00;  0.0000000E+00;  0.0000000E+00;0;  2.4994267E-03;  9.7575371E+01;  0.0000000E+00;  6.3044803E-18;  1.0000000E+02;  0.0000000E+00;  9.9989334E+01;  2.4959315E-03;  0.0000000E+00;  3.4952670E-06;  0.0000000E+00;
  7.9927963E-01;  9.9999998E-03;  1.9996475E-01;215;  5.2074214E-05;  0.0000000E+00; -9.7753291E-06;  9.9912081E+00;  4.0461585E-01; -9.4591480E-01;3;  3.2472096E-03;  0.0000000E+00;  1.7874045E-02;  0.0000000E+00;  0.0000000E+00;  0.0000000E+00;0;  2.4912360E-03;  9.7566673E+01;  0.0000000E+00; -3.7421702E-04;  1.0000000E+02;  0.0000000E+00;  9.9989700E+01;  2.4888031E-03;  0.0000000E+00;  2.4328501E-06;  0.0000000E+00;
  7.9910243E-01;  9.9999998E-03;  3.9992464E-01;216; -4.5780416E-05;  0.0000000E+00; -2.3362045E-05;  9.9912996E+00;  4.0465289E-01; -9.3610293E-01;3;  1.4576594E-02;  0.0000000E+00;  4.5091655E-02;  0.0000000E+00;  0.0000000E+00;  0.0000000E+00;0;  2.4685883E-03;  9.7549255E+01;  0.0000000E+00; -6.4668490E-04;  1.0000000E+02;  0.0000000E+00;  9.9994034E+01;  2.4688849E-03;  0.0000000E+00; -2.9668627E-07;  0.0000000E+00;
  7.9893702E-01;  9.9999998E-03;  5.9980583E-01;217; -1.7680766E-04;  0.0000000E+00; -7.3376701E-05;  9.9914961E+00;  4.0463787E-01; -9.1494012E-01;3;  4.3016843E-02;  0.0000000E+00;  9.1094285E-02;  0.0000000E+00;  0.0000000E+00;  0.0000000E+00;0;  2.4163302E-03;  9.7552040E+01;  0.0000000E+00;  3.7930319E-03;  1.0000000E+02;  0.0000000E+00;  9.9998558E+01;  2.4253367E-03;  0.0000000E+00; -9.0064932E-06;  0.0000000E+00;
  7.9905510E-01;  9.9999998E-03;  7.9973978E-01;218; -2.0313538E-04;  0.0000000E+00; -9.3563132E-05;  9.9918833E+00;  4.0448827E-01; -8.7331986E-01;3;  1.2756461E-01;  0.0000000E+00;  1.3582873E-01;  0.0000000E+00;  0.0000000E+00;  0.0000000E+00;0;  2.3105831E-03;  9.7619370E+01;  0.0000000E+00;  2.1020440E-02;  1.0000000E+02;  0.0000000E+00;  1.0000956E+02;  2.3295032E-03;  0.0000000E+00; -1.8920007E-05;  0.0000000E+00;
  8.0219269E-01;  9.9999998E-03;  1.0000504E+00;219;  9.1557176E-04;  0.0000000E+00;  4.8473932E-05;  9.9912128E+00;  4.0450898E-01; -9.4540143E-01;3;  2.3854712E-01;  0.0000000E+00;  1.1542539E-01;  0.0000000E+00;  0.0000000E+00;  0.0000000E+00;0;  2.5420070E-03;  9.7609230E+01;  0.0000000E+00;  3.7321981E-02;  1.0000000E+02;  0.0000000E+00;  9.9998924E+01;  2.5267936E-03;  0.0000000E+00;  1.5213362E-05;  0.0000000E+00;
  1.0013469E+00;  9.9999998E-03;  3.3626377E-09;225;  8.1297083E-05;  0.0000000E+00;  7.6191969E-10;  9.9891415E+00;  4.0697154E-01; -1.1682773E+00;3; -1.3842130E-04;  0.0000000E+00;  3.2780161E-08;  0.0000000E+00;  0.0000000E+00;  0.0000000E+00;0;  4.0229307E-03;  9.6418427E+01;  0.0000000E+00;  2.6319133E-15;  1.0000000E+02;  0.0000000E+00;  9.9974205E+01;  3.9951578E-03;  0.0000000E+00;  2.7773100E-05;  0.0000000E+00;
  1.0007099E+00;  9.9999998E-03;  2.0012748E-01;226;  2.7814485E-05;  0.0000000E+00;  2.3714156E-05;  9.9892054E+00;  4.0699846E-01; -1.1613517E+00;3;  3.6075520E-03;  0.0000000E+00;  1.2764191E-02;  0.0000000E+00;  0.0000000E+00;  0.0000000E+00;0;  3.9970228E-03;  9.6407272E+01;  0.0000000E+00; -3.9992519E-04;  1.0000000E+02;  0.0000000E+00;  9.9973129E+01;  3.9701965E-03;  0.0000000E+00;  2.6826068E-05;  0.0000000E+00;
  1.0010992E+00;  9.9999998E-03;  4.0019390E-01;227; -9.3286610E-05;  0.0000000E+00;  2.3341203E-05;  9.9893646E+00;  4.0709224E-01; -1.1442294E+00;3;  1.7514825E-02;  0.0000000E+00;  2.9813524E-02;  0.0000000E+00;  0.0000000E+00;  0.0000000E+00;0;  3.9412635E-03;  9.6368355E+01;  0.0000000E+00;  6.0791179E-05;  1.0000000E+02;  0.0000000E+00;  9.9971535E+01;  3.9172811E-03;  0.0000000E+00;  2.3982411E-05;  0.0000000E+00;
  1.0008358E+00;  9.9999998E-03;  6.0011953E-01;228; -2.4032283E-04;  0.0000000E+00;  3.0385115E-06;  9.9896736E+00;  4.0712833E-01; -1.1110114E+00;3;  6.2880635E-02;  0.0000000E+00;  5.0551835E-02;  0.0000000E+00;  0.0000000E+00;  0.0000000E+00;0;  3.8280140E-03;  9.6351448E+01;  0.0000000E+00;  1.1474754E-02;  1.0000000E+02;  0.0000000E+00;  9.9974915E+01;  3.8127734E-03;  0.0000000E+00;  1.5240725E-05;  0.0000000E+00;
  1.0032212E+00;  9.9999998E-03;  8.0077302E-01;229;  8.7190943E-04;  0.0000000E+00;  1.6089085E-04;  9.9892416E+00;  4.0731841E-01; -1.1575032E+00;3;  1.5966651E-01;  0.0000000E+00; -7.5168110E-02;  0.0000000E+00;  0.0000000E+00;  0.0000000E+00;0;  3.9927410E-03;  9.6293053E+01;  0.0000000E+00;  3.6049228E-02;  1.0000000E+02;  0.0000000E+00;  9.9931686E+01;  3.9281375E-03;  0.0000000E+00;  6.4603671E-05;  0.0000000E+00;
  1.0126226E+00;  9.9999998E-03;  1.0007036E+00;230;  2.5975783E-03;  0.0000000E+00;  1.0805989E-04;  9.9875441E+00;  4.0871575E-01; -1.3401355E+00;3;  4.0286150E-02;  0.0000000E+00; -4.0048365E-02;  0.0000000E+00;  0.0000000E+00;  0.0000000E+00;0;  4.6502021E-03;  9.5601616E+01;  0.0000000E+00;  6.3168202E-03;  1.0000000E+02;  0.0000000E+00;  9.9938835E+01;  4.6074325E-03;  0.0000000E+00;  4.2769519E-05;  0.0000000E+00;
  1.2111999E+00;  9.9999998E-03; -5.2748148E-09;236;  4.8909534E-04;  0.0000000E+00;  2.2434319E-08;  9.9881945E+00;  4.0977728E-01; -1.2700095E+00;3; -2.2462148E-03;  0.0000000E+00;  3.9738168E-07;  0.0000000E+00;  0.0000000E+00;  0.0000000E+00;0;  5.6801457E-03;  9.5099503E+01;  0.0000000E+00; -2.0496593E-16;  1.0000000E+02;  0.0000000E+00;  9.9956718E+01;  5.6254468E-03;  0.0000000E+00;  5.4698805E-05;  0.0000000E+00;
  1.2089871E+00;  9.9999998E-03;  2.0028564E-01;237;  4.5599627E-05;  0.0000000E+00;  4.0042640E-05;  9.9882545E+00;  4.0985307E-01; -1.2635988E+00;3;  3.5671282E-03;  0.0000000E+00;  8.2432888E-03;  0.0000000E+00;  0.0000000E+00;  0.0000000E+00;0;  5.6375861E-03;  9.5069031E+01;  0.0000000E+00; -1.3147289E-03;  1.0000000E+02;  0.0000000E+00;  9.9953743E+01;  5.5840490E-03;  0.0000000E+00;  5.3536929E-05;  0.0000000E+00;
  1.2050819E+00;  9.9999998E-03;  4.0023315E-01;238; -7.6048593E-05;  0.0000000E+00;  1.0439836E-05;  9.9884424E+00;  4.0995368E-01; -1.2433387E+00;3;  1.7385891E-02;  0.0000000E+00;  1.5448514E-02;  0.0000000E+00;  0.0000000E+00;  0.0000000E+00;0;  5.5240951E-03;  9.5028358E+01;  0.0000000E+00; -3.1790548E-04;  1.0000000E+02;  0.0000000E+00;  9.9948441E+01;  5.4807058E-03;  0.0000000E+00;  4.3389529E-05;  0.0000000E+00;
  1.2034322E+00;  9.9999998E-03;  6.0004151E-01;239; -6.7596746E-05;  0.0000000E+00;  4.6999103E-05;  9.9887199E+00;  4.0994865E-01; -1.2135229E+00;3;  7.4490286E-02;  0.0000000E+00;  1.6073473E-02;  0.0000000E+00;  0.0000000E+00;  0.0000000E+00;0;  5.3837309E-03;  9.5025482E+01;  0.0000000E+00;  2.0660250E-02;  1.0000000E+02;  0.0000000E+00;  9.9958946E+01;  5.3382213E-03;  0.0000000E+00;  4.5509420E-05;  0.0000000E+00;
  1.2115995E+00;  9.9999998E-03;  8.0060518E-01;240;  2.3875406E-03;  0.0000000E+00;  1.7210020E-04;  9.9877481E+00;  4.1074440E-01; -1.3180369E+00;3;  9.0898365E-02;  0.0000000E+00; -1.0018710E-01;  0.0000000E+00;  0.0000000E+00;  0.0000000E+00;0;  5.8547752E-03;  9.4692444E+01;  0.0000000E+00;  1.8150045E-02;  1.0000000E+02;  0.0000000E+00;  9.9909210E+01;  5.7477336E-03;  0.0000000E+00;  1.0704133E-04;  0.0000000E+00;
  1.2172217E+00;  9.9999998E-03;  1.0005995E+00;241;  3.6151342E-03;  0.0000000E+00;  1.2500922E-04;  9.9868002E+00;  4.1179958E-01; -1.4200512E+00;3;  3.7603723E-03;  0.0000000E+00; -8.8644296E-02;  0.0000000E+00;  0.0000000E+00;  0.0000000E+00;0;  6.3587227E-03;  9.4177238E+01;  0.0000000E+00; -1.2700233E-03;  1.0000000E+02;  0.0000000E+00;  9.9921684E+01;  6.2870076E-03;  0.0000000E+00;  7.1715112E-05;  0.0000000E+00;
  1.4189723E+00;  9.9999998E-03; -2.5568105E-09;247;  6.1955419E-03;  0.0000000E+00;  8.1765767E-09;  9.9883909E+00;  4.1310465E-01; -1.2486837E+00;3; -1.2759349E-03;  0.0000000E+00;  4.3622072E-07;  0.0000000E+00;  0.0000000E+00;  0.0000000E+00;0;  7.1096485E-03;  9.3584969E+01;  0.0000000E+00;  4.6509453E-15;  1.0000000E+02;  0.0000000E+00;  9.9948242E+01;  7.0351535E-03;  0.0000000E+00;  7.4494914E-05;  0.0000000E+00;
  1.4187492E+00;  9.9999998E-03;  2.0045638E-01;248;  4.6324376E-03;  0.0000000E+00;  1.1673501E-04;  9.9883080E+00;  4.1322705E-01; -1.2575955E+00;3; -1.2819922E-04;  0.0000000E+00;  5.1994044E-03;  0.0000000E+00;  0.0000000E+00;  0.0000000E+00;0;  7.1579530E-03;  9.3537697E+01;  0.0000000E+00; -2.4791851E-03;  1.0000000E+02;  0.0000000E+00;  9.9934906E+01;  7.0773088E-03;  0.0000000E+00;  8.0644168E-05;  0.0000000E+00;
  1.4134356E+00;  9.9999998E-03;  4.0024656E-01;249;  5.9235742E-04;  0.0000000E+00; -1.6056381E-04;  9.9884205E+00;  4.1341445E-01; -1.2454871E+00;3;  8.9126425E-03;  0.0000000E+00;  7.0952978E-03;  0.0000000E+00;  0.0000000E+00;  0.0000000E+00;0;  7.0084138E-03;  9.3471138E+01;  0.0000000E+00; -5.3965771E-03;  1.0000000E+02;  0.0000000E+00;  9.9926193E+01;  6.9949152E-03;  0.0000000E+00;  1.3498620E-05;  0.0000000E+00;
  1.4116733E+00;  9.9999998E-03;  6.0003185E-01;250;  1.4960405E-03;  0.0000000E+00;  6.5332322E-05;  9.9883823E+00;  4.1344950E-01; -1.2495929E+00;3;  4.0250354E-02;  0.0000000E+00;  2.5261128E-03;  0.0000000E+00;  0.0000000E+00;  0.0000000E+00;0;  7.0566661E-03;  9.3442841E+01;  0.0000000E+00;  6.9455449E-03;  1.0000000E+02;  0.0000000E+00;  9.9935280E+01;  6.9840318E-03;  0.0000000E+00;  7.2634299E-05;  0.0000000E+00;
  1.4174018E+00;  9.9999998E-03;  8.0031461E-01;251;  3.8021419E-03;  0.0000000E+00;  8.9989167E-05;  9.9878473E+00;  4.1389015E-01; -1.3071554E+00;3;  5.4266427E-02;  0.0000000E+00; -5.4642938E-02;  0.0000000E+00;  0.0000000E+00;  0.0000000E+00;0;  7.4034166E-03;  9.3256073E+01;  0.0000000E+00;  8.3370535E-03;  1.0000000E+02;  0.0000000E+00;  9.9912621E+01;  7.3231021E-03;  0.0000000E+00;  8.0314698E-05;  0.0000000E+00;
  1.4218539E+00;  9.9999998E-03;  1.0004752E+00;252;  4.6396884E-03;  0.0000000E+00;  1.1457438E-04;  9.9873943E+00;  4.1447386E-01; -1.3558717E+00;3;  8.0704996E-03;  0.0000000E+00; -7.5998023E-02;  0.0000000E+00;  0.0000000E+00;  0.0000000E+00;0;  7.7085183E-03;  9.2983475E+01;  0.0000000E+00; -2.3433056E-03;  1.0000000E+02;  0.0000000E+00;  9.9915802E+01;  7.6210666E-03;  0.0000000E+00;  8.7451459E-05;  0.0000000E+00;
  1.6197773E+00;  9.9999998E-03;  8.7675373E-10;258;  6.8163662E-03;  0.0000000E+00;  3.6696104E-08;  9.9890089E+00;  4.1748026E-01; -1.1817281E+00;3;  1.1314792E-03;  0.0000000E+00;  4.3817414E-07;  0.0000000E+00;  0.0000000E+00;  0.0000000E+00;0;  8.3606541E-03;  9.1664207E+01;  0.0000000E+00; -9.1637793E-15;  1.0000000E+02;  0.0000000E+00;  9.9929169E+01;  8.2804812E-03;  0.0000000E+00;  8.0172525E-05;  0.0000000E+00;
  1.6205658E+00;  9.9999998E-03;  2.0052098E-01;259;  6.9503095E-03;  0.0000000E+00;  2.3343031E-04;  9.9888735E+00;  4.1755164E-01; -1.1962727E+00;3;  1.6997246E-03;  0.0000000E+00;  3.2028800E-03;  0.0000000E+00;  0.0000000E+00;  0.0000000E+00;0;  8.4719611E-03;  9.1647469E+01;  0.0000000E+00; -1.4306882E-03;  1.0000000E+02;  0.0000000E+00;  9.9908691E+01;  8.3681587E-03;  0.0000000E+00;  1.0380286E-04;  0.0000000E+00;
  1.6220300E+00;  9.9999998E-03;  4.0025881E-01;260;  6.8863994E-03;  0.0000000E+00;  9.4623305E-05;  9.9886541E+00;  4.1765410E-01; -1.2198508E+00;3;  3.3919304E-03;  0.0000000E+00;  3.3988575E-03;  0.0000000E+00;  0.0000000E+00;  0.0000000E+00;0;  8.6653475E-03;  9.1614960E+01;  0.0000000E+00; -6.7151743E-03;  1.0000000E+02;  0.0000000E+00;  9.9884644E+01;  8.5700843E-03;  0.0000000E+00;  9.5263509E-05;  0.0000000E+00;
  1.6208533E+00;  9.9999998E-03;  6.0003769E-01;261;  4.0939371E-03;  0.0000000E+00;  1.4320503E-05;  9.9886208E+00;  4.1758522E-01; -1.2234436E+00;3;  9.5690228E-03;  0.0000000E+00; -7.6044365E-05;  0.0000000E+00;  0.0000000E+00;  0.0000000E+00;0;  8.6395703E-03;  9.1645912E+01;  0.0000000E+00; -5.7064081E-03;  1.0000000E+02;  0.0000000E+00;  9.9887589E+01;  8.5796788E-03;  0.0000000E+00;  5.9891525E-05;  0.0000000E+00;
  1.6238680E+00;  9.9999998E-03;  8.0017072E-01;262;  4.8720278E-03;  0.0000000E+00;  5.1421437E-05;  9.9885445E+00;  4.1747478E-01; -1.2316357E+00;3;  2.5319353E-02;  0.0000000E+00; -1.6471887E-02;  0.0000000E+00;  0.0000000E+00;  0.0000000E+00;0;  8.7647894E-03;  9.1684349E+01;  0.0000000E+00;  1.6463257E-03;  1.0000000E+02;  0.0000000E+00;  9.9898262E+01;  8.6952485E-03;  0.0000000E+00;  6.9541362E-05;  0.0000000E+00;
  1.6278353E+00;  9.9999998E-03;  1.0004619E+00;263;  5.8703064E-03;  0.0000000E+00;  8.2151251E-05;  9.9883709E+00;  4.1744128E-01; -1.2502695E+00;3;  1.3599443E-02;  0.0000000E+00; -3.6935158E-02;  0.0000000E+00;  0.0000000E+00;  0.0000000E+00;0;  8.9342399E-03;  9.1697914E+01;  0.0000000E+00; -2.4165951E-03;  1.0000000E+02;  0.0000000E+00;  9.9900909E+01;  8.8606300E-03;  0.0000000E+00;  7.3609903E-05;  0.0000000E+00;
  1.8207679E+00;  9.9999998E-03;  1.9519346E-09;269;  6.7332671E-03;  0.0000000E+00;  4.0177980E-08;  9.9892635E+00;  4.2327708E-01; -1.1533388E+00;3;  7.9348893E-04;  0.0000000E+00;  4.3621489E-07;  0.0000000E+00;  0.0000000E+00;  0.0000000E+00;0;  1.0046220E-02;  8.9224899E+01;  0.0000000E+00; -2.3882229E-14;  1.0000000E+02;  0.0000000E+00;  9.9871162E+01;  9.9743288E-03;  0.0000000E+00;  7.1891656E-05;  0.0000000E+00;
  1.8215989E+00;  9.9999998E-03;  2.0002866E-01;270;  6.9475984E-03;  0.0000000E+00;  2.5976234E-04;  9.9891729E+00;  4.2321312E-01; -1.1630648E+00;3;  1.0209694E-03;  0.0000000E+00;  1.7873379E-03;  0.0000000E+00;  0.0000000E+00;  0.0000000E+00;0;  1.0139448E-02;  8.9265228E+01;  0.0000000E+00; -2.1238012E-04;  1.0000000E+02;  0.0000000E+00;  9.9856308E+01;  1.0031906E-02;  0.0000000E+00;  1.0754197E-04;  0.0000000E+00;
  1.8244691E+00;  9.9999998E-03;  3.9979523E-01;271;  7.1908776E-03;  0.0000000E+00;  1.6486472E-04;  9.9890251E+00;  4.2298391E-01; -1.1789219E+00;3;  1.2868092E-03;  0.0000000E+00;  3.2848839E-03;  0.0000000E+00;  0.0000000E+00;  0.0000000E+00;0;  1.0308987E-02;  8.9377754E+01;  0.0000000E+00; -1.1996084E-03;  1.0000000E+02;  0.0000000E+00;  9.9833824E+01;  1.0172811E-02;  0.0000000E+00;  1.3617626E-04;  0.0000000E+00;
  1.8292543E+00;  9.9999998E-03;  5.9979618E-01;272;  7.3549217E-03;  0.0000000E+00;  2.9216413E-05;  9.9890003E+00;  4.2256126E-01; -1.1815100E+00;3;  3.9108987E-03;  0.0000000E+00;  4.4661444E-03;  0.0000000E+00;  0.0000000E+00;  0.0000000E+00;0;  1.0423830E-02;  8.9552490E+01;  0.0000000E+00; -3.3848973E-03;  1.0000000E+02;  0.0000000E+00;  9.9835808E+01;  1.0322259E-02;  0.0000000E+00;  1.0157139E-04;  0.0000000E+00;
  1.8333275E+00;  9.9999998E-03;  8.0015934E-01;273;  7.2643706E-03;  0.0000000E+00;  3.3386586E-05;  9.9890156E+00;  4.2194602E-01; -1.1798772E+00;3;  1.0020088E-02;  0.0000000E+00;  2.7625647E-03;  0.0000000E+00;  0.0000000E+00;  0.0000000E+00;0;  1.0453157E-02;  8.9803810E+01;  0.0000000E+00; -5.2503594E-03;  1.0000000E+02;  0.0000000E+00;  9.9849831E+01;  1.0365012E-02;  0.0000000E+00;  8.8145025E-05;  0.0000000E+00;
  1.8361284E+00;  9.9999998E-03;  1.0006596E+00;274;  7.4948426E-03;  0.0000000E+00;  7.3854579E-05;  9.9891348E+00;  4.2119673E-01; -1.1670506E+00;3;  1.1319495E-02;  0.0000000E+00; -6.8418002E-03;  0.0000000E+00;  0.0000000E+00;  0.0000000E+00;0;  1.0382063E-02;  9.0121078E+01;  0.0000000E+00; -4.0897024E-03;  1.0000000E+02;  0.0000000E+00;  9.9856758E+01;  1.0294250E-02;  0.0000000E+00;  8.7812208E-05;  0.0000000E+00;
  2.0250890E+00;  9.9999998E-03;  2.2094748E-09;280;  6.7063067E-03;  0.0000000E+00; -4.2112736E-09;  9.9889164E+00;  4.3033901E-01; -1.1882219E+00;3;  4.6876367E-04;  0.0000000E+00;  8.0216068E-08;  0.0000000E+00;  0.0000000E+00;  0.0000000E+00;0;  1.2708938E-02;  8.6444817E+01;  0.0000000E+00; -5.7017969E-14;  1.0000000E+02;  0.0000000E+00;  9.9721092E+01;  1.2637034E-02;  0.0000000E+00;  7.1903974E-05;  0.0000000E+00;
  2.0261784E+00;  9.9999998E-03;  1.9933650E-01;281;  6.8695941E-03;  0.0000000E+00;  2.6331778E-05;  9.9889259E+00;  4.3008551E-01; -1.1871810E+00;3;  6.5713335E-04;  0.0000000E+00;  7.4280024E-04;  0.0000000E+00;  0.0000000E+00;  0.0000000E+00;0;  1.2711544E-02;  8.6550011E+01;  0.0000000E+00; -3.8726103E-05;  1.0000000E+02;  0.0000000E+00;  9.9716316E+01;  1.2621681E-02;  0.0000000E+00;  8.9862158E-05;  0.0000000E+00;
  2.0308912E+00;  9.9999998E-03;  3.9908284E-01;282;  7.3584653E-03;  0.0000000E+00;  1.6217970E-04;  9.9889412E+00;  4.2937967E-01; -1.1855032E+00;3;  6.6706206E-04;  0.0000000E+00;  1.6763246E-03;  0.0000000E+00;  0.0000000E+00;  0.0000000E+00;0;  1.2773998E-02;  8.6833237E+01;  0.0000000E+00; -7.8493431E-05;  1.0000000E+02;  0.0000000E+00;  9.9717598E+01;  1.2593457E-02;  0.0000000E+00;  1.8054155E-04;  0.0000000E+00;
  2.0436828E+00;  9.9999998E-03;  5.9960699E-01;283;  8.2908310E-03;  0.0000000E+00;  2.1372851E-05;  9.9891071E+00;  4.2848825E-01; -1.1674546E+00;3;  1.1145687E-03;  0.0000000E+00;  3.1115827E-03;  0.0000000E+00;  0.0000000E+00;  0.0000000E+00;0;  1.2759273E-02;  8.7200821E+01;  0.0000000E+00; -2.6034017E-03;  1.0000000E+02;  0.0000000E+00;  9.9715874E+01;  1.2588788E-02;  0.0000000E+00;  1.7048520E-04;  0.0000000E+00;
  2.0496409E+00;  9.9999998E-03;  8.0042666E-01;284;  9.5882835E-03;  0.0000000E+00;  2.6491500E-05;  9.9893494E+00;  4.2724520E-01; -1.1414133E+00;3;  2.9575143E-03;  0.0000000E+00;  4.2050988E-03;  0.0000000E+00;  0.0000000E+00;  0.0000000E+00;0;  1.2548204E-02;  8.7700775E+01;  0.0000000E+00; -1.1369589E-02;  1.0000000E+02;  0.0000000E+00;  9.9729347E+01;  1.2403196E-02;  0.0000000E+00;  1.4500777E-04;  0.0000000E+00;
  2.0489986E+00;  9.9999998E-03;  1.0012641E+00;285;  1.0113928E-02;  0.0000000E+00;  8.5884014E-05;  9.9896841E+00;  4.2580372E-01; -1.1055256E+00;3;  4.5266580E-03;  0.0000000E+00;  2.4308031E-03;  0.0000000E+00;  0.0000000E+00;  0.0000000E+00;0;  1.2187308E-02;  8.8290070E+01;  0.0000000E+00; -1.0870006E-02;  1.0000000E+02;  0.0000000E+00;  9.9746613E+01;  1.2065849E-02;  0.0000000E+00;  1.2145854E-04;  0.0000000E+00;
  2.2455928E+00;  9.9999998E-03; -3.9996664E-09;291;  6.8241446E-03;  0.0000000E+00; -1.5343455E-08;  9.9881716E+00;  4.3807504E-01; -1.2619101E+00;3;  2.2425603E-04;  0.0000000E+00;  3.7174323E-07;  0.0000000E+00;  0.0000000E+00;  0.0000000E+00;0;  1.6725849E-02;  8.3677330E+01;  0.0000000E+00; -9.5641499E-14;  1.0000000E+02;  0.0000000E+00;  9.9397804E+01;  1.6576655E-02;  0.0000000E+00;  1.4919399E-04;  0.0000000E+00;
  2.2467208E+00;  9.9999998E-03;  1.9904517E-01;292;  6.9831125E-03;  0.0000000E+00; -1.8105631E-04;  9.9882822E+00;  4.3762931E-01; -1.2500367E+00;3;  1.3958669E-04;  0.0000000E+00;  7.7183016E-05;  0.0000000E+00;  0.0000000E+00;  0.0000000E+00;0;  1.6591001E-02;  8.3849129E+01;  0.0000000E+00; -2.2106359E-04;  1.0000000E+02;  0.0000000E+00;  9.9398804E+01;  1.6434388E-02;  0.0000000E+00;  1.5661318E-04;  0.0000000E+00;
  2.2509768E+00;  9.9999998E-03;  3.9846623E-01;293;  8.0020046E-03;  0.0000000E+00; -2.2319455E-04;  9.9885836E+00;  4.3631071E-01; -1.2177552E+00;3;  4.7818435E-04;  0.0000000E+00;  4.3715324E-04;  0.0000000E+00;  0.0000000E+00;  0.0000000E+00;0;  1.6226759E-02;  8.4322235E+01;  0.0000000E+00; -7.8873942E-04;  1.0000000E+02;  0.0000000E+00;  9.9447830E+01;  1.6051274E-02;  0.0000000E+00;  1.7548545E-04;  0.0000000E+00;
  2.2657549E+00;  9.9999998E-03;  5.9972322E-01;294;  1.2157513E-02;  0.0000000E+00; -6.0381328E-05;  9.9890451E+00;  4.3456393E-01; -1.1678951E+00;3; -4.6574594E-03;  0.0000000E+00;  7.4985332E-04;  0.0000000E+00;  0.0000000E+00;  0.0000000E+00;0;  1.5819930E-02;  8.4990623E+01;  0.0000000E+00;  5.4426928E-04;  1.0000000E+02;  0.0000000E+00;  9.9465523E+01;  1.5560521E-02;  0.0000000E+00;  2.5940948E-04;  0.0000000E+00;
  2.2715096E+00;  9.9999998E-03;  8.0123580E-01;295;  1.5075506E-02;  0.0000000E+00;  3.4609959E-05;  9.9896536E+00;  4.3264872E-01; -1.1027913E+00;3; -3.0780514E-03;  0.0000000E+00;  1.1080129E-03;  0.0000000E+00;  0.0000000E+00;  0.0000000E+00;0;  1.5019748E-02;  8.5742851E+01;  0.0000000E+00; -2.3952771E-03;  1.0000000E+02;  0.0000000E+00;  9.9482010E+01;  1.4778892E-02;  0.0000000E+00;  2.4085678E-04;  0.0000000E+00;
  2.2719891E+00;  9.9999998E-03;  1.0026141E+00;296;  1.7049534E-02;  0.0000000E+00;  1.8344115E-04;  9.9902229E+00;  4.3085361E-01; -1.0421003E+00;3;  9.1301231E-04;  0.0000000E+00;  9.1872975E-04;  0.0000000E+00;  0.0000000E+00;  0.0000000E+00;0;  1.4199695E-02;  8.6448494E+01;  0.0000000E+00; -1.2387088E-02;  1.0000000E+02;  0.0000000E+00;  9.9504234E+01;  1.3960233E-02;  0.0000000E+00;  2.3946160E-04;  0.0000000E+00;
  2.4921474E+00;  9.9999998E-03; -1.2349004E-08;302;  1.0959072E-02;  0.0000000E+00; -1.3741008E-08;  9.9876022E+00;  4.4509786E-01; -1.3059366E+00;3; -5.9338538E-03;  0.0000000E+00;  2.4665496E-07;  0.0000000E+00;  0.0000000E+00;  0.0000000E+00;0;  2.1831835E-02;  8.1526260E+01;  0.0000000E+00; -1.7644908E-13;  1.0000000E+02;  0.0000000E+00;  9.8812508E+01;  2.1372322E-02;  0.0000000E+00;  4.5951293E-04;  0.0000000E+00;
  2.4901235E+00;  9.9999998E-03;  1.9911377E-01;303;  1.1368198E-02;  0.0000000E+00; -3.3493989E-04;  9.9877939E+00;  4.4453469E-01; -1.2859151E+00;3; -5.2628331E-03;  0.0000000E+00; -4.8192509E-05;  0.0000000E+00;  0.0000000E+00;  0.0000000E+00;0;  2.1458533E-02;  8.1725807E+01;  0.0000000E+00;  5.2621803E-05;  1.0000000E+02;  0.0000000E+00;  9.8824738E+01;  2.1005219E-02;  0.0000000E+00;  4.5331396E-04;  0.0000000E+00;
  2.4863265E+00;  9.9999998E-03;  3.9876547E-01;304;  1.3580425E-02;  0.0000000E+00; -4.5341023E-04;  9.9883442E+00;  4.4287774E-01; -1.2283028E+00;3; -3.1629559E-03;  0.0000000E+00;  3.0941155E-05;  0.0000000E+00;  0.0000000E+00;  0.0000000E+00;0;  2.0424202E-02;  8.2276199E+01;  0.0000000E+00;  9.2680959E-05;  1.0000000E+02;  0.0000000E+00;  9.8916000E+01;  2.0010429E-02;  0.0000000E+00;  4.1377379E-04;  0.0000000E+00;
  2.4794860E+00;  9.9999998E-03;  6.0070091E-01;305;  1.5960814E-02;  0.0000000E+00; -1.7141680E-04;  9.9890747E+00;  4.4068643E-01; -1.1519343E+00;3; -2.5742012E-04;  0.0000000E+00;  1.7628502E-04;  0.0000000E+00;  0.0000000E+00;  0.0000000E+00;0;  1.9033385E-02;  8.3047256E+01;  0.0000000E+00;  1.1858343E-04;  1.0000000E+02;  0.0000000E+00;  9.8985947E+01;  1.8612957E-02;  0.0000000E+00;  4.2042966E-04;  0.0000000E+00;
  2.4750137E+00;  9.9999998E-03;  8.0299848E-01;306;  1.7268527E-02;  0.0000000E+00;  1.0132405E-04;  9.9898539E+00;  4.3852240E-01; -1.0700784E+00;3;  6.0129102E-04;  0.0000000E+00; -3.5412842E-05;  0.0000000E+00;  0.0000000E+00;  0.0000000E+00;0;  1.7610218E-02;  8.3848152E+01;  0.0000000E+00;  2.1978427E-04;  1.0000000E+02;  0.0000000E+00;  9.9024734E+01;  1.7213222E-02;  0.0000000E+00;  3.9699645E-04;  0.0000000E+00;
  2.4724212E+00;  9.9999998E-03;  1.0050340E+00;307;  1.7141446E-02;  0.0000000E+00;  3.4893665E-04;  9.9905367E+00;  4.3669745E-01; -9.9828273E-01;3;  5.6972174E-04;  0.0000000E+00; -1.0848416E-04;  0.0000000E+00;  0.0000000E+00;  0.0000000E+00;0;  1.6389295E-02;  8.4538254E+01;  0.0000000E+00;  9.1972144E-04;  1.0000000E+02;  0.0000000E+00;  9.9056297E+01;  1.6031483E-02;  0.0000000E+00;  3.5781180E-04;  0.0000000E+00;
  2.7291727E+00;  9.9999998E-03; -6.9330830E-09;313;  2.4579374E-02;  0.0000000E+00; -4.1899715E-09;  9.9879484E+00;  4.5075163E-01; -1.2376977E+00;3; -7.2497465E-03;  0.0000000E+00; -3.7721746E-09;  0.0000000E+00;  0.0000000E+00;  0.0000000E+00;0;  2.5730491E-02;  8.0182281E+01;  0.0000000E+00; -2.3129483E-13;  1.0000000E+02;  0.0000000E+00;  9.7973625E+01;  2.4612958E-02;  0.0000000E+00;  1.1175324E-03;  0.0000000E+00;
  2.7246389E+00;  9.9999998E-03;  1.9944410E-01;314;  2.3663517E-02;  0.0000000E+00; -2.5283147E-04;  9.9880838E+00;  4.5034873E-01; -1.2245795E+00;3; -7.3108627E-03;  0.0000000E+00;  1.0686957E-05;  0.0000000E+00;  0.0000000E+00;  0.0000000E+00;0;  2.5352696E-02;  8.0302422E+01;  0.0000000E+00;  7.8258206E-05;  1.0000000E+02;  0.0000000E+00;  9.8004150E+01;  2.4251020E-02;  0.0000000E+00;  1.1016764E-03;  0.0000000E+00;
  2.7123172E+00;  9.9999998E-03;  4.0022370E-01;315;  2.2057066E-02;  0.0000000E+00; -3.9618032E-04;  9.9885168E+00;  4.4916150E-01; -1.1821120E+00;3; -4.6768892E-03;  0.0000000E+00;  4.6685003E-05;  0.0000000E+00;  0.0000000E+00;  0.0000000E+00;0;  2.4200507E-02;  8.0644218E+01;  0.0000000E+00;  3.2667010E-04;  1.0000000E+02;  0.0000000E+00;  9.8112312E+01;  2.3208715E-02;  0.0000000E+00;  9.9179067E-04;  0.0000000E+00;
  2.6942236E+00;  9.9999998E-03;  6.0319299E-01;316;  1.7841727E-02;  0.0000000E+00; -8.9076973E-05;  9.9891100E+00;  4.4767529E-01; -1.1237044E+00;3; -2.2444364E-03;  0.0000000E+00;  7.3012206E-06;  0.0000000E+00;  0.0000000E+00;  0.0000000E+00;0;  2.2597009E-02;  8.1134071E+01;  0.0000000E+00;  1.9688180E-03;  1.0000000E+02;  0.0000000E+00;  9.8183357E+01;  2.1747865E-02;  0.0000000E+00;  8.4914448E-04;  0.0000000E+00;
  2.6822259E+00;  9.9999998E-03;  8.0628937E-01;317;  1.7217571E-02;  0.0000000E+00;  3.6400263E-04;  9.9897928E+00;  4.4615501E-01; -1.0549091E+00;3;  5.5800902E-04;  0.0000000E+00; -2.6023271E-04;  0.0000000E+00;  0.0000000E+00;  0.0000000E+00;0;  2.0977167E-02;  8.1663574E+01;  0.0000000E+00;  2.8933291E-03;  1.0000000E+02;  0.0000000E+00;  9.8226135E+01;  2.0208480E-02;  0.0000000E+00;  7.6868787E-04;  0.0000000E+00;
  2.6762366E+00;  9.9999998E-03;  1.0090659E+00;318;  1.7081153E-02;  0.0000000E+00;  7.6463987E-04;  9.9903841E+00;  4.4486600E-01; -9.9455255E-01;3;  4.0267591E-04;  0.0000000E+00; -4.0034586E-04;  0.0000000E+00;  0.0000000E+00;  0.0000000E+00;0;  1.9668320E-02;  8.2114365E+01;  0.0000000E+00;  3.4865900E-03;  1.0000000E+02;  0.0000000E+00;  9.8263260E+01;  1.8958768E-02;  0.0000000E+00;  7.0955150E-04;  0.0000000E+00;
  2.9489927E+00;  9.9999998E-03;  1.2099574E-09;324;  3.4985572E-02;  0.0000000E+00; -3.8844621E-09;  9.9885941E+00;  4.5700604E-01; -1.1289895E+00;3; -3.1553027E-03;  0.0000000E+00;  9.0278263E-08;  0.0000000E+00;  0.0000000E+00;  0.0000000E+00;0;  2.8617160E-02;  7.8854492E+01;  0.0000000E+00; -2.2691145E-13;  1.0000000E+02;  0.0000000E+00;  9.6927170E+01;  2.6496010E-02;  0.0000000E+00;  2.1211510E-03;  0.0000000E+00;
  2.9434757E+00;  9.9999998E-03;  2.0049395E-01;325;  3.3591826E-02;  0.0000000E+00; -2.3110039E-04;  9.9886522E+00;  4.5687252E-01; -1.1243695E+00;3; -2.6613332E-03;  0.0000000E+00; -2.2196569E-05;  0.0000000E+00;  0.0000000E+00;  0.0000000E+00;0;  2.8361168E-02;  7.8868294E+01;  0.0000000E+00;  3.4426357E-05;  1.0000000E+02;  0.0000000E+00;  9.6968956E+01;  2.6292643E-02;  0.0000000E+00;  2.0685254E-03;  0.0000000E+00;
  2.9307182E+00;  9.9999998E-03;  4.0341017E-01;326;  2.9753171E-02;  0.0000000E+00; -2.2273924E-04;  9.9888592E+00;  4.5661727E-01; -1.1065044E+00;3; -2.3762123E-03;  0.0000000E+00; -1.5016794E-04;  0.0000000E+00;  0.0000000E+00;  0.0000000E+00;0;  2.7594589E-02;  7.8909882E+01;  0.0000000E+00;  1.7458064E-04;  1.0000000E+02;  0.0000000E+00;  9.7027824E+01;  2.5714360E-02;  0.0000000E+00;  1.8802276E-03;  0.0000000E+00;
  2.9149334E+00;  9.9999998E-03;  6.0747772E-01;327;  2.3663104E-02;  0.0000000E+00;  3.1705989E-04;  9.9891539E+00;  4.5641446E-01; -1.0804051E+00;3; -3.0949288E-03;  0.0000000E+00;  6.7126442E-05;  0.0000000E+00;  0.0000000E+00;  0.0000000E+00;0;  2.6530528E-02;  7.8976807E+01;  0.0000000E+00;  6.1761949E-04;  1.0000000E+02;  0.0000000E+00;  9.7037201E+01;  2.4859523E-02;  0.0000000E+00;  1.6710046E-03;  0.0000000E+00;
  2.9000983E+00;  9.9999998E-03;  8.1134021E-01;328;  1.8879160E-02;  0.0000000E+00;  1.0192803E-03;  9.9894800E+00;  4.5621160E-01; -1.0507703E+00;3; -2.9756720E-03;  0.0000000E+00; -5.6489382E-04;  0.0000000E+00;  0.0000000E+00;  0.0000000E+00;0;  2.5459839E-02;  7.9049881E+01;  0.0000000E+00; -4.1229621E-04;  1.0000000E+02;  0.0000000E+00;  9.7043198E+01;  2.3883009E-02;  0.0000000E+00;  1.5768289E-03;  0.0000000E+00;
  2.8909929E+00;  9.9999998E-03;  1.0149933E+00;329;  1.7019173E-02;  0.0000000E+00;  1.6282243E-03;  9.9897528E+00;  4.5607269E-01; -1.0251890E+00;3;  3.0619881E-04;  0.0000000E+00; -9.3270896E-04;  0.0000000E+00;  0.0000000E+00;  0.0000000E+00;0;  2.4605829E-02;  7.9094818E+01;  0.0000000E+00; -2.4197670E-03;  1.0000000E+02;  0.0000000E+00;  9.7051041E+01;  2.3074228E-02;  0.0000000E+00;  1.5316018E-03;  0.0000000E+00;
  3.1605551E+00;  9.9999998E-03; -7.3418494E-09;335;  4.0307894E-02;  0.0000000E+00;  1.3215227E-08;  9.9889927E+00;  4.6536124E-01; -1.0473511E+00;3; -1.3441374E-03;  0.0000000E+00;  1.0813892E-09;  0.0000000E+00;  0.0000000E+00;  0.0000000E+00;0;  3.1796109E-02;  7.6993744E+01;  0.0000000E+00; -1.0221682E-13;  1.0000000E+02;  0.0000000E+00;  9.5743233E+01;  2.8353557E-02;  0.0000000E+00;  3.4425526E-03;  0.0000000E+00;
  3.1555190E+00;  9.9999998E-03;  2.0298852E-01;336;  3.8144920E-02;  0.0000000E+00; -8.0894395E-05;  9.9889984E+00;  4.6552667E-01; -1.0477655E+00;3; -7.5275212E-04;  0.0000000E+00; -1.0641304E-04;  0.0000000E+00;  0.0000000E+00;  0.0000000E+00;0;  3.1676885E-02;  7.6921341E+01;  0.0000000E+00; -2.2700007E-05;  1.0000000E+02;  0.0000000E+00;  9.5765945E+01;  2.8319936E-02;  0.0000000E+00;  3.3569492E-03;  0.0000000E+00;
  3.1459429E+00;  9.9999998E-03;  4.0829623E-01;337;  3.3912033E-02;  0.0000000E+00;  3.7832771E-04;  9.9889975E+00;  4.6625599E-01; -1.0495974E+00;3; -6.2740676E-04;  0.0000000E+00; -1.1502646E-03;  0.0000000E+00;  0.0000000E+00;  0.0000000E+00;0;  3.1447269E-02;  7.6714722E+01;  0.0000000E+00; -3.2732860E-04;  1.0000000E+02;  0.0000000E+00;  9.5725151E+01;  2.8271817E-02;  0.0000000E+00;  3.1754542E-03;  0.0000000E+00;
  3.1354940E+00;  9.9999998E-03;  6.1309093E-01;338;  2.9447561E-02;  0.0000000E+00;  1.4236821E-03;  9.9889460E+00;  4.6732002E-01; -1.0565141E+00;3; -3.6953465E-04;  0.0000000E+00; -8.7416702E-04;  0.0000000E+00;  0.0000000E+00;  0.0000000E+00;0;  3.1384714E-02;  7.6417656E+01;  0.0000000E+00; -2.1777765E-03;  1.0000000E+02;  0.0000000E+00;  9.5657570E+01;  2.8233597E-02;  0.0000000E+00;  3.1511160E-03;  0.0000000E+00;
  3.1284537E+00;  9.9999998E-03;  8.1773186E-01;339;  2.3952346E-02;  0.0000000E+00;  2.3676427E-03;  9.9888697E+00;  4.6854833E-01; -1.0651560E+00;3; -8.3457428E-04;  0.0000000E+00; -8.3960948E-04;  0.0000000E+00;  0.0000000E+00;  0.0000000E+00;0;  3.1457946E-02;  7.6072655E+01;  0.0000000E+00; -6.8588401E-03;  1.0000000E+02;  0.0000000E+00;  9.5588974E+01;  2.8277617E-02;  0.0000000E+00;  3.1803271E-03;  0.0000000E+00;
  3.1274021E+00;  9.9999998E-03;  1.0224499E+00;340;  2.2959022E-02;  0.0000000E+00;  3.2319801E-03;  9.9887743E+00;  4.6971941E-01; -1.0744866E+00;3; -2.4214745E-03;  0.0000000E+00; -1.0365638E-03;  0.0000000E+00;  0.0000000E+00;  0.0000000E+00;0;  3.1668335E-02;  7.5745087E+01;  0.0000000E+00; -7.7431495E-03;  1.0000000E+02;  0.0000000E+00;  9.5523911E+01;  2.8470026E-02;  0.0000000E+00;  3.1983084E-03;  0.0000000E+00;
  3.3771408E+00;  9.9999998E-03; -6.0600218E-09;346;  4.0379986E-02;  0.0000000E+00;  9.1245340E-09;  9.9889936E+00;  4.7615471E-01; -1.0143943E+00;3; -5.2393612E-04;  0.0000000E+00; -8.9181412E-08;  0.0000000E+00;  0.0000000E+00;  0.0000000E+00;0;  3.6133077E-02;  7.4505310E+01;  0.0000000E+00;  3.7515680E-13;  1.0000000E+02;  0.0000000E+00;  9.4506927E+01;  3.1083677E-02;  0.0000000E+00;  5.0494014E-03;  0.0000000E+00;
  3.3756785E+00;  9.9999998E-03;  2.0727541E-01;347;  3.9276075E-02;  0.0000000E+00;  1.0126304E-03;  9.9889288E+00;  4.7664946E-01; -1.0205015E+00;3; -3.5887450E-04;  0.0000000E+00; -1.0852149E-03;  0.0000000E+00;  0.0000000E+00;  0.0000000E+00;0;  3.6317363E-02;  7.4379219E+01;  0.0000000E+00;  8.9094174E-05;  1.0000000E+02;  0.0000000E+00;  9.4470123E+01;  3.1257756E-02;  0.0000000E+00;  5.0596087E-03;  0.0000000E+00;
  3.3710911E+00;  9.9999998E-03;  4.1329351E-01;348;  3.5853505E-02;  0.0000000E+00;  2.1712291E-03;  9.9887390E+00;  4.7792584E-01; -1.0385894E+00;3; -4.5822165E-04;  0.0000000E+00; -6.4756611E-04;  0.0000000E+00;  0.0000000E+00;  0.0000000E+00;0;  3.6845740E-02;  7.4045204E+01;  0.0000000E+00; -1.0486124E-04;  1.0000000E+02;  0.0000000E+00;  9.4386459E+01;  3.1706996E-02;  0.0000000E+00;  5.1387437E-03;  0.0000000E+00;
  3.3679686E+00;  9.9999998E-03;  6.1873811E-01;349;  3.2900129E-02;  0.0000000E+00;  3.0197012E-03;  9.9885035E+00;  4.7971597E-01; -1.0606974E+00;3; -4.1749412E-03;  0.0000000E+00; -7.6324772E-04;  0.0000000E+00;  0.0000000E+00;  0.0000000E+00;0;  3.7551478E-02;  7.3575745E+01;  0.0000000E+00; -1.3368104E-03;  1.0000000E+02;  0.0000000E+00;  9.4277100E+01;  3.2436941E-02;  0.0000000E+00;  5.1145381E-03;  0.0000000E+00;
  3.4269373E+00;  9.9999998E-03;  8.2428950E-01;350;  3.3203792E-02;  0.0000000E+00;  4.7368556E-03;  9.9880829E+00;  2.4087746E-01; -1.0923543E+00;3; -1.4849929E-03;  0.0000000E+00;  8.0034314E-03;  0.0000000E+00;  0.0000000E+00;  0.0000000E+00;1;  4.0500700E-02;  2.9219852E+02;  0.0000000E+00;  9.6992813E-03;  1.0000000E+02;  0.0000000E+00;  9.4148033E+01;  3.4587618E-02;  0.0000000E+00;  5.9130820E-03;  0.0000000E+00;
  3.4298806E+00;  9.9999998E-03;  1.0301613E+00;351;  3.4384236E-02;  0.0000000E+00;  5.8716293E-03;  9.9876280E+00;  2.4182528E-01; -1.1336994E+00;3; -2.7931987E-03;  0.0000000E+00; -9.6719349E-03;  0.0000000E+00;  0.0000000E+00;  0.0000000E+00;1;  4.1504484E-02;  2.9030307E+02;  0.0000000E+00; -1.3214551E-02;  1.0000000E+02;  0.0000000E+00;  9.4014549E+01;  3.5535414E-02;  0.0000000E+00;  5.9690699E-03;  0.0000000E+00;
  3.5491004E+00;  9.9999998E-03; -1.2257237E-08;357;  4.3997206E-02;  0.0000000E+00; -2.1904845E-09;  9.9887323E+00;  2.4402975E-01; -1.0219506E+00;3; -2.5180303E-03;  0.0000000E+00; -1.3870886E-07;  0.0000000E+00;  0.0000000E+00;  0.0000000E+00;1;  4.0539309E-02;  2.8707254E+02;  0.0000000E+00;  4.5887474E-12;  1.0000000E+02;  0.0000000E+00;  9.3379791E+01;  3.4166593E-02;  0.0000000E+00;  6.3727158E-03;  0.0000000E+00;
  3.6671164E+00;  9.9999998E-03;  2.1028616E-01;358;  4.4877805E-02;  0.0000000E+00;  2.1406389E-03;  9.9884176E+00;  2.4463758E-01; -1.0431651E+00;3; -2.1640761E-03;  0.0000000E+00; -6.2284293E-04;  0.0000000E+00;  0.0000000E+00;  0.0000000E+00;1;  4.4108916E-02;  2.8601801E+02;  0.0000000E+00; -5.3011063E-03;  1.0000000E+02;  0.0000000E+00;  9.3253754E+01;  3.6815714E-02;  0.0000000E+00;  7.2932024E-03;  0.0000000E+00;
  3.6677349E+00;  9.9999998E-03;  4.1711015E-01;359;  4.4141520E-02;  0.0000000E+00;  3.7025288E-03;  9.9882040E+00;  2.4527864E-01; -1.0623518E+00;3; -3.0274130E-03;  0.0000000E+00; -9.5833978E-04;  0.0000000E+00;  0.0000000E+00;  0.0000000E+00;1;  4.4935372E-02;  2.8477234E+02;  0.0000000E+00; -2.1024574E-02;  1.0000000E+02;  0.0000000E+00;  9.3171097E+01;  3.7520949E-02;  0.0000000E+00;  7.4144220E-03;  0.0000000E+00;
  3.6684220E+00;  9.9999998E-03;  6.2350738E-01;360;  4.3536056E-02;  0.0000000E+00;  4.8314696E-03;  9.9879560E+00;  2.4611978E-01; -1.0846474E+00;3; -3.5579186E-03;  0.0000000E+00; -1.5005654E-03;  0.0000000E+00;  0.0000000E+00;  0.0000000E+00;1;  4.5865521E-02;  2.8314810E+02;  0.0000000E+00; -4.3300498E-02;  1.0000000E+02;  0.0000000E+00;  9.3060371E+01;  3.8451679E-02;  0.0000000E+00;  7.4138409E-03;  0.0000000E+00;
  3.6705799E+00;  9.9999998E-03;  8.2994109E-01;361;  4.4166207E-02;  0.0000000E+00;  6.4359349E-03;  9.9876280E+00;  2.4698260E-01; -1.1141095E+00;3; -3.4102169E-03;  0.0000000E+00; -1.6373406E-03;  0.0000000E+00;  0.0000000E+00;  0.0000000E+00;1;  4.7190264E-02;  2.8149911E+02;  0.0000000E+00; -5.8224611E-02;  1.0000000E+02;  0.0000000E+00;  9.2947792E+01;  3.9409563E-02;  0.0000000E+00;  7.7806995E-03;  0.0000000E+00;
  3.6749864E+00;  9.9999998E-03;  1.0367308E+00;362;  4.6238523E-02;  0.0000000E+00;  7.9745874E-03;  9.9873686E+00;  2.4773195E-01; -1.1372201E+00;3; -2.4676197E-03;  0.0000000E+00; -2.3113333E-03;  0.0000000E+00;  0.0000000E+00;  0.0000000E+00;1;  4.8278719E-02;  2.8008386E+02;  0.0000000E+00; -4.4796325E-02;  1.0000000E+02;  0.0000000E+00;  9.2848854E+01;  4.0221129E-02;  0.0000000E+00;  8.0575896E-03;  0.0000000E+00;
  3.7899535E+00;  9.9999998E-03; -1.5497166E-08;368;  5.3085130E-02;  0.0000000E+00; -1.4390904E-10;  9.9882278E+00;  2.4970813E-01; -1.0551407E+00;3; -2.4736994E-03;  0.0000000E+00; -1.9648215E-07;  0.0000000E+00;  0.0000000E+00;  0.0000000E+00;1;  4.7320720E-02;  2.7695987E+02;  0.0000000E+00;  6.7415999E-12;  1.0000000E+02;  0.0000000E+00;  9.2430260E+01;  3.9251681E-02;  0.0000000E+00;  8.0690384E-03;  0.0000000E+00;
  3.9088624E+00;  9.9999998E-03;  2.1068478E-01;369;  5.4511003E-02;  0.0000000E+00;  2.6629020E-03;  9.9879951E+00;  2.5046360E-01; -1.0728062E+00;3; -1.9263234E-03;  0.0000000E+00;  5.0839677E-05;  0.0000000E+00;  0.0000000E+00;  0.0000000E+00;1;  5.0585337E-02;  2.7566855E+02;  0.0000000E+00; -3.9320965E-03;  1.0000000E+02;  0.0000000E+00;  9.2298134E+01;  4.1771505E-02;  0.0000000E+00;  8.8138301E-03;  0.0000000E+00;
  3.9124629E+00;  9.9999998E-03;  4.1895035E-01;370;  5.5768218E-02;  0.0000000E+00;  4.7146678E-03;  9.9878817E+00;  2.5082076E-01; -1.0828489E+00;3; -1.8628122E-03;  0.0000000E+00; -1.3298332E-04;  0.0000000E+00;  0.0000000E+00;  0.0000000E+00;1;  5.1150106E-02;  2.7501944E+02;  0.0000000E+00; -1.6732035E-02;  1.0000000E+02;  0.0000000E+00;  9.2250465E+01;  4.2189114E-02;  0.0000000E+00;  8.9609912E-03;  0.0000000E+00;
  3.9145277E+00;  9.9999998E-03;  6.2645876E-01;371;  5.6088559E-02;  0.0000000E+00;  6.1711259E-03;  9.9877691E+00;  2.5124580E-01; -1.0928710E+00;3; -2.0578883E-03;  0.0000000E+00;  1.2941663E-04;  0.0000000E+00;  0.0000000E+00;  0.0000000E+00;1;  5.1686961E-02;  2.7425064E+02;  0.0000000E+00; -3.5020746E-02;  1.0000000E+02;  0.0000000E+00;  9.2195862E+01;  4.2651206E-02;  0.0000000E+00;  9.0357540E-03;  0.0000000E+00;
  3.9162652E+00;  9.9999998E-03;  8.3387792E-01;372;  5.6365147E-02;  0.0000000E+00;  7.6792333E-03;  9.9876604E+00;  2.5164610E-01; -1.1025265E+00;3; -1.9732281E-03;  0.0000000E+00; -1.1737092E-03;  0.0000000E+00;  0.0000000E+00;  0.0000000E+00;1;  5.2139059E-02;  2.7352859E+02;  0.0000000E+00; -4.2290002E-02;  1.0000000E+02;  0.0000000E+00;  9.2142929E+01;  4.3072369E-02;  0.0000000E+00;  9.0666916E-03;  0.0000000E+00;
  3.9193647E+00;  9.9999998E-03;  1.0415133E+00;373;  5.8108240E-02;  0.0000000E+00;  9.3979323E-03;  9.9875822E+00;  2.5196251E-01; -1.1094898E+00;3; -8.7492273E-04;  0.0000000E+00; -3.7501205E-04;  0.0000000E+00;  0.0000000E+00;  0.0000000E+00;1;  5.2569833E-02;  2.7295795E+02;  0.0000000E+00; -1.7539660E-02;  1.0000000E+02;  0.0000000E+00;  9.2102318E+01;  4.3362699E-02;  0.0000000E+00;  9.2071332E-03;  0.0000000E+00;
  4.0375376E+00;  9.9999998E-03; -6.4090417E-09;379;  6.5074883E-02;  0.0000000E+00;  2.9269529E-08;  9.9878855E+00;  2.5450125E-01; -1.0804039E+00;3; -1.8836968E-03;  0.0000000E+00; -6.7821304E-08;  0.0000000E+00;  0.0000000E+00;  0.0000000E+00;1;  5.3399030E-02;  2.6876718E+02;  0.0000000E+00;  6.6848788E-12;  1.0000000E+02;  0.0000000E+00;  9.1685860E+01;  4.3982998E-02;  0.0000000E+00;  9.4160317E-03;  0.0000000E+00;
  4.1564469E+00;  9.9999998E-03;  2.0881908E-01;380;  6.6725366E-02;  0.0000000E+00;  2.5092235E-03;  9.9878235E+00;  2.5505206E-01; -1.0846677E+00;3; -1.2634303E-03;  0.0000000E+00;  7.3776231E-04;  0.0000000E+00;  0.0000000E+00;  0.0000000E+00;1;  5.5643089E-02;  2.6777332E+02;  0.0000000E+00; -1.1811119E-03;  1.0000000E+02;  0.0000000E+00;  9.1628021E+01;  4.5756511E-02;  0.0000000E+00;  9.8865768E-03;  0.0000000E+00;
  4.1595907E+00;  9.9999998E-03;  4.1932276E-01;381;  6.8055660E-02;  0.0000000E+00;  5.0000828E-03;  9.9878244E+00;  2.5510669E-01; -1.0845354E+00;3; -1.0071656E-03;  0.0000000E+00;  8.6233085E-05;  0.0000000E+00;  0.0000000E+00;  0.0000000E+00;1;  5.5686485E-02;  2.6770993E+02;  0.0000000E+00; -5.7219230E-03;  1.0000000E+02;  0.0000000E+00;  9.1610275E+01;  4.5714658E-02;  0.0000000E+00;  9.9718273E-03;  0.0000000E+00;
  4.1607633E+00;  9.9999998E-03;  6.2816405E-01;382;  6.8287820E-02;  0.0000000E+00;  6.7040417E-03;  9.9878597E+00;  2.5513229E-01; -1.0813932E+00;3; -9.6451677E-04;  0.0000000E+00; -3.6204825E-04;  0.0000000E+00;  0.0000000E+00;  0.0000000E+00;1;  5.5554308E-02;  2.6767172E+02;  0.0000000E+00; -1.3231958E-02;  1.0000000E+02;  0.0000000E+00;  9.1604927E+01;  4.5631520E-02;  0.0000000E+00;  9.9227866E-03;  0.0000000E+00;
  4.1609683E+00;  9.9999998E-03;  8.3656126E-01;383;  6.8017989E-02;  0.0000000E+00;  8.4162736E-03;  9.9879084E+00;  2.5513631E-01; -1.0770379E+00;3; -8.8373740E-04;  0.0000000E+00; -3.1545144E-06;  0.0000000E+00;  0.0000000E+00;  0.0000000E+00;1;  5.5325363E-02;  2.6767014E+02;  0.0000000E+00; -1.6447671E-02;  1.0000000E+02;  0.0000000E+00;  9.1604614E+01;  4.5529697E-02;  0.0000000E+00;  9.7956657E-03;  0.0000000E+00;
  4.1612277E+00;  9.9999998E-03;  1.0449402E+00;384;  6.8031751E-02;  0.0000000E+00;  1.0338297E-02;  9.9879274E+00;  2.5512198E-01; -1.0753369E+00;3; -5.1169336E-04;  0.0000000E+00;  1.1104672E-03;  0.0000000E+00;  0.0000000E+00;  0.0000000E+00;1;  5.5290695E-02;  2.6769339E+02;  0.0000000E+00; -4.9870810E-03;  1.0000000E+02;  0.0000000E+00;  9.1606758E+01;  4.5420952E-02;  0.0000000E+00;  9.8697422E-03;  0.0000000E+00;
  4.0444069E+00;  9.9999998E-03;  8.3623892E-01;551;  6.7453943E-02;  0.0000000E+00;  8.0878353E-03;  9.9878254E+00;  2.5472260E-01; -1.0856827E+00;3; -1.4784248E-03;  0.0000000E+00; -9.4109616E-04; -4.3160208E+08; -4.3160208E+08; -4.3160208E+08;1;  5.3783957E-02;  2.6834708E+02;  0.0000000E+00; -7.2662025E-03;  1.0000000E+02;  0.0000000E+00;  9.1669281E+01;  4.4329014E-02;  0.0000000E+00;  9.4549442E-03;  0.0000000E+00;
  4.0448360E+00;  9.9999998E-03;  1.0445188E+00;552;  6.7848131E-02;  0.0000000E+00;  9.9048074E-03;  9.9878225E+00;  2.5473982E-01; -1.0858897E+00;3; -5.8132433E-04;  0.0000000E+00;  3.8090409E-04; -4.3160208E+08; -4.3160208E+08; -4.3160208E+08;1;  5.3848967E-02;  2.6831299E+02;  0.0000000E+00; -3.6508890E-03;  1.0000000E+02;  0.0000000E+00;  9.1667854E+01;  4.4325065E-02;  0.0000000E+00;  9.5239012E-03;  0.0000000E+00;
  4.0441656E+00;  9.9999998E-03;  6.2795675E-01;554;  6.7704394E-02;  0.0000000E+00;  6.4276569E-03;  9.9878359E+00;  2.5467598E-01; -1.0847291E+00;3; -1.4468196E-03;  0.0000000E+00;  2.7024880E-04; -4.3160208E+08; -4.3160208E+08; -4.3160208E+08;1;  5.3770635E-02;  2.6842590E+02;  0.0000000E+00; -6.7195483E-03;  1.0000000E+02;  0.0000000E+00;  9.1675880E+01;  4.4271559E-02;  0.0000000E+00;  9.4990777E-03;  0.0000000E+00;
  4.0429783E+00;  9.9999998E-03;  4.1929549E-01;556;  6.7495123E-02;  0.0000000E+00;  4.6562492E-03;  9.9878521E+00;  2.5460348E-01; -1.0833093E+00;3; -1.3114281E-03;  0.0000000E+00;  1.2271649E-04; -4.3160208E+08; -4.3160208E+08; -4.3160208E+08;1;  5.3640109E-02;  2.6855133E+02;  0.0000000E+00; -3.4656562E-03;  1.0000000E+02;  0.0000000E+00;  9.1685760E+01;  4.4174049E-02;  0.0000000E+00;  9.4660604E-03;  0.0000000E+00;
  4.1541324E+00;  9.9999998E-03;  1.2025282E-09;558;  6.5584853E-02;  0.0000000E+00;  4.4592696E-08;  9.9878149E+00;  2.5507450E-01; -1.0854304E+00;3; -1.7459333E-03;  0.0000000E+00;  9.8438079E-08; -4.3160208E+08; -4.3160208E+08; -4.3160208E+08;1;  5.5647511E-02;  2.6781122E+02;  0.0000000E+00;  4.2488322E-12;  1.0000000E+02;  0.0000000E+00;  9.1599190E+01;  4.5759827E-02;  0.0000000E+00;  9.8876841E-03;  0.0000000E+00;
  4.0398083E+00;  9.9999998E-03;  2.0926417E-01;559;  6.6131651E-02;  0.0000000E+00;  3.1257973E-03;  9.9878616E+00;  2.5451043E-01; -1.0825003E+00;3; -1.5447424E-03;  0.0000000E+00;  5.2361522E-04; -4.3160208E+08; -4.3160208E+08; -4.3160208E+08;1;  5.3546462E-02;  2.6869455E+02;  0.0000000E+00; -8.5818727E-04;  1.0000000E+02;  0.0000000E+00;  9.1703506E+01;  4.4052023E-02;  0.0000000E+00;  9.4944388E-03;  0.0000000E+00;
  3.8027194E+00;  9.9999998E-03;  1.0409875E+00;567;  5.7319395E-02;  0.0000000E+00;  8.7471642E-03;  9.9875212E+00;  2.5151750E-01; -1.1180676E+00;3; -1.8265526E-03;  0.0000000E+00;  6.0091756E-04; -4.3160208E+08; -4.3160208E+08; -4.3160208E+08;1;  5.0481267E-02;  2.7367780E+02;  0.0000000E+00; -7.6695024E-03;  1.0000000E+02;  0.0000000E+00;  9.2184303E+01;  4.1835140E-02;  0.0000000E+00;  8.6461278E-03;  0.0000000E+00;
  3.7994804E+00;  9.9999998E-03;  8.3345789E-01;569;  5.5136342E-02;  0.0000000E+00;  7.1043349E-03;  9.9876614E+00;  2.5116724E-01; -1.1056249E+00;3; -3.8359503E-03;  0.0000000E+00;  8.3545648E-04; -4.3160208E+08; -4.3160208E+08; -4.3160208E+08;1;  4.9839232E-02;  2.7431580E+02;  0.0000000E+00; -2.7412841E-02;  1.0000000E+02;  0.0000000E+00;  9.2229408E+01;  4.1387450E-02;  0.0000000E+00;  8.4517812E-03;  0.0000000E+00;
  3.7978561E+00;  9.9999998E-03;  6.2616444E-01;573;  5.5172335E-02;  0.0000000E+00;  5.5478145E-03;  9.9878368E+00;  2.5073284E-01; -1.0899227E+00;3; -3.3524507E-03;  0.0000000E+00; -8.8357466E-04; -4.3160208E+08; -4.3160208E+08; -4.3160208E+08;1;  4.9054291E-02;  2.7511514E+02;  0.0000000E+00; -2.5609469E-02;  1.0000000E+02;  0.0000000E+00;  9.2283669E+01;  4.0763851E-02;  0.0000000E+00;  8.2904398E-03;  0.0000000E+00;
  3.7959218E+00;  9.9999998E-03;  4.1879207E-01;575;  5.5206139E-02;  0.0000000E+00;  4.0981546E-03;  9.9880104E+00;  2.5027752E-01; -1.0744430E+00;3; -2.5231098E-03;  0.0000000E+00; -5.8570562E-04; -4.3160208E+08; -4.3160208E+08; -4.3160208E+08;1;  4.8317522E-02;  2.7595651E+02;  0.0000000E+00; -1.3437187E-02;  1.0000000E+02;  0.0000000E+00;  9.2341789E+01;  4.0102981E-02;  0.0000000E+00;  8.2145408E-03;  0.0000000E+00;
  3.7924280E+00;  9.9999998E-03;  2.1085471E-01;577;  5.4218613E-02;  0.0000000E+00;  2.9170611E-03;  9.9881439E+00;  2.4989469E-01; -1.0625921E+00;3; -2.1698964E-03;  0.0000000E+00; -3.5114624E-04; -4.3160208E+08; -4.3160208E+08; -4.3160208E+08;1;  4.7708467E-02;  2.7666241E+02;  0.0000000E+00; -3.3786311E-03;  1.0000000E+02;  0.0000000E+00;  9.2389862E+01;  3.9521243E-02;  0.0000000E+00;  8.1872214E-03;  0.0000000E+00;
  3.9063661E+00;  9.9999998E-03; -1.7878524E-08;580;  5.3330831E-02;  0.0000000E+00;  1.4210289E-09;  9.9880438E+00;  2.5029626E-01; -1.0684921E+00;3; -2.2329141E-03;  0.0000000E+00; -1.7631248E-07; -4.3160208E+08; -4.3160208E+08; -4.3160208E+08;1;  5.0335519E-02;  2.7594229E+02;  0.0000000E+00;  7.3221802E-12;  1.0000000E+02;  0.0000000E+00;  9.2331177E+01;  4.1575134E-02;  0.0000000E+00;  8.7603843E-03;  0.0000000E+00;
  3.5581465E+00;  9.9999998E-03;  1.0362025E+00;583;  4.4937011E-02;  0.0000000E+00;  7.0422892E-03;  9.9875240E+00;  2.4727209E-01; -1.1308091E+00;3; -4.2002234E-03;  0.0000000E+00;  9.4668986E-04; -4.3160208E+08; -4.3160208E+08; -4.3160208E+08;1;  4.5160882E-02;  2.8084259E+02;  0.0000000E+00; -3.3453744E-02;  1.0000000E+02;  0.0000000E+00;  9.2945786E+01;  3.8031586E-02;  0.0000000E+00;  7.1292957E-03;  0.0000000E+00;
  3.5538027E+00;  9.9999998E-03;  8.2951826E-01;585;  4.2997777E-02;  0.0000000E+00;  5.7349647E-03;  9.9877682E+00;  2.4654482E-01; -1.1090496E+00;3; -5.1472276E-03;  0.0000000E+00;  1.1222948E-03; -4.3160208E+08; -4.3160208E+08; -4.3160208E+08;1;  4.4188786E-02;  2.8222922E+02;  0.0000000E+00; -4.6791170E-02;  1.0000000E+02;  0.0000000E+00;  9.3039703E+01;  3.7164651E-02;  0.0000000E+00;  7.0241345E-03;  0.0000000E+00;
  3.5519147E+00;  9.9999998E-03;  6.2316585E-01;587;  4.3070108E-02;  0.0000000E+00;  4.5236223E-03;  9.9880733E+00;  2.4571387E-01; -1.0815244E+00;3; -4.5589549E-03;  0.0000000E+00; -3.4010372E-04; -4.3160208E+08; -4.3160208E+08; -4.3160208E+08;1;  4.3005660E-02;  2.8383218E+02;  0.0000000E+00; -3.7004720E-02;  1.0000000E+02;  0.0000000E+00;  9.3145309E+01;  3.6169056E-02;  0.0000000E+00;  6.8366053E-03;  0.0000000E+00;
  3.5513127E+00;  9.9999998E-03;  4.1690221E-01;589;  4.4005342E-02;  0.0000000E+00;  2.7175974E-03;  9.9884405E+00;  2.4492025E-01; -1.0482748E+00;3; -3.3715235E-03;  0.0000000E+00; -2.5069634E-03; -4.3160208E+08; -4.3160208E+08; -4.3160208E+08;1;  4.1631542E-02;  2.8539572E+02;  0.0000000E+00; -1.9237019E-02;  1.0000000E+02;  0.0000000E+00;  9.3243034E+01;  3.5223048E-02;  0.0000000E+00;  6.4084926E-03;  0.0000000E+00;
  3.5507333E+00;  9.9999998E-03;  2.1022727E-01;593;  4.4883434E-02;  0.0000000E+00;  1.8151639E-03;  9.9886265E+00;  2.4431354E-01; -1.0314531E+00;3; -2.1612530E-03;  0.0000000E+00; -1.6477471E-03; -4.3160208E+08; -4.3160208E+08; -4.3160208E+08;1;  4.0950917E-02;  2.8658871E+02;  0.0000000E+00; -5.0547263E-03;  1.0000000E+02;  0.0000000E+00;  9.3318840E+01;  3.4508988E-02;  0.0000000E+00;  6.4419298E-03;  0.0000000E+00;
  3.6655037E+00;  9.9999998E-03; -1.1550831E-08;594;  4.3988578E-02;  0.0000000E+00;  1.9544513E-09;  9.9885130E+00;  2.4433799E-01; -1.0346566E+00;3; -2.5158394E-03;  0.0000000E+00; -1.7172175E-07; -4.3160208E+08; -4.3160208E+08; -4.3160208E+08;1;  4.3713968E-02;  2.8653036E+02;  0.0000000E+00;  5.4615388E-12;  1.0000000E+02;  0.0000000E+00;  9.3316483E+01;  3.6484782E-02;  0.0000000E+00;  7.2291875E-03;  0.0000000E+00;
  3.3132253E+00;  9.9999998E-03;  1.0299668E+00;602;  3.4076620E-02;  0.0000000E+00;  5.0431713E-03;  9.9880686E+00;  2.4166696E-01; -1.1085483E+00;3; -5.0984495E-03;  0.0000000E+00;  4.3580979E-03; -4.3160208E+08; -4.3160208E+08; -4.3160208E+08;1;  3.8045175E-02;  2.9058301E+02;  0.0000000E+00; -8.9414343E-03;  1.0000000E+02;  0.0000000E+00;  9.4055237E+01;  3.2832131E-02;  0.0000000E+00;  5.2130446E-03;  0.0000000E+00;
  3.3102934E+00;  9.9999998E-03;  8.2423955E-01;607;  3.2984149E-02;  0.0000000E+00;  3.5660758E-03;  9.9883146E+00;  2.4081859E-01; -1.0861099E+00;3; -3.7928997E-03;  0.0000000E+00; -7.5069992E-03; -4.3160208E+08; -4.3160208E+08; -4.3160208E+08;1;  3.6639351E-02;  2.9233057E+02;  0.0000000E+00;  1.1986884E-02;  1.0000000E+02;  0.0000000E+00;  9.4155853E+01;  3.2097742E-02;  0.0000000E+00;  4.5416108E-03;  0.0000000E+00;
  4.2844696E+00;  9.9999998E-03;  1.0472579E+00;546;  7.7144966E-02;  0.0000000E+00;  1.0684202E-02;  9.9880772E+00;  2.5766692E-01; -1.0612271E+00;3; -6.3270121E-04;  0.0000000E+00;  1.2030612E-03; -4.3160208E+08; -4.3160208E+08; -4.3160208E+08;1;  5.6332756E-02;  2.6346521E+02;  0.0000000E+00;  7.7280786E-04;  1.0000000E+02;  0.0000000E+00;  9.1248779E+01;  4.6237949E-02;  0.0000000E+00;  1.0094806E-02;  0.0000000E+00;
  4.2863007E+00;  9.9999998E-03;  8.3840990E-01;547;  7.7903256E-02;  0.0000000E+00;  8.6900350E-03;  9.9880266E+00;  2.5776723E-01; -1.0657275E+00;3; -8.1727054E-04;  0.0000000E+00; -2.7521403E-04; -4.3160208E+08; -4.3160208E+08; -4.3160208E+08;1;  5.6551091E-02;  2.6329614E+02;  0.0000000E+00; -1.4487029E-03;  1.0000000E+02;  0.0000000E+00;  9.1235565E+01;  4.6483114E-02;  0.0000000E+00;  1.0067976E-02;  0.0000000E+00;
  4.2882237E+00;  9.9999998E-03;  6.2938136E-01;541;  7.8748628E-02;  0.0000000E+00;  6.8965675E-03;  9.9879360E+00;  2.5788686E-01; -1.0737820E+00;3; -8.5054408E-04;  0.0000000E+00;  5.6738932E-05; -4.3160208E+08; -4.3160208E+08; -4.3160208E+08;1;  5.7017952E-02;  2.6308768E+02;  0.0000000E+00; -1.8135917E-03;  1.0000000E+02;  0.0000000E+00;  9.1221519E+01;  4.6756301E-02;  0.0000000E+00;  1.0261653E-02;  0.0000000E+00;
  4.2899313E+00;  9.9999998E-03;  4.1963589E-01;542;  7.9346605E-02;  0.0000000E+00;  4.8762611E-03;  9.9878721E+00;  2.5800744E-01; -1.0794502E+00;3; -9.3372545E-04;  0.0000000E+00; -3.6457952E-04; -4.3160208E+08; -4.3160208E+08; -4.3160208E+08;1;  5.7324242E-02;  2.6288110E+02;  0.0000000E+00; -9.1411726E-04;  1.0000000E+02;  0.0000000E+00;  9.1206886E+01;  4.7031466E-02;  0.0000000E+00;  1.0292776E-02;  0.0000000E+00;
  4.2903552E+00;  9.9999998E-03;  2.0726030E-01;391;  7.9265974E-02;  0.0000000E+00;  2.4176647E-03;  9.9878263E+00;  2.5807306E-01; -1.0835332E+00;3; -1.1005305E-03;  0.0000000E+00;  1.0750399E-03;  0.0000000E+00;  0.0000000E+00;  0.0000000E+00;1;  5.7550170E-02;  2.6272110E+02;  0.0000000E+00;  2.9602661E-05;  1.0000000E+02;  0.0000000E+00;  9.1215515E+01;  4.7255058E-02;  0.0000000E+00;  1.0295111E-02;  0.0000000E+00;
  4.2914648E+00;  9.9999998E-03;  1.7064625E-08;390;  7.9609402E-02;  0.0000000E+00;  7.7866176E-08;  9.9878035E+00;  2.5821257E-01; -1.0855436E+00;3; -1.6605560E-03;  0.0000000E+00;  4.2109718E-07;  0.0000000E+00;  0.0000000E+00;  0.0000000E+00;1;  5.7670925E-02;  2.6265326E+02;  0.0000000E+00;  3.3311786E-13;  1.0000000E+02;  0.0000000E+00;  9.1140587E+01;  4.7353137E-02;  0.0000000E+00;  1.0317788E-02;  0.0000000E+00;
  4.4007750E+00;  9.9999998E-03;  1.0475866E+00;395;  7.7181436E-02;  0.0000000E+00;  1.0949040E-02;  9.9881172E+00;  2.5803736E-01; -1.0572138E+00;3; -7.0649799E-04;  0.0000000E+00;  1.3242719E-03;  0.0000000E+00;  0.0000000E+00;  0.0000000E+00;1;  5.7492528E-02;  2.6286160E+02;  0.0000000E+00; -6.6774883E-03;  1.0000000E+02;  0.0000000E+00;  9.1196022E+01;  4.7188975E-02;  0.0000000E+00;  1.0303554E-02;  0.0000000E+00;
  4.4026523E+00;  9.9999998E-03;  8.3866560E-01;394;  7.7992260E-02;  0.0000000E+00;  8.9362506E-03;  9.9880514E+00;  2.5813314E-01; -1.0630414E+00;3; -8.5240346E-04;  0.0000000E+00; -9.7826927E-04;  0.0000000E+00;  0.0000000E+00;  0.0000000E+00;1;  5.7779800E-02;  2.6270337E+02;  0.0000000E+00; -5.6616734E-03;  1.0000000E+02;  0.0000000E+00;  9.1183075E+01;  4.7432154E-02;  0.0000000E+00;  1.0347647E-02;  0.0000000E+00;
  4.4046249E+00;  9.9999998E-03;  6.2953222E-01;393;  7.8892350E-02;  0.0000000E+00;  7.0052976E-03;  9.9879713E+00;  2.5824988E-01; -1.0701942E+00;3; -9.1124442E-04;  0.0000000E+00;  3.3140974E-04;  0.0000000E+00;  0.0000000E+00;  0.0000000E+00;1;  5.8210060E-02;  2.6249817E+02;  0.0000000E+00; -2.6101507E-03;  1.0000000E+02;  0.0000000E+00;  9.1170265E+01;  4.7717169E-02;  0.0000000E+00;  1.0492889E-02;  0.0000000E+00;
  4.4064579E+00;  9.9999998E-03;  4.1963291E-01;392;  7.9630174E-02;  0.0000000E+00;  4.9393792E-03;  9.9878960E+00;  2.5837290E-01; -1.0768704E+00;3; -9.9495507E-04;  0.0000000E+00; -5.3227221E-04;  0.0000000E+00;  0.0000000E+00;  0.0000000E+00;1;  5.8579627E-02;  2.6228879E+02;  0.0000000E+00; -4.8477913E-04;  1.0000000E+02;  0.0000000E+00;  9.1155342E+01;  4.8015397E-02;  0.0000000E+00;  1.0564231E-02;  0.0000000E+00;
  4.5479031E+00;  9.9999998E-03;  3.6390212E-08;401;  9.6352652E-02;  0.0000000E+00;  8.5966775E-08;  9.9878502E+00;  2.6085988E-01; -1.0806180E+00;3; -2.3362046E-04;  0.0000000E+00;  1.1490490E-06;  0.0000000E+00;  0.0000000E+00;  0.0000000E+00;1;  6.0036931E-02;  2.5836795E+02;  0.0000000E+00; -4.5200161E-13;  1.0000000E+02;  0.0000000E+00;  9.0782730E+01;  4.9227715E-02;  0.0000000E+00;  1.0809217E-02;  0.0000000E+00;
  4.5409646E+00;  9.9999998E-03;  2.0756128E-01;402;  9.2566453E-02;  0.0000000E+00;  1.5339729E-03;  9.9878902E+00;  2.6070103E-01; -1.0770786E+00;3; -1.1721887E-03;  0.0000000E+00;  1.1579903E-03;  0.0000000E+00;  0.0000000E+00;  0.0000000E+00;1;  5.9790157E-02;  2.5844464E+02;  0.0000000E+00;  2.3575996E-04;  1.0000000E+02;  0.0000000E+00;  9.0866959E+01;  4.9096685E-02;  0.0000000E+00;  1.0693473E-02;  0.0000000E+00;
  4.5353584E+00;  9.9999998E-03;  4.2095032E-01;403;  9.0413086E-02;  0.0000000E+00;  5.0300458E-03;  9.9879055E+00;  2.6068538E-01; -1.0757104E+00;3; -1.0299425E-03;  0.0000000E+00; -1.2354640E-03;  0.0000000E+00;  0.0000000E+00;  0.0000000E+00;1;  5.9671581E-02;  2.5852859E+02;  0.0000000E+00;  2.8374780E-04;  1.0000000E+02;  0.0000000E+00;  9.0848122E+01;  4.8883442E-02;  0.0000000E+00;  1.0788137E-02;  0.0000000E+00;
  4.6465998E+00;  9.9999998E-03;  6.3118041E-01;404;  8.8845730E-02;  0.0000000E+00;  7.2745131E-03;  9.9879503E+00;  2.6087499E-01; -1.0715688E+00;3; -1.0713008E-03;  0.0000000E+00;  5.3231738E-04;  0.0000000E+00;  0.0000000E+00;  0.0000000E+00;1;  6.0106687E-02;  2.5822379E+02;  0.0000000E+00;  1.1907638E-03;  1.0000000E+02;  0.0000000E+00;  9.0822708E+01;  4.9238104E-02;  0.0000000E+00;  1.0868585E-02;  0.0000000E+00;
  4.6425328E+00;  9.9999998E-03;  8.4050602E-01;405;  8.7623425E-02;  0.0000000E+00;  9.3105957E-03;  9.9879827E+00;  2.6091495E-01; -1.0687114E+00;3; -7.8725256E-04;  0.0000000E+00; -8.2717097E-04;  0.0000000E+00;  0.0000000E+00;  0.0000000E+00;1;  5.9907954E-02;  2.5816891E+02;  0.0000000E+00;  8.1339822E-04;  1.0000000E+02;  0.0000000E+00;  9.0816238E+01;  4.9135327E-02;  0.0000000E+00;  1.0772628E-02;  0.0000000E+00;
  4.6402578E+00;  9.9999998E-03;  1.0496678E+00;406;  8.7946095E-02;  0.0000000E+00;  1.1386303E-02;  9.9880075E+00;  2.6097050E-01; -1.0664879E+00;3;  7.9487130E-04;  0.0000000E+00;  1.5248270E-03;  0.0000000E+00;  0.0000000E+00;  0.0000000E+00;1;  5.9813812E-02;  2.5807587E+02;  0.0000000E+00;  2.5173118E-03;  1.0000000E+02;  0.0000000E+00;  9.0810410E+01;  4.9081933E-02;  0.0000000E+00;  1.0731879E-02;  0.0000000E+00;
  4.7940192E+00;  9.9999998E-03;  2.2937025E-08;412;  1.0882679E-01;  0.0000000E+00;  2.6427482E-08;  9.9879093E+00;  2.6208997E-01; -1.0750941E+00;3;  1.1472453E-03;  0.0000000E+00;  1.8325773E-06;  0.0000000E+00;  0.0000000E+00;  0.0000000E+00;1;  6.0615979E-02;  2.5632809E+02;  0.0000000E+00;  8.1725170E-13;  1.0000000E+02;  0.0000000E+00;  9.0648376E+01;  4.9670264E-02;  0.0000000E+00;  1.0945717E-02;  0.0000000E+00;
  4.9056458E+00;  9.9999998E-03;  2.1220224E-01;413;  1.0691437E-01;  0.0000000E+00;  2.0652032E-03;  9.9879599E+00;  2.6195648E-01; -1.0705301E+00;3;  8.5394940E-04;  0.0000000E+00; -2.7687589E-04;  0.0000000E+00;  0.0000000E+00;  0.0000000E+00;1;  6.0168043E-02;  2.5652621E+02;  0.0000000E+00;  7.6393620E-04;  1.0000000E+02;  0.0000000E+00;  9.0671455E+01;  4.9343169E-02;  0.0000000E+00;  1.0824876E-02;  0.0000000E+00;
  4.8972640E+00;  9.9999998E-03;  4.2332685E-01;414;  1.0266135E-01;  0.0000000E+00;  5.1986785E-03;  9.9878855E+00;  2.6218450E-01; -1.0771582E+00;3; -1.3027906E-04;  0.0000000E+00;  2.0455361E-04;  0.0000000E+00;  0.0000000E+00;  0.0000000E+00;1;  6.0570534E-02;  2.5614130E+02;  0.0000000E+00;  2.9760301E-03;  1.0000000E+02;  0.0000000E+00;  9.0648895E+01;  4.9648356E-02;  0.0000000E+00;  1.0922180E-02;  0.0000000E+00;
  4.8910313E+00;  9.9999998E-03;  6.3276637E-01;415;  1.0000814E-01;  0.0000000E+00;  7.4599911E-03;  9.9878082E+00;  2.6249495E-01; -1.0839976E+00;3; -4.3975125E-04;  0.0000000E+00;  2.1710720E-04;  0.0000000E+00;  0.0000000E+00;  0.0000000E+00;1;  6.0979437E-02;  2.5563611E+02;  0.0000000E+00;  3.7644599E-03;  1.0000000E+02;  0.0000000E+00;  9.0611931E+01;  4.9986586E-02;  0.0000000E+00;  1.0992852E-02;  0.0000000E+00;
  4.8873963E+00;  9.9999998E-03;  8.4169757E-01;416;  9.8841466E-02;  0.0000000E+00;  9.5480867E-03;  9.9877357E+00;  2.6281485E-01; -1.0904649E+00;3; -5.8091959E-05;  0.0000000E+00; -1.0211009E-03;  0.0000000E+00;  0.0000000E+00;  0.0000000E+00;1;  6.1348293E-02;  2.5512524E+02;  0.0000000E+00;  4.5927707E-03;  1.0000000E+02;  0.0000000E+00;  9.0572403E+01;  5.0269332E-02;  0.0000000E+00;  1.1078962E-02;  0.0000000E+00;
  4.8868423E+00;  9.9999998E-03;  1.0507565E+00;417;  1.0023373E-01;  0.0000000E+00;  1.1567787E-02;  9.9876947E+00;  2.6308748E-01; -1.0941219E+00;3;  2.4231267E-03;  0.0000000E+00;  1.2849119E-03;  0.0000000E+00;  0.0000000E+00;  0.0000000E+00;1;  6.1576243E-02;  2.5468446E+02;  0.0000000E+00;  2.0892225E-02;  1.0000000E+02;  0.0000000E+00;  9.0539856E+01;  5.0544027E-02;  0.0000000E+00;  1.1032216E-02;  0.0000000E+00;
  5.0296130E+00;  9.9999998E-03;  2.0243412E-08;423;  1.1555102E-01;  0.0000000E+00; -6.0793909E-08;  9.9880161E+00;  2.6111478E-01; -1.0655075E+00;3;  8.3875924E-04;  0.0000000E+00;  2.0507541E-06;  0.0000000E+00;  0.0000000E+00;  0.0000000E+00;1;  5.9216417E-02;  2.5777756E+02;  0.0000000E+00;  7.7864581E-14;  1.0000000E+02;  0.0000000E+00;  9.0815643E+01;  4.8493437E-02;  0.0000000E+00;  1.0722980E-02;  0.0000000E+00;
  5.1473718E+00;  9.9999998E-03;  2.1711966E-01;424;  1.1642722E-01;  0.0000000E+00;  3.1744114E-03;  9.9880199E+00;  2.6085389E-01; -1.0651127E+00;3;  1.6882231E-03;  0.0000000E+00; -1.0691507E-03;  0.0000000E+00;  0.0000000E+00;  0.0000000E+00;1;  5.8087960E-02;  2.5837369E+02;  0.0000000E+00;  3.1042495E-05;  1.0000000E+02;  0.0000000E+00;  9.0787651E+01;  4.7575936E-02;  0.0000000E+00;  1.0512024E-02;  0.0000000E+00;
  5.1470428E+00;  9.9999998E-03;  4.2482129E-01;425;  1.1534590E-01;  0.0000000E+00;  5.6066918E-03;  9.9878502E+00;  2.6125181E-01; -1.0802158E+00;3;  1.2745397E-03;  0.0000000E+00;  5.4319209E-04;  0.0000000E+00;  0.0000000E+00;  0.0000000E+00;1;  5.8925703E-02;  2.5766119E+02;  0.0000000E+00; -3.1457089E-03;  1.0000000E+02;  0.0000000E+00;  9.0758469E+01;  4.8248261E-02;  0.0000000E+00;  1.0677441E-02;  0.0000000E+00;
  5.1488304E+00;  9.9999998E-03;  6.3292682E-01;426;  1.1547181E-01;  0.0000000E+00;  7.3222215E-03;  9.9876938E+00;  2.6175982E-01; -1.0940998E+00;3;  1.3830340E-03;  0.0000000E+00; -3.9248724E-05;  0.0000000E+00;  0.0000000E+00;  0.0000000E+00;1;  5.9654742E-02;  2.5682782E+02;  0.0000000E+00; -8.7658782E-03;  1.0000000E+02;  0.0000000E+00;  9.0698433E+01;  4.8952498E-02;  0.0000000E+00;  1.0702247E-02;  0.0000000E+00;
  5.1535683E+00;  9.9999998E-03;  8.4116215E-01;427;  1.1593567E-01;  0.0000000E+00;  9.3381209E-03;  9.9875221E+00;  2.6223883E-01; -1.1093611E+00;3;  1.2625093E-03;  0.0000000E+00; -1.0668761E-03;  0.0000000E+00;  0.0000000E+00;  0.0000000E+00;1;  6.0425777E-02;  2.5604688E+02;  0.0000000E+00;  1.6430110E-03;  1.0000000E+02;  0.0000000E+00;  9.0640572E+01;  4.9485758E-02;  0.0000000E+00;  1.0940019E-02;  0.0000000E+00;
  5.1575470E+00;  9.9999998E-03;  1.0498478E+00;428;  1.1567445E-01;  0.0000000E+00;  1.1210993E-02;  9.9874496E+00;  2.6262257E-01; -1.1158255E+00;3;  6.0614711E-04;  0.0000000E+00;  5.6609599E-04;  0.0000000E+00;  0.0000000E+00;  0.0000000E+00;1;  6.0733870E-02;  2.5542511E+02;  0.0000000E+00; -3.1078102E-03;  1.0000000E+02;  0.0000000E+00;  9.0594933E+01;  4.9869150E-02;  0.0000000E+00;  1.0864722E-02;  0.0000000E+00;
  5.2744412E+00;  9.9999998E-03;  5.6964797E-09;434;  1.2512338E-01;  0.0000000E+00; -1.7293567E-07;  9.9882030E+00;  2.5707674E-01; -1.0488281E+00;3;  1.5677637E-03;  0.0000000E+00;  1.0460317E-06;  0.0000000E+00;  0.0000000E+00;  0.0000000E+00;1;  5.5505790E-02;  2.6435550E+02;  0.0000000E+00;  3.7484591E-13;  1.0000000E+02;  0.0000000E+00;  9.1362221E+01;  4.5475364E-02;  0.0000000E+00;  1.0030427E-02;  0.0000000E+00;
  5.3990202E+00;  9.9999998E-03;  2.1555510E-01;435;  1.2666404E-01;  0.0000000E+00;  2.5649476E-03;  9.9882622E+00;  2.5645232E-01; -1.0435728E+00;3;  9.9006237E-04;  0.0000000E+00;  4.8914156E-04;  0.0000000E+00;  0.0000000E+00;  0.0000000E+00;1;  5.3056274E-02;  2.6562033E+02;  0.0000000E+00; -2.6869487E-02;  1.0000000E+02;  0.0000000E+00;  9.1371941E+01;  4.3503486E-02;  0.0000000E+00;  9.5527871E-03;  0.0000000E+00;
  5.4158702E+00;  9.9999998E-03;  4.2258206E-01;436;  1.3434999E-01;  0.0000000E+00;  5.0675035E-03;  9.9880800E+00;  2.5677434E-01; -1.0597343E+00;3;  4.1226805E-03;  0.0000000E+00;  3.8602544E-04;  0.0000000E+00;  0.0000000E+00;  0.0000000E+00;1;  5.3552642E-02;  2.6506198E+02;  0.0000000E+00; -5.9998859E-02;  1.0000000E+02;  0.0000000E+00;  9.1331886E+01;  4.3780018E-02;  0.0000000E+00;  9.7726230E-03;  0.0000000E+00;
  5.4271169E+00;  9.9999998E-03;  6.3014036E-01;437;  1.3813068E-01;  0.0000000E+00;  6.4148968E-03;  9.9878798E+00;  2.5734374E-01; -1.0775391E+00;3;  6.2369225E-03;  0.0000000E+00; -1.4895250E-03;  0.0000000E+00;  0.0000000E+00;  0.0000000E+00;1;  5.4201040E-02;  2.6410120E+02;  0.0000000E+00; -5.1330226E-03;  1.0000000E+02;  0.0000000E+00;  9.1256683E+01;  4.4462621E-02;  0.0000000E+00;  9.7384192E-03;  0.0000000E+00;
  5.4340982E+00;  9.9999998E-03;  8.3803213E-01;438;  1.3240358E-01;  0.0000000E+00;  8.2403468E-03;  9.9877176E+00;  2.5791153E-01; -1.0919524E+00;3;  3.4224615E-03;  0.0000000E+00; -1.8117082E-03;  0.0000000E+00;  0.0000000E+00;  0.0000000E+00;1;  5.4750707E-02;  2.6313919E+02;  0.0000000E+00;  1.9132259E-01;  1.0000000E+02;  0.0000000E+00;  9.1185204E+01;  4.4856958E-02;  0.0000000E+00;  9.8937489E-03;  0.0000000E+00;
  5.4482093E+00;  9.9999998E-03;  1.0463923E+00;439;  1.3948496E-01;  0.0000000E+00;  1.0054475E-02;  9.9874697E+00;  2.5876006E-01; -1.1139964E+00;3;  4.1822172E-03;  0.0000000E+00; -1.0623613E-03;  0.0000000E+00;  0.0000000E+00;  0.0000000E+00;1;  5.5525079E-02;  2.6171497E+02;  0.0000000E+00; -2.6328465E-01;  1.0000000E+02;  0.0000000E+00;  9.1077995E+01;  4.5619287E-02;  0.0000000E+00;  9.9057937E-03;  0.0000000E+00;
  5.5374112E+00;  9.9999998E-03; -1.3888881E-08;445;  1.3470553E-01;  0.0000000E+00; -2.7284688E-07;  9.9885750E+00;  2.4961853E-01; -1.0157460E+00;3; -9.9149102E-04;  0.0000000E+00; -2.5348272E-06;  0.0000000E+00;  0.0000000E+00;  0.0000000E+00;1;  4.8701052E-02;  2.7756247E+02;  0.0000000E+00;  5.3938477E-12;  1.0000000E+02;  0.0000000E+00;  9.2296989E+01;  3.9893888E-02;  0.0000000E+00;  8.8071637E-03;  0.0000000E+00;
  5.6809502E+00;  9.9999998E-03;  2.0925145E-01;446;  1.4459026E-01;  0.0000000E+00;  7.1932928E-04;  9.9888029E+00;  2.4891421E-01; -9.9549967E-01;3;  7.8737852E-04;  0.0000000E+00; -1.2425616E-03;  0.0000000E+00;  0.0000000E+00;  0.0000000E+00;1;  4.4112563E-02;  2.7886804E+02;  0.0000000E+00; -6.2679946E-02;  1.0000000E+02;  0.0000000E+00;  9.2390816E+01;  3.6172509E-02;  0.0000000E+00;  7.9400521E-03;  0.0000000E+00;
  5.6962032E+00;  9.9999998E-03;  4.1794109E-01;447;  1.5308662E-01;  0.0000000E+00;  3.8434062E-03;  9.9884062E+00;  2.4978733E-01; -1.0307388E+00;3;  4.8551387E-03;  0.0000000E+00;  6.3727715E-04;  0.0000000E+00;  0.0000000E+00;  0.0000000E+00;1;  4.5271628E-02;  2.7728882E+02;  0.0000000E+00; -3.4328017E-02;  1.0000000E+02;  0.0000000E+00;  9.2262054E+01;  3.6878504E-02;  0.0000000E+00;  8.3931237E-03;  0.0000000E+00;
  5.6811380E+00;  9.9999998E-03;  6.2527746E-01;448;  1.5228915E-01;  0.0000000E+00;  5.4855840E-03;  9.9879885E+00;  2.5064194E-01; -1.0678861E+00;3;  3.2309855E-03;  0.0000000E+00; -2.8675690E-04;  0.0000000E+00;  0.0000000E+00;  0.0000000E+00;1;  4.7345441E-02;  2.7573874E+02;  0.0000000E+00; -1.4164647E-01;  1.0000000E+02;  0.0000000E+00;  9.2141785E+01;  3.8577955E-02;  0.0000000E+00;  8.7674865E-03;  0.0000000E+00;
  5.6757836E+00;  9.9999998E-03;  8.3320642E-01;449;  1.4604406E-01;  0.0000000E+00;  6.8307589E-03;  9.9879932E+00;  2.5131038E-01; -1.0674624E+00;3;  2.4374456E-03;  0.0000000E+00;  1.8561026E-03;  0.0000000E+00;  0.0000000E+00;  0.0000000E+00;1;  4.7502633E-02;  2.7456509E+02;  0.0000000E+00;  9.5353074E-02;  1.0000000E+02;  0.0000000E+00;  9.2045113E+01;  3.8983230E-02;  0.0000000E+00;  8.5194036E-03;  0.0000000E+00;
  5.6525564E+00;  9.9999998E-03;  1.0410513E+00;450;  1.3938582E-01;  0.0000000E+00;  8.6994218E-03;  9.9881086E+00;  2.5093520E-01; -1.0571824E+00;3;  4.2222352E-03;  0.0000000E+00; -2.5933727E-03;  0.0000000E+00;  0.0000000E+00;  0.0000000E+00;1;  4.7600869E-02;  2.7525986E+02;  0.0000000E+00; -2.3240472E-01;  1.0000000E+02;  0.0000000E+00;  9.2090302E+01;  3.9048240E-02;  0.0000000E+00;  8.5526286E-03;  0.0000000E+00;
  5.7827563E+00;  9.9999998E-03; -1.3615637E-07;456;  1.4666772E-01;  0.0000000E+00; -3.2962680E-07;  9.9889917E+00;  2.4104810E-01; -9.7869992E-01;3; -1.3861022E-03;  0.0000000E+00; -8.9032110E-06;  0.0000000E+00;  0.0000000E+00;  0.0000000E+00;1;  4.0504176E-02;  2.9414734E+02;  0.0000000E+00; -7.7275339E-12;  1.0000000E+02;  0.0000000E+00;  9.3404640E+01;  3.3070594E-02;  0.0000000E+00;  7.4335821E-03;  0.0000000E+00;
  5.9102631E+00;  9.9999998E-03;  2.0618953E-01;457;  1.4919715E-01;  0.0000000E+00; -1.0750596E-04;  9.9891653E+00;  2.4144965E-01; -9.6327823E-01;3;  2.0367079E-03;  0.0000000E+00;  1.0786206E-04;  0.0000000E+00;  0.0000000E+00;  0.0000000E+00;1;  3.5885651E-02;  2.9321002E+02;  0.0000000E+00; -2.0755610E-01;  1.0000000E+02;  0.0000000E+00;  9.3396347E+01;  2.9339768E-02;  0.0000000E+00;  6.5458817E-03;  0.0000000E+00;
  5.9164152E+00;  9.9999998E-03;  4.1337845E-01;458;  1.5592022E-01;  0.0000000E+00;  2.5028735E-03;  9.9883881E+00;  2.4255140E-01; -1.0323790E+00;3;  5.9384904E-03;  0.0000000E+00; -2.6781145E-03;  0.0000000E+00;  0.0000000E+00;  0.0000000E+00;1;  3.8217708E-02;  2.9099921E+02;  0.0000000E+00; -3.7006807E-01;  1.0000000E+02;  0.0000000E+00;  9.3240944E+01;  3.1220643E-02;  0.0000000E+00;  6.9970661E-03;  0.0000000E+00;
  5.9094090E+00;  9.9999998E-03;  6.2001824E-01;459;  1.5524343E-01;  0.0000000E+00;  3.6056852E-03;  9.9881830E+00;  2.4320775E-01; -1.0506082E+00;3;  3.8911784E-03;  0.0000000E+00;  1.6781152E-03;  0.0000000E+00;  0.0000000E+00;  0.0000000E+00;1;  3.9223999E-02;  2.8965891E+02;  0.0000000E+00; -2.9627717E-01;  1.0000000E+02;  0.0000000E+00;  9.3162048E+01;  3.2342970E-02;  0.0000000E+00;  6.8810303E-03;  0.0000000E+00;
  5.9066782E+00;  9.9999998E-03;  8.2794917E-01;460;  1.5182474E-01;  0.0000000E+00;  5.5620307E-03;  9.9881496E+00;  2.4413477E-01; -1.0535756E+00;3;  6.1480952E-03;  0.0000000E+00; -3.4975982E-03;  0.0000000E+00;  0.0000000E+00;  0.0000000E+00;1;  3.9341941E-02;  2.8792303E+02;  0.0000000E+00; -2.3876110E-02;  1.0000000E+02;  0.0000000E+00;  9.3013618E+01;  3.2064397E-02;  0.0000000E+00;  7.2775446E-03;  0.0000000E+00;
  5.8834157E+00;  9.9999998E-03;  1.0350443E+00;461;  1.4895068E-01;  0.0000000E+00;  7.3382659E-03;  9.9882641E+00;  2.4270543E-01; -1.0434015E+00;3;  3.5207630E-03;  0.0000000E+00;  1.2123147E-03;  0.0000000E+00;  0.0000000E+00;  0.0000000E+00;1;  3.9993882E-02;  2.9069989E+02;  0.0000000E+00;  1.4299960E-01;  1.0000000E+02;  0.0000000E+00;  9.3214134E+01;  3.2616962E-02;  0.0000000E+00;  7.3769190E-03;  0.0000000E+00;
  5.0400519E+00;  9.9999998E-03;  1.0502838E+00;495;  1.1414243E-01;  0.0000000E+00;  1.1470649E-02;  9.9874744E+00;  2.6313296E-01; -1.1136239E+00;3; -2.1492610E-04;  0.0000000E+00;  8.9355826E-04; -4.3160208E+08; -4.3160208E+08; -4.3160208E+08;1;  6.1815761E-02;  2.5461130E+02;  0.0000000E+00;  1.6697324E-03;  1.0000000E+02;  0.0000000E+00;  9.0532310E+01;  5.0757993E-02;  0.0000000E+00;  1.1057766E-02;  0.0000000E+00;
  4.7697444E+00;  9.9999998E-03;  1.0507411E+00;497;  9.8797403E-02;  0.0000000E+00;  1.1551087E-02;  9.9878111E+00;  2.6300320E-01; -1.0838560E+00;3;  5.9632288E-04;  0.0000000E+00;  1.4597686E-03; -4.3160208E+08; -4.3160208E+08; -4.3160208E+08;1;  6.1130237E-02;  2.5482106E+02;  0.0000000E+00;  4.8130278E-02;  1.0000000E+02;  0.0000000E+00;  9.0551453E+01;  5.0171107E-02;  0.0000000E+00;  1.0959129E-02;  0.0000000E+00;
  4.7704916E+00;  9.9999998E-03;  8.4167159E-01;499;  9.8007016E-02;  0.0000000E+00;  9.4984602E-03;  9.9878235E+00;  2.6277515E-01; -1.0827422E+00;3; -6.5504544E-04;  0.0000000E+00; -9.7410835E-04; -4.3160208E+08; -4.3160208E+08; -4.3160208E+08;1;  6.1034363E-02;  2.5518842E+02;  0.0000000E+00;  1.5155558E-02;  1.0000000E+02;  0.0000000E+00;  9.0578575E+01;  5.0033700E-02;  0.0000000E+00;  1.1000664E-02;  0.0000000E+00;
  5.0359249E+00;  9.9999998E-03;  8.4152192E-01;501;  1.1410864E-01;  0.0000000E+00;  9.5585957E-03;  9.9875345E+00;  2.6273939E-01; -1.1083255E+00;3;  1.6732050E-04;  0.0000000E+00; -7.8535208E-04; -4.3160208E+08; -4.3160208E+08; -4.3160208E+08;1;  6.1546303E-02;  2.5524377E+02;  0.0000000E+00; -6.8730586E-03;  1.0000000E+02;  0.0000000E+00;  9.0579208E+01;  5.0401036E-02;  0.0000000E+00;  1.1145266E-02;  0.0000000E+00;
  4.7741179E+00;  9.9999998E-03;  6.3267499E-01;503;  9.9188425E-02;  0.0000000E+00;  7.3884698E-03;  9.9878550E+00;  2.6251560E-01; -1.0799308E+00;3; -8.9753285E-04;  0.0000000E+00;  3.6235672E-04; -4.3160208E+08; -4.3160208E+08; -4.3160208E+08;1;  6.0886208E-02;  2.5559926E+02;  0.0000000E+00;  6.8293093E-03;  1.0000000E+02;  0.0000000E+00;  9.0611481E+01;  4.9920764E-02;  0.0000000E+00;  1.0965443E-02;  0.0000000E+00;
  5.0313725E+00;  9.9999998E-03;  6.3315916E-01;505;  1.1382280E-01;  0.0000000E+00;  7.5369691E-03;  9.9876814E+00;  2.6225019E-01; -1.0952370E+00;3;  3.0109746E-04;  0.0000000E+00;  5.0889037E-04; -4.3160208E+08; -4.3160208E+08; -4.3160208E+08;1;  6.0869612E-02;  2.5603333E+02;  0.0000000E+00; -1.6761728E-02;  1.0000000E+02;  0.0000000E+00;  9.0639107E+01;  4.9906023E-02;  0.0000000E+00;  1.0963587E-02;  0.0000000E+00;
  4.7802944E+00;  9.9999998E-03;  4.2318717E-01;507;  1.0169498E-01;  0.0000000E+00;  5.2396446E-03;  9.9878759E+00;  2.6228490E-01; -1.0780714E+00;3; -5.8929750E-04;  0.0000000E+00; -1.1456579E-03; -4.3160208E+08; -4.3160208E+08; -4.3160208E+08;1;  6.0784511E-02;  2.5597861E+02;  0.0000000E+00;  4.0250965E-03;  1.0000000E+02;  0.0000000E+00;  9.0637199E+01;  4.9796429E-02;  0.0000000E+00;  1.0988081E-02;  0.0000000E+00;
  4.7886872E+00;  9.9999998E-03;  2.1126553E-01;509;  1.0577659E-01;  0.0000000E+00;  1.3910481E-03;  9.9879303E+00;  2.6210505E-01; -1.0732427E+00;3; -2.3598800E-04;  0.0000000E+00;  7.0059160E-04; -4.3160208E+08; -4.3160208E+08; -4.3160208E+08;1;  6.0510010E-02;  2.5624051E+02;  0.0000000E+00;  1.0341639E-03;  1.0000000E+02;  0.0000000E+00;  9.0669220E+01;  4.9697127E-02;  0.0000000E+00;  1.0812884E-02;  0.0000000E+00;
  4.9109287E+00;  9.9999998E-03;  1.6482023E-08;510;  1.0984682E-01;  0.0000000E+00; -1.5651471E-08;  9.9879694E+00;  2.6188663E-01; -1.0696800E+00;3;  1.9921716E-03;  0.0000000E+00;  2.0381653E-06; -4.3160208E+08; -4.3160208E+08; -4.3160208E+08;1;  6.0104374E-02;  2.5667056E+02;  0.0000000E+00;  8.4836749E-13;  1.0000000E+02;  0.0000000E+00;  9.0669075E+01;  4.9219459E-02;  0.0000000E+00;  1.0884915E-02;  0.0000000E+00;
  5.0302305E+00;  9.9999998E-03;  4.2485735E-01;512;  1.1447839E-01;  0.0000000E+00;  5.5906344E-03;  9.9878178E+00;  2.6176414E-01; -1.0831016E+00;3;  6.6724065E-04;  0.0000000E+00; -4.0491536E-04; -4.3160208E+08; -4.3160208E+08; -4.3160208E+08;1;  6.0193900E-02;  2.5683389E+02;  0.0000000E+00; -6.3778525E-03;  1.0000000E+02;  0.0000000E+00;  9.0694702E+01;  4.9303271E-02;  0.0000000E+00;  1.0890630E-02;  0.0000000E+00;
  5.0311522E+00;  9.9999998E-03;  2.1629730E-01;514;  1.1638033E-01;  0.0000000E+00;  2.3498556E-03;  9.9879684E+00;  2.6138240E-01; -1.0697467E+00;3;  1.6140639E-03;  0.0000000E+00; -6.5643108E-04; -4.3160208E+08; -4.3160208E+08; -4.3160208E+08;1;  5.9436932E-02;  2.5749118E+02;  0.0000000E+00; -6.0842215E-04;  1.0000000E+02;  0.0000000E+00;  9.0730087E+01;  4.8757587E-02;  0.0000000E+00;  1.0679347E-02;  0.0000000E+00;
  5.1459570E+00;  9.9999998E-03;  2.7559862E-08;515;  1.1574596E-01;  0.0000000E+00; -1.0683095E-07;  9.9880962E+00;  2.6055303E-01; -1.0583297E+00;3;  1.0999781E-03;  0.0000000E+00;  1.8453929E-06; -4.3160208E+08; -4.3160208E+08; -4.3160208E+08;1;  5.7736289E-02;  2.5867242E+02;  0.0000000E+00; -2.1120004E-13;  1.0000000E+02;  0.0000000E+00;  9.0893250E+01;  4.7281109E-02;  0.0000000E+00;  1.0455180E-02;  0.0000000E+00;
  4.5233116E+00;  9.9999998E-03;  1.0494349E+00;517;  8.6796813E-02;  0.0000000E+00;  1.1210153E-02;  9.9880819E+00;  2.6063532E-01; -1.0600407E+00;3; -5.3790736E-04;  0.0000000E+00;  1.4810052E-03; -4.3160208E+08; -4.3160208E+08; -4.3160208E+08;1;  5.8753747E-02;  2.5861792E+02;  0.0000000E+00;  2.8050220E-02;  1.0000000E+02;  0.0000000E+00;  9.0854813E+01;  4.8214640E-02;  0.0000000E+00;  1.0539108E-02;  0.0000000E+00;
  4.5259900E+00;  9.9999998E-03;  8.4031659E-01;519;  8.7320261E-02;  0.0000000E+00;  9.1629820E-03;  9.9880276E+00;  2.6062843E-01; -1.0648601E+00;3; -9.0949470E-04;  0.0000000E+00; -8.6322805E-04; -4.3160208E+08; -4.3160208E+08; -4.3160208E+08;1;  5.8999404E-02;  2.5862888E+02;  0.0000000E+00;  1.0866590E-02;  1.0000000E+02;  0.0000000E+00;  9.0854797E+01;  4.8403740E-02;  0.0000000E+00;  1.0595664E-02;  0.0000000E+00;
  4.6655822E+00;  9.9999998E-03;  2.6806973E-08;521;  9.8381542E-02;  0.0000000E+00;  6.5360346E-08;  9.9878941E+00;  2.6098323E-01; -1.0765297E+00;3;  1.0256781E-03;  0.0000000E+00;  1.5277257E-06; -4.3160208E+08; -4.3160208E+08; -4.3160208E+08;1;  6.0452074E-02;  2.5819403E+02;  0.0000000E+00;  4.5123342E-13;  1.0000000E+02;  0.0000000E+00;  9.0758560E+01;  4.9536437E-02;  0.0000000E+00;  1.0915636E-02;  0.0000000E+00;
  4.5300608E+00;  9.9999998E-03;  6.3103092E-01;522;  8.8599972E-02;  0.0000000E+00;  7.1468633E-03;  9.9879646E+00;  2.6064470E-01; -1.0704719E+00;3; -1.0200820E-03;  0.0000000E+00;  2.3080736E-05; -4.3160208E+08; -4.3160208E+08; -4.3160208E+08;1;  5.9342697E-02;  2.5859601E+02;  0.0000000E+00;  2.7825406E-03;  1.0000000E+02;  0.0000000E+00;  9.0854065E+01;  4.8635397E-02;  0.0000000E+00;  1.0707299E-02;  0.0000000E+00;
  4.6520796E+00;  9.9999998E-03;  4.2101422E-01;524;  9.0913847E-02;  0.0000000E+00;  4.9204109E-03;  9.9879322E+00;  2.6086167E-01; -1.0731527E+00;3; -9.6287730E-04;  0.0000000E+00; -7.6791499E-04; -4.3160208E+08; -4.3160208E+08; -4.3160208E+08;1;  6.0207956E-02;  2.5824918E+02;  0.0000000E+00;  4.2777008E-04;  1.0000000E+02;  0.0000000E+00;  9.0823723E+01;  4.9347632E-02;  0.0000000E+00;  1.0860322E-02;  0.0000000E+00;
  4.6580734E+00;  9.9999998E-03;  2.0780332E-01;526;  9.3602583E-02;  0.0000000E+00;  1.5377755E-03;  9.9879303E+00;  2.6084393E-01; -1.0733578E+00;3; -8.5874699E-04;  0.0000000E+00;  4.9801311E-04; -4.3160208E+08; -4.3160208E+08; -4.3160208E+08;1;  6.0240813E-02;  2.5824457E+02;  0.0000000E+00;  2.9394354E-04;  1.0000000E+02;  0.0000000E+00;  9.0838142E+01;  4.9436674E-02;  0.0000000E+00;  1.0804141E-02;  0.0000000E+00;
  5.3305936E+00;  9.9999998E-03;  1.0473369E+00;528;  1.3745596E-01;  0.0000000E+00;  1.0687226E-02;  9.9873352E+00;  2.5981629E-01; -1.1259801E+00;3;  3.3457656E-03;  0.0000000E+00; -1.5995505E-03; -4.3160208E+08; -4.3160208E+08; -4.3160208E+08;1;  5.8568597E-02;  2.5996555E+02;  0.0000000E+00; -2.7316758E-01;  1.0000000E+02;  0.0000000E+00;  9.0944885E+01;  4.8036240E-02;  0.0000000E+00;  1.0532356E-02;  0.0000000E+00;
  5.3155041E+00;  9.9999998E-03;  8.3868098E-01;530;  1.2833321E-01;  0.0000000E+00;  8.8255964E-03;  9.9875603E+00;  2.5897720E-01; -1.1059504E+00;3; -3.2230763E-04;  0.0000000E+00; -1.0370654E-03; -4.3160208E+08; -4.3160208E+08; -4.3160208E+08;1;  5.7830140E-02;  2.6135800E+02;  0.0000000E+00;  1.5666905E-01;  1.0000000E+02;  0.0000000E+00;  9.1049782E+01;  4.7356937E-02;  0.0000000E+00;  1.0473201E-02;  0.0000000E+00;
  5.3083348E+00;  9.9999998E-03;  6.3082421E-01;532;  1.3408439E-01;  0.0000000E+00;  6.9895177E-03;  9.9877291E+00;  2.5832149E-01; -1.0909541E+00;3;  2.8788489E-03;  0.0000000E+00; -3.0810433E-04; -4.3160208E+08; -4.3160208E+08; -4.3160208E+08;1;  5.7172708E-02;  2.6245816E+02;  0.0000000E+00; -1.8463312E-02;  1.0000000E+02;  0.0000000E+00;  9.1131691E+01;  4.6875071E-02;  0.0000000E+00;  1.0297637E-02;  0.0000000E+00;
  5.2981238E+00;  9.9999998E-03;  4.2330718E-01;534;  1.3189286E-01;  0.0000000E+00;  5.0799316E-03;  9.9879599E+00;  2.5772375E-01; -1.0704470E+00;3;  2.1884739E-03;  0.0000000E+00;  8.4968418E-04; -4.3160208E+08; -4.3160208E+08; -4.3160208E+08;1;  5.6284916E-02;  2.6347177E+02;  0.0000000E+00; -7.0480473E-02;  1.0000000E+02;  0.0000000E+00;  9.1205261E+01;  4.6159338E-02;  0.0000000E+00;  1.0125577E-02;  0.0000000E+00;
  4.4086289E+00;  9.9999998E-03;  3.3882685E-08;535;  8.0886289E-02;  0.0000000E+00;  9.4217107E-08;  9.9878206E+00;  2.5859374E-01; -1.0835984E+00;3; -1.1664372E-03;  0.0000000E+00;  6.9885874E-07; -4.3160208E+08; -4.3160208E+08; -4.3160208E+08;1;  5.8963303E-02;  2.6204788E+02;  0.0000000E+00; -1.2349710E-12;  1.0000000E+02;  0.0000000E+00;  9.1082329E+01;  4.8374571E-02;  0.0000000E+00;  1.0588733E-02;  0.0000000E+00;
  4.4071212E+00;  9.9999998E-03;  2.0693807E-01;537;  7.9859547E-02;  0.0000000E+00;  1.9152210E-03;  9.9878559E+00;  2.5844216E-01; -1.0804212E+00;3; -1.1434390E-03;  0.0000000E+00;  9.1361179E-04; -4.3160208E+08; -4.3160208E+08; -4.3160208E+08;1;  5.8780033E-02;  2.6212183E+02;  0.0000000E+00;  2.7123556E-04;  1.0000000E+02;  0.0000000E+00;  9.1164459E+01;  4.8263684E-02;  0.0000000E+00;  1.0516349E-02;  0.0000000E+00;
  5.2827311E+00;  9.9999998E-03;  2.1677275E-01;543;  1.2655908E-01;  0.0000000E+00;  3.7007208E-03;  9.9881105E+00;  2.5735575E-01; -1.0570412E+00;3;  1.0107615E-03;  0.0000000E+00; -7.0350274E-04; -4.3160208E+08; -4.3160208E+08; -4.3160208E+08;1;  5.5812091E-02;  2.6414697E+02;  0.0000000E+00; -3.0979937E-02;  1.0000000E+02;  0.0000000E+00;  9.1234886E+01;  4.5663729E-02;  0.0000000E+00;  1.0148362E-02;  0.0000000E+00;
  5.3907433E+00;  9.9999998E-03; -5.0983830E-09;548;  1.2528914E-01;  0.0000000E+00; -2.3168953E-07;  9.9883242E+00;  2.5623173E-01; -1.0380620E+00;3;  1.9464162E-03;  0.0000000E+00; -2.0036532E-07; -4.3160208E+08; -4.3160208E+08; -4.3160208E+08;1;  5.2933313E-02;  2.6576392E+02;  0.0000000E+00;  1.9963131E-12;  1.0000000E+02;  0.0000000E+00;  9.1480621E+01;  4.3394253E-02;  0.0000000E+00;  9.5390594E-03;  0.0000000E+00;
  5.5548048E+00;  9.9999998E-03;  8.3381975E-01;561;  1.3932826E-01;  0.0000000E+00;  7.6495335E-03;  9.9878559E+00;  2.5223601E-01; -1.0796535E+00;3;  3.0967055E-03;  0.0000000E+00; -1.5359288E-03; -4.3160208E+08; -4.3160208E+08; -4.3160208E+08;1;  5.1325478E-02;  2.7291745E+02;  0.0000000E+00;  1.0220467E-01;  1.0000000E+02;  0.0000000E+00;  9.1920113E+01;  4.1947786E-02;  0.0000000E+00;  9.3776910E-03;  0.0000000E+00;
  5.5363812E+00;  9.9999998E-03;  1.0419691E+00;563;  1.3946134E-01;  0.0000000E+00;  9.5122457E-03;  9.9876499E+00;  2.5211334E-01; -1.0979892E+00;3;  4.2268503E-03;  0.0000000E+00; -2.2539231E-03; -4.3160208E+08; -4.3160208E+08; -4.3160208E+08;1;  5.2593268E-02;  2.7312708E+02;  0.0000000E+00; -2.2783931E-01;  1.0000000E+02;  0.0000000E+00;  9.1936005E+01;  4.3177951E-02;  0.0000000E+00;  9.4153192E-03;  0.0000000E+00;
  5.5611434E+00;  9.9999998E-03;  6.2589294E-01;565;  1.4815663E-01;  0.0000000E+00;  5.6698332E-03;  9.9880333E+00;  2.5144142E-01; -1.0639148E+00;3;  6.4849518E-03;  0.0000000E+00;  4.8780413E-03; -4.3160208E+08; -4.3160208E+08; -4.3160208E+08;1;  5.0496913E-02;  2.7431134E+02;  0.0000000E+00; -1.2651399E-01;  1.0000000E+02;  0.0000000E+00;  9.2034409E+01;  4.1461073E-02;  0.0000000E+00;  9.0358416E-03;  0.0000000E+00;
  5.5794578E+00;  9.9999998E-03;  4.1867951E-01;571;  1.5190566E-01;  0.0000000E+00;  4.1420981E-03;  9.9883232E+00;  2.5060678E-01; -1.0381073E+00;3;  2.8393429E-03;  0.0000000E+00; -8.9391391E-04; -4.3160208E+08; -4.3160208E+08; -4.3160208E+08;1;  4.8737824E-02;  2.7584122E+02;  0.0000000E+00; -4.1545205E-02;  1.0000000E+02;  0.0000000E+00;  9.2139908E+01;  3.9825849E-02;  0.0000000E+00;  8.9119766E-03;  0.0000000E+00;
  5.5641241E+00;  9.9999998E-03;  2.1113397E-01;579;  1.4359671E-01;  0.0000000E+00;  3.3099160E-03;  9.9885416E+00;  2.4973845E-01; -1.0187126E+00;3; -7.5894396E-04;  0.0000000E+00; -5.5580382E-04; -4.3160208E+08; -4.3160208E+08; -4.3160208E+08;1;  4.8200317E-02;  2.7744080E+02;  0.0000000E+00; -6.6757269E-02;  1.0000000E+02;  0.0000000E+00;  9.2249641E+01;  3.9299794E-02;  0.0000000E+00;  8.9005250E-03;  0.0000000E+00;
  5.6544962E+00;  9.9999998E-03;  1.0780609E-07;581;  1.3557881E-01;  0.0000000E+00; -1.8896753E-07;  9.9887819E+00;  2.4885119E-01; -9.9735498E-01;3; -9.6834346E-04;  0.0000000E+00; -4.5910710E-06; -4.3160208E+08; -4.3160208E+08; -4.3160208E+08;1;  4.4915970E-02;  2.7899078E+02;  0.0000000E+00;  6.6658727E-12;  1.0000000E+02;  0.0000000E+00;  9.2395340E+01;  3.6752272E-02;  0.0000000E+00;  8.1636989E-03;  0.0000000E+00;
  5.7900414E+00;  9.9999998E-03;  8.2831007E-01;591;  1.5024270E-01;  0.0000000E+00;  6.6103213E-03;  9.9878387E+00;  2.4465983E-01; -1.0811855E+00;3;  3.4427345E-03;  0.0000000E+00; -3.9518615E-03; -4.3160208E+08; -4.3160208E+08; -4.3160208E+08;1;  4.4484455E-02;  2.8689661E+02;  0.0000000E+00; -4.0127847E-02;  1.0000000E+02;  0.0000000E+00;  9.2940598E+01;  3.5981849E-02;  0.0000000E+00;  8.5026054E-03;  0.0000000E+00;
  5.7927971E+00;  9.9999998E-03;  6.2045676E-01;596;  1.5344161E-01;  0.0000000E+00;  4.7890344E-03;  9.9880562E+00;  2.4355559E-01; -1.0618434E+00;3;  5.1779859E-03;  0.0000000E+00; -2.2114059E-03; -4.3160208E+08; -4.3160208E+08; -4.3160208E+08;1;  4.3591950E-02;  2.8899573E+02;  0.0000000E+00; -3.0581391E-01;  1.0000000E+02;  0.0000000E+00;  9.3106461E+01;  3.5502043E-02;  0.0000000E+00;  8.0899075E-03;  0.0000000E+00;
  5.7666407E+00;  9.9999998E-03;  1.0352234E+00;598;  1.4598560E-01;  0.0000000E+00;  7.8682732E-03;  9.9881268E+00;  2.4307095E-01; -1.0555907E+00;3;  8.7701669E-04;  0.0000000E+00;  1.2449767E-03; -4.3160208E+08; -4.3160208E+08; -4.3160208E+08;1;  4.4123929E-02;  2.8998923E+02;  0.0000000E+00;  1.4822885E-01;  1.0000000E+02;  0.0000000E+00;  9.3159424E+01;  3.6389757E-02;  0.0000000E+00;  7.7341716E-03;  0.0000000E+00;
  5.8001504E+00;  9.9999998E-03;  4.1362193E-01;600;  1.5559161E-01;  0.0000000E+00;  3.0794381E-03;  9.9884138E+00;  2.4279746E-01; -1.0300485E+00;3;  3.7366729E-03;  0.0000000E+00;  7.7438459E-04; -4.3160208E+08; -4.3160208E+08; -4.3160208E+08;1;  4.2061754E-02;  2.9049054E+02;  0.0000000E+00; -3.7559652E-01;  1.0000000E+02;  0.0000000E+00;  9.3215500E+01;  3.4357663E-02;  0.0000000E+00;  7.7040903E-03;  0.0000000E+00;
  5.7939658E+00;  9.9999998E-03;  2.0640014E-01;604;  1.4849138E-01;  0.0000000E+00;  4.5566270E-04;  9.9889460E+00;  2.4162364E-01; -9.8278010E-01;3; -9.5237046E-05;  0.0000000E+00; -1.6687089E-03; -4.3160208E+08; -4.3160208E+08; -4.3160208E+08;1;  4.0310662E-02;  2.9284821E+02;  0.0000000E+00; -2.0929451E-01;  1.0000000E+02;  0.0000000E+00;  9.3373055E+01;  3.3018477E-02;  0.0000000E+00;  7.2921850E-03;  0.0000000E+00;
  5.8990111E+00;  9.9999998E-03; -1.0732116E-07;605;  1.4754845E-01;  0.0000000E+00; -5.9178753E-08;  9.9891968E+00;  2.4093997E-01; -9.6046984E-01;3;  4.7549503E-03;  0.0000000E+00; -8.4377825E-06; -4.3160208E+08; -4.3160208E+08; -4.3160208E+08;1;  3.6156919E-02;  2.9438214E+02;  0.0000000E+00; -8.3921039E-12;  1.0000000E+02;  0.0000000E+00;  9.3417862E+01;  2.9384090E-02;  0.0000000E+00;  6.7728302E-03;  0.0000000E+00;
  6.0481958E+00;  9.9999998E-03;  1.0282811E+00;472;  1.5274578E-01;  0.0000000E+00;  6.0602217E-03;  9.9882374E+00;  4.6827540E-01; -1.0457323E+00;3;  7.0087537E-03;  0.0000000E+00; -5.5807959E-03;  0.0000000E+00;  0.0000000E+00;  0.0000000E+00;0;  3.3673823E-02;  7.7075798E+01;  0.0000000E+00; -3.0473296E-02;  1.0000000E+02;  0.0000000E+00;  9.4441399E+01;  2.7568517E-02;  0.0000000E+00;  6.1053042E-03;  0.0000000E+00;
  6.0548472E+00;  9.9999998E-03;  8.2111716E-01;471;  1.5303548E-01;  0.0000000E+00;  4.4640950E-03;  9.9887123E+00;  4.6775070E-01; -1.0035510E+00;3;  4.9782707E-03;  0.0000000E+00; -6.9271866E-04;  0.0000000E+00;  0.0000000E+00;  0.0000000E+00;0;  3.2241631E-02;  7.7228714E+01;  0.0000000E+00; -1.0632777E-02;  1.0000000E+02;  0.0000000E+00;  9.4475357E+01;  2.6198940E-02;  0.0000000E+00;  6.0426919E-03;  0.0000000E+00;
  6.0635538E+00;  9.9999998E-03;  2.0139948E-01;468;  1.5564485E-01;  0.0000000E+00;  1.2001806E-03;  9.9886560E+00;  4.6661690E-01; -1.0085322E+00;3;  5.9416210E-03;  0.0000000E+00;  3.4155603E-04;  0.0000000E+00;  0.0000000E+00;  0.0000000E+00;0;  3.2057837E-02;  7.7547302E+01;  0.0000000E+00;  4.0168744E-02;  1.0000000E+02;  0.0000000E+00;  9.4543526E+01;  2.6039556E-02;  0.0000000E+00;  6.0182805E-03;  0.0000000E+00;
  6.0647879E+00;  9.9999998E-03;  4.0805879E-01;469;  1.5700127E-01;  0.0000000E+00;  1.7105551E-03;  9.9882765E+00;  4.6800178E-01; -1.0422876E+00;3;  5.7145217E-03;  0.0000000E+00; -2.5935192E-04;  0.0000000E+00;  0.0000000E+00;  0.0000000E+00;0;  3.3063952E-02;  7.7163132E+01;  0.0000000E+00;  8.5542850E-02;  1.0000000E+02;  0.0000000E+00;  9.4445801E+01;  2.7064024E-02;  0.0000000E+00;  5.9999274E-03;  0.0000000E+00;
  6.0644193E+00;  9.9999998E-03;  6.1476427E-01;470;  1.5656227E-01;  0.0000000E+00;  3.1236282E-03;  9.9880352E+00;  4.6948302E-01; -1.0637492E+00;3;  4.5071668E-03;  0.0000000E+00;  7.5178407E-04;  0.0000000E+00;  0.0000000E+00;  0.0000000E+00;0;  3.3771455E-02;  7.6756485E+01;  0.0000000E+00;  5.0831120E-02;  1.0000000E+02;  0.0000000E+00;  9.4344093E+01;  2.7574461E-02;  0.0000000E+00;  6.1969948E-03;  0.0000000E+00;
  6.0689058E+00;  9.9999998E-03;  6.9555853E-08;467;  1.5700027E-01;  0.0000000E+00; -2.0681723E-07;  9.9885368E+00;  4.6751267E-01; -1.0191303E+00;3;  5.1787049E-03;  0.0000000E+00; -2.0192470E-05;  0.0000000E+00;  0.0000000E+00;  0.0000000E+00;0;  3.2167859E-02;  7.7313461E+01;  0.0000000E+00; -5.2855368E-12;  1.0000000E+02;  0.0000000E+00;  9.4464592E+01;  2.6336709E-02;  0.0000000E+00;  5.8311513E-03;  0.0000000E+00;
  6.2666802E+00;  9.9999998E-03;  4.0122855E-01;479;  1.5654655E-01;  0.0000000E+00;  2.3058026E-04;  9.9888783E+00;  4.4724187E-01; -9.8876584E-01;3;  5.7528117E-03;  0.0000000E+00;  5.3919316E-04;  0.0000000E+00;  0.0000000E+00;  0.0000000E+00;0;  2.3447743E-02;  8.3104446E+01;  0.0000000E+00;  7.0169643E-02;  1.0000000E+02;  0.0000000E+00;  9.6035728E+01;  1.9220978E-02;  0.0000000E+00;  4.2267647E-03;  0.0000000E+00;
  6.2658153E+00;  9.9999998E-03;  6.0780859E-01;480;  1.5589418E-01;  0.0000000E+00;  1.5695059E-03;  9.9891243E+00;  4.4735467E-01; -9.6688044E-01;3;  4.5329193E-03;  0.0000000E+00;  5.7987683E-04;  0.0000000E+00;  0.0000000E+00;  0.0000000E+00;0;  2.2926450E-02;  8.3060951E+01;  0.0000000E+00; -4.3834191E-02;  1.0000000E+02;  0.0000000E+00;  9.6041115E+01;  1.8699819E-02;  0.0000000E+00;  4.2266310E-03;  0.0000000E+00;
  6.2715826E+00;  9.9999998E-03;  8.1590056E-01;481;  1.5725718E-01;  0.0000000E+00;  3.6288747E-03;  9.9874678E+00;  4.5327520E-01; -1.1141964E+00;3;  9.0325046E-03;  0.0000000E+00; -4.5628361E-03;  0.0000000E+00;  0.0000000E+00;  0.0000000E+00;0;  2.6111886E-02;  8.1273987E+01;  0.0000000E+00; -5.6086745E-02;  1.0000000E+02;  0.0000000E+00;  9.5576942E+01;  2.0875752E-02;  0.0000000E+00;  5.2361330E-03;  0.0000000E+00;
  6.2767410E+00;  9.9999998E-03;  1.9937864E-01;478;  1.5792315E-01;  0.0000000E+00; -1.7125896E-04;  9.9880514E+00;  4.5182079E-01; -1.0622649E+00;3;  5.9611043E-03;  0.0000000E+00; -7.9991296E-06;  0.0000000E+00;  0.0000000E+00;  0.0000000E+00;0;  2.4688216E-02;  8.1753593E+01;  0.0000000E+00;  3.0833095E-02;  1.0000000E+02;  0.0000000E+00;  9.5639816E+01;  2.0133395E-02;  0.0000000E+00;  4.5548212E-03;  0.0000000E+00;
  6.2811623E+00;  9.9999998E-03;  1.1791731E-07;477;  1.5886733E-01;  0.0000000E+00; -3.0641893E-08;  9.9875355E+00;  4.5371720E-01; -1.1081554E+00;3;  5.8730124E-03;  0.0000000E+00; -3.3215620E-05;  0.0000000E+00;  0.0000000E+00;  0.0000000E+00;0;  2.5538132E-02;  8.1206139E+01;  0.0000000E+00; -1.9323503E-12;  1.0000000E+02;  0.0000000E+00;  9.5473755E+01;  2.0832118E-02;  0.0000000E+00;  4.7060130E-03;  0.0000000E+00;
  6.4773345E+00;  9.9999998E-03;  3.9921132E-01;487;  1.5802489E-01;  0.0000000E+00; -3.0862197E-04;  9.9877949E+00;  4.3312252E-01; -1.0851039E+00;3;  6.6655222E-03;  0.0000000E+00; -2.4208706E-04;  0.0000000E+00;  0.0000000E+00;  0.0000000E+00;0;  1.5714983E-02;  8.7587669E+01;  0.0000000E+00; -1.2487876E-01;  1.0000000E+02;  0.0000000E+00;  9.7140533E+01;  1.2819498E-02;  0.0000000E+00;  2.8954854E-03;  0.0000000E+00;
  6.4852624E+00;  9.9999998E-03;  6.0682052E-01;488;  1.6105779E-01;  0.0000000E+00;  1.1310205E-03;  9.9836569E+00;  4.4068226E-01; -1.4529699E+00;3;  1.6618095E-02;  0.0000000E+00; -1.0397367E-02;  0.0000000E+00;  0.0000000E+00;  0.0000000E+00;0;  2.0950679E-02;  8.5065804E+01;  0.0000000E+00; -9.4758883E-02;  1.0000000E+02;  0.0000000E+00;  9.6543549E+01;  1.7617691E-02;  0.0000000E+00;  3.3329884E-03;  0.0000000E+00;
  6.4848099E+00;  9.9999998E-03;  1.9756900E-01;486;  1.5949757E-01;  0.0000000E+00; -7.3226105E-04;  9.9857550E+00;  4.3790936E-01; -1.2664403E+00;3;  6.3300738E-03;  0.0000000E+00; -1.4319271E-04;  0.0000000E+00;  0.0000000E+00;  0.0000000E+00;0;  1.7926892E-02;  8.6044617E+01;  0.0000000E+00; -1.8858835E-02;  1.0000000E+02;  0.0000000E+00;  9.6696991E+01;  1.4606081E-02;  0.0000000E+00;  3.3208106E-03;  0.0000000E+00;
  6.4897327E+00;  9.9999998E-03;  1.3735063E-07;485;  1.6082548E-01;  0.0000000E+00;  1.9142567E-07;  9.9837818E+00;  4.4127893E-01; -1.4418947E+00;3;  6.8063852E-03;  0.0000000E+00; -4.0475279E-05;  0.0000000E+00;  0.0000000E+00;  0.0000000E+00;0;  2.0037400E-02;  8.4968849E+01;  0.0000000E+00;  2.0167788E-11;  1.0000000E+02;  0.0000000E+00;  9.6395981E+01;  1.6337046E-02;  0.0000000E+00;  3.7003532E-03;  0.0000000E+00;
  6.6937671E+00;  9.9999998E-03;  7.3027898E-08;491;  1.6193558E-01;  0.0000000E+00; -2.7514412E-07;  9.9630728E+00;  4.2865235E-01; -3.2830257E+00;3;  4.8211492E-03;  0.0000000E+00; -4.2922795E-05;  0.0000000E+00;  0.0000000E+00;  0.0000000E+00;0;  1.5031484E-02;  8.8957474E+01;  0.0000000E+00;  4.9064412E-11;  1.0000000E+02;  0.0000000E+00;  9.7195442E+01;  1.2170956E-02;  0.0000000E+00;  2.8605284E-03;  0.0000000E+00;
  6.6879764E+00;  9.9999998E-03;  1.9596970E-01;492;  1.6075875E-01;  0.0000000E+00; -7.4266898E-04;  9.9704409E+00;  4.2419839E-01; -2.6279469E+00;3;  8.4539484E-03;  0.0000000E+00; -1.0893568E-03;  0.0000000E+00;  0.0000000E+00;  0.0000000E+00;0;  1.2858576E-02;  9.0513229E+01;  0.0000000E+00; -1.2094121E-01;  1.0000000E+02;  0.0000000E+00;  9.7674591E+01;  1.0429728E-02;  0.0000000E+00;  2.4288483E-03;  0.0000000E+00;
  6.6900568E+00;  9.9999998E-03;  4.0091869E-01;493;  1.6093020E-01;  0.0000000E+00;  4.3299465E-04;  9.9638882E+00;  4.2706826E-01; -3.2105336E+00;3;  1.6049519E-03;  0.0000000E+00;  7.8230388E-03;  0.0000000E+00;  0.0000000E+00;  0.0000000E+00;0;  1.3990189E-02;  8.9378334E+01;  0.0000000E+00; -1.6114260E-01;  1.0000000E+02;  0.0000000E+00;  9.7468384E+01;  1.1112127E-02;  0.0000000E+00;  2.8780617E-03;  0.0000000E+00;
