TimeStep;Np;Nbound;Nfixed;Nmoving;Nfloat;Nfluid
1.00086;494;165;165;0;0;329

Pos.x;Pos.y;Pos.z;Idp;Vel.x;Vel.y;Vel.z;Rhop;Mass;Press;Type;Acec.x;Acec.y;Acec.z;AceVisc.x;AceVisc.y;AceVisc.z;CellOffSpring;GradVel;Qfxx;Qfxy;Qfxz;Qfyy;Qfyz;Qfzz;StrainDot.x;StrainDot.y;StrainDot.z;VonMises3D;
 -1.0000000E+00;  9.9999998E-03; -2.0000000E+00;0;  0.0000000E+00;  0.0000000E+00;  0.0000000E+00;  1.0000000E+01;  4.0000001E-01;  0.0000000E+00;0;  0.0000000E+00;  0.0000000E+00;  0.0000000E+00;  0.0000000E+00;  0.0000000E+00;  0.0000000E+00;0; -1.2536244E-06;  1.0000000E+02;  0.0000000E+00;  0.0000000E+00;  1.0000000E+02;  0.0000000E+00;  1.0000000E+02; -1.2009542E-06;  0.0000000E+00; -5.2670213E-08;  0.0000000E+00;
 -8.0000001E-01;  9.9999998E-03; -2.0000000E+00;21;  0.0000000E+00;  0.0000000E+00;  0.0000000E+00;  1.0000000E+01;  4.0000001E-01;  0.0000000E+00;0;  0.0000000E+00;  0.0000000E+00;  0.0000000E+00;  0.0000000E+00;  0.0000000E+00;  0.0000000E+00;0; -3.5654268E-06;  1.0000000E+02;  0.0000000E+00;  0.0000000E+00;  1.0000000E+02;  0.0000000E+00;  1.0000000E+02; -3.5200974E-06;  0.0000000E+00; -4.5329461E-08;  0.0000000E+00;
 -6.0000002E-01;  9.9999998E-03; -2.0000000E+00;42;  0.0000000E+00;  0.0000000E+00;  0.0000000E+00;  1.0000000E+01;  4.0000001E-01;  0.0000000E+00;0;  0.0000000E+00;  0.0000000E+00;  0.0000000E+00;  0.0000000E+00;  0.0000000E+00;  0.0000000E+00;0; -6.1408095E-06;  1.0000000E+02;  0.0000000E+00;  0.0000000E+00;  1.0000000E+02;  0.0000000E+00;  1.0000000E+02; -6.2391264E-06;  0.0000000E+00;  9.8316647E-08;  0.0000000E+00;
 -4.0000001E-01;  9.9999998E-03; -2.0000000E+00;63;  0.0000000E+00;  0.0000000E+00;  0.0000000E+00;  1.0000092E+01;  4.0000001E-01;  9.8762335E-03;0;  0.0000000E+00;  0.0000000E+00;  0.0000000E+00;  0.0000000E+00;  0.0000000E+00;  0.0000000E+00;0; -7.7187033E-06;  1.0000000E+02;  0.0000000E+00;  0.0000000E+00;  1.0000000E+02;  0.0000000E+00;  1.0000000E+02; -8.1902235E-06;  0.0000000E+00;  4.7152011E-07;  0.0000000E+00;
 -2.0000000E-01;  9.9999998E-03; -2.0000000E+00;84;  0.0000000E+00;  0.0000000E+00;  0.0000000E+00;  1.0000140E+01;  4.0000001E-01;  1.5134957E-02;0;  0.0000000E+00;  0.0000000E+00;  0.0000000E+00;  0.0000000E+00;  0.0000000E+00;  0.0000000E+00;0; -7.4762320E-06;  1.0000000E+02;  0.0000000E+00;  0.0000000E+00;  1.0000000E+02;  0.0000000E+00;  1.0000000E+02; -8.6122336E-06;  0.0000000E+00;  1.1360015E-06;  0.0000000E+00;
  0.0000000E+00;  9.9999998E-03; -2.0000000E+00;105;  0.0000000E+00;  0.0000000E+00;  0.0000000E+00;  1.0000150E+01;  4.0000001E-01;  1.6160930E-02;0;  0.0000000E+00;  0.0000000E+00;  0.0000000E+00;  0.0000000E+00;  0.0000000E+00;  0.0000000E+00;0; -5.0318563E-06;  1.0000000E+02;  0.0000000E+00;  0.0000000E+00;  1.0000000E+02;  0.0000000E+00;  1.0000000E+02; -7.1049412E-06;  0.0000000E+00;  2.0730849E-06;  0.0000000E+00;
  2.0000000E-01;  9.9999998E-03; -2.0000000E+00;115;  0.0000000E+00;  0.0000000E+00;  0.0000000E+00;  1.0000134E+01;  4.0000001E-01;  1.4493283E-02;0;  0.0000000E+00;  0.0000000E+00;  0.0000000E+00;  0.0000000E+00;  0.0000000E+00;  0.0000000E+00;0;  7.1071213E-07;  1.0000000E+02;  0.0000000E+00;  0.0000000E+00;  1.0000000E+02;  0.0000000E+00;  1.0000000E+02; -2.3651064E-06;  0.0000000E+00;  3.0758185E-06;  0.0000000E+00;
  4.0000001E-01;  9.9999998E-03; -2.0000000E+00;125;  0.0000000E+00;  0.0000000E+00;  0.0000000E+00;  1.0000126E+01;  4.0000001E-01;  1.3594949E-02;0;  0.0000000E+00;  0.0000000E+00;  0.0000000E+00;  0.0000000E+00;  0.0000000E+00;  0.0000000E+00;0;  1.4595729E-05;  1.0000000E+02;  0.0000000E+00;  0.0000000E+00;  1.0000000E+02;  0.0000000E+00;  1.0000000E+02;  1.0658662E-05;  0.0000000E+00;  3.9370675E-06;  0.0000000E+00;
  6.0000002E-01;  9.9999998E-03; -2.0000000E+00;135;  0.0000000E+00;  0.0000000E+00;  0.0000000E+00;  1.0000035E+01;  4.0000001E-01;  3.8473001E-03;0;  0.0000000E+00;  0.0000000E+00;  0.0000000E+00;  0.0000000E+00;  0.0000000E+00;  0.0000000E+00;0;  4.6040055E-05;  1.0000000E+02;  0.0000000E+00;  0.0000000E+00;  1.0000000E+02;  0.0000000E+00;  1.0000000E+02;  4.1386735E-05;  0.0000000E+00;  4.6533205E-06;  0.0000000E+00;
  8.0000001E-01;  9.9999998E-03; -2.0000000E+00;145;  0.0000000E+00;  0.0000000E+00;  0.0000000E+00;  1.0000000E+01;  4.0000001E-01;  0.0000000E+00;0;  0.0000000E+00;  0.0000000E+00;  0.0000000E+00;  0.0000000E+00;  0.0000000E+00;  0.0000000E+00;0;  1.0664784E-04;  1.0000000E+02;  0.0000000E+00;  0.0000000E+00;  1.0000000E+02;  0.0000000E+00;  1.0000000E+02;  1.0129627E-04;  0.0000000E+00;  5.3515664E-06;  0.0000000E+00;
  1.0000000E+00;  9.9999998E-03; -2.0000000E+00;155;  0.0000000E+00;  0.0000000E+00;  0.0000000E+00;  1.0000000E+01;  4.0000001E-01;  0.0000000E+00;0;  0.0000000E+00;  0.0000000E+00;  0.0000000E+00;  0.0000000E+00;  0.0000000E+00;  0.0000000E+00;0;  2.0353000E-04;  1.0000000E+02;  0.0000000E+00;  0.0000000E+00;  1.0000000E+02;  0.0000000E+00;  1.0000000E+02;  1.9825539E-04;  0.0000000E+00;  5.2746100E-06;  0.0000000E+00;
 -1.0000000E+00;  9.9999998E-03; -1.8000000E+00;1;  0.0000000E+00;  0.0000000E+00;  0.0000000E+00;  1.0000000E+01;  4.0000001E-01;  0.0000000E+00;0;  0.0000000E+00;  0.0000000E+00;  0.0000000E+00;  0.0000000E+00;  0.0000000E+00;  0.0000000E+00;0; -3.6144252E-06;  1.0000000E+02;  0.0000000E+00;  0.0000000E+00;  1.0000000E+02;  0.0000000E+00;  1.0000000E+02; -3.5342152E-06;  0.0000000E+00; -8.0209951E-08;  0.0000000E+00;
 -1.0000000E+00;  9.9999998E-03; -1.6000000E+00;2;  0.0000000E+00;  0.0000000E+00;  0.0000000E+00;  1.0000038E+01;  4.0000001E-01;  4.1044196E-03;0;  0.0000000E+00;  0.0000000E+00;  0.0000000E+00;  0.0000000E+00;  0.0000000E+00;  0.0000000E+00;0; -7.8010989E-06;  1.0000000E+02;  0.0000000E+00;  0.0000000E+00;  1.0000000E+02;  0.0000000E+00;  1.0000000E+02; -7.7428786E-06;  0.0000000E+00; -5.8220383E-08;  0.0000000E+00;
 -1.0000000E+00;  9.9999998E-03; -1.4000000E+00;3;  0.0000000E+00;  0.0000000E+00;  0.0000000E+00;  1.0000267E+01;  4.0000001E-01;  2.8730936E-02;0;  0.0000000E+00;  0.0000000E+00;  0.0000000E+00;  0.0000000E+00;  0.0000000E+00;  0.0000000E+00;0; -1.4509805E-05;  1.0000000E+02;  0.0000000E+00;  0.0000000E+00;  1.0000000E+02;  0.0000000E+00;  1.0000000E+02; -1.4499025E-05;  0.0000000E+00; -1.0779056E-08;  0.0000000E+00;
 -1.0000000E+00;  9.9999998E-03; -1.2000000E+00;4;  0.0000000E+00;  0.0000000E+00;  0.0000000E+00;  1.0000445E+01;  4.0000001E-01;  4.7970403E-02;0;  0.0000000E+00;  0.0000000E+00;  0.0000000E+00;  0.0000000E+00;  0.0000000E+00;  0.0000000E+00;0; -2.3785064E-05;  1.0000000E+02;  0.0000000E+00;  0.0000000E+00;  1.0000000E+02;  0.0000000E+00;  1.0000000E+02; -2.3812883E-05;  0.0000000E+00;  2.7819372E-08;  0.0000000E+00;
 -1.0000000E+00;  9.9999998E-03; -1.0000000E+00;5;  0.0000000E+00;  0.0000000E+00;  0.0000000E+00;  1.0000577E+01;  4.0000001E-01;  6.2079348E-02;0;  0.0000000E+00;  0.0000000E+00;  0.0000000E+00;  0.0000000E+00;  0.0000000E+00;  0.0000000E+00;0; -3.4572087E-05;  1.0000000E+02;  0.0000000E+00;  0.0000000E+00;  1.0000000E+02;  0.0000000E+00;  1.0000000E+02; -3.4612374E-05;  0.0000000E+00;  4.0286501E-08;  0.0000000E+00;
 -1.0000000E+00;  9.9999998E-03; -8.0000001E-01;6;  0.0000000E+00;  0.0000000E+00;  0.0000000E+00;  1.0000774E+01;  4.0000001E-01;  8.3371021E-02;0;  0.0000000E+00;  0.0000000E+00;  0.0000000E+00;  0.0000000E+00;  0.0000000E+00;  0.0000000E+00;0; -4.5034136E-05;  1.0000000E+02;  0.0000000E+00;  0.0000000E+00;  1.0000000E+02;  0.0000000E+00;  1.0000000E+02; -4.5062538E-05;  0.0000000E+00;  2.8401956E-08;  0.0000000E+00;
 -1.0000000E+00;  9.9999998E-03; -6.0000002E-01;7;  0.0000000E+00;  0.0000000E+00;  0.0000000E+00;  1.0000950E+01;  4.0000001E-01;  1.0222570E-01;0;  0.0000000E+00;  0.0000000E+00;  0.0000000E+00;  0.0000000E+00;  0.0000000E+00;  0.0000000E+00;0; -5.3423028E-05;  1.0000000E+02;  0.0000000E+00;  0.0000000E+00;  1.0000000E+02;  0.0000000E+00;  1.0000000E+02; -5.3431369E-05;  0.0000000E+00;  8.3429503E-09;  0.0000000E+00;
 -1.0000000E+00;  9.9999998E-03; -4.0000001E-01;8;  0.0000000E+00;  0.0000000E+00;  0.0000000E+00;  1.0001063E+01;  4.0000001E-01;  1.1441070E-01;0;  0.0000000E+00;  0.0000000E+00;  0.0000000E+00;  0.0000000E+00;  0.0000000E+00;  0.0000000E+00;0; -5.8889778E-05;  1.0000000E+02;  0.0000000E+00;  0.0000000E+00;  1.0000000E+02;  0.0000000E+00;  1.0000000E+02; -5.8887774E-05;  0.0000000E+00; -2.0058206E-09;  0.0000000E+00;
 -1.0000000E+00;  9.9999998E-03; -2.0000000E-01;9;  0.0000000E+00;  0.0000000E+00;  0.0000000E+00;  1.0001125E+01;  4.0000001E-01;  1.2108038E-01;0;  0.0000000E+00;  0.0000000E+00;  0.0000000E+00;  0.0000000E+00;  0.0000000E+00;  0.0000000E+00;0; -6.1640072E-05;  1.0000000E+02;  0.0000000E+00;  0.0000000E+00;  1.0000000E+02;  0.0000000E+00;  1.0000000E+02; -6.1641142E-05;  0.0000000E+00;  1.0715091E-09;  0.0000000E+00;
 -8.0000001E-01;  9.9999998E-03; -1.8000000E+00;22;  0.0000000E+00;  0.0000000E+00;  0.0000000E+00;  1.0000087E+01;  4.0000001E-01;  9.3632042E-03;0;  0.0000000E+00;  0.0000000E+00;  0.0000000E+00;  0.0000000E+00;  0.0000000E+00;  0.0000000E+00;0; -8.9084087E-06;  1.0000000E+02;  0.0000000E+00;  0.0000000E+00;  1.0000000E+02;  0.0000000E+00;  1.0000000E+02; -8.9298601E-06;  0.0000000E+00;  2.1450941E-08;  0.0000000E+00;
 -8.0000001E-01;  9.9999998E-03; -1.6000000E+00;23;  0.0000000E+00;  0.0000000E+00;  0.0000000E+00;  1.0000361E+01;  4.0000001E-01;  3.8863711E-02;0;  0.0000000E+00;  0.0000000E+00;  0.0000000E+00;  0.0000000E+00;  0.0000000E+00;  0.0000000E+00;0; -1.8033117E-05;  1.0000000E+02;  0.0000000E+00;  0.0000000E+00;  1.0000000E+02;  0.0000000E+00;  1.0000000E+02; -1.8189039E-05;  0.0000000E+00;  1.5592177E-07;  0.0000000E+00;
 -8.0000001E-01;  9.9999998E-03; -1.4000000E+00;24;  0.0000000E+00;  0.0000000E+00;  0.0000000E+00;  1.0000555E+01;  4.0000001E-01;  5.9770592E-02;0;  0.0000000E+00;  0.0000000E+00;  0.0000000E+00;  0.0000000E+00;  0.0000000E+00;  0.0000000E+00;0; -3.2170003E-05;  1.0000000E+02;  0.0000000E+00;  0.0000000E+00;  1.0000000E+02;  0.0000000E+00;  1.0000000E+02; -3.2440545E-05;  0.0000000E+00;  2.7054242E-07;  0.0000000E+00;
 -8.0000001E-01;  9.9999998E-03; -1.2000000E+00;25;  0.0000000E+00;  0.0000000E+00;  0.0000000E+00;  1.0000896E+01;  4.0000001E-01;  9.6325561E-02;0;  0.0000000E+00;  0.0000000E+00;  0.0000000E+00;  0.0000000E+00;  0.0000000E+00;  0.0000000E+00;0; -5.1325347E-05;  1.0000000E+02;  0.0000000E+00;  0.0000000E+00;  1.0000000E+02;  0.0000000E+00;  1.0000000E+02; -5.1628958E-05;  0.0000000E+00;  3.0361124E-07;  0.0000000E+00;
 -8.0000001E-01;  9.9999998E-03; -1.0000000E+00;26;  0.0000000E+00;  0.0000000E+00;  0.0000000E+00;  1.0001290E+01;  4.0000001E-01;  1.3878064E-01;0;  0.0000000E+00;  0.0000000E+00;  0.0000000E+00;  0.0000000E+00;  0.0000000E+00;  0.0000000E+00;0; -7.3523712E-05;  1.0000000E+02;  0.0000000E+00;  0.0000000E+00;  1.0000000E+02;  0.0000000E+00;  1.0000000E+02; -7.3761170E-05;  0.0000000E+00;  2.3745569E-07;  0.0000000E+00;
 -8.0000001E-01;  9.9999998E-03; -8.0000001E-01;27;  0.0000000E+00;  0.0000000E+00;  0.0000000E+00;  1.0001695E+01;  4.0000001E-01;  1.8239008E-01;0;  0.0000000E+00;  0.0000000E+00;  0.0000000E+00;  0.0000000E+00;  0.0000000E+00;  0.0000000E+00;0; -9.5314666E-05;  1.0000000E+02;  0.0000000E+00;  0.0000000E+00;  1.0000000E+02;  0.0000000E+00;  1.0000000E+02; -9.5403033E-05;  0.0000000E+00;  8.8363620E-08;  0.0000000E+00;
 -8.0000001E-01;  9.9999998E-03; -6.0000002E-01;28;  0.0000000E+00;  0.0000000E+00;  0.0000000E+00;  1.0002021E+01;  4.0000001E-01;  2.1740590E-01;0;  0.0000000E+00;  0.0000000E+00;  0.0000000E+00;  0.0000000E+00;  0.0000000E+00;  0.0000000E+00;0; -1.1330777E-04;  1.0000000E+02;  0.0000000E+00;  0.0000000E+00;  1.0000000E+02;  0.0000000E+00;  1.0000000E+02; -1.1321171E-04;  0.0000000E+00; -9.6059615E-08;  0.0000000E+00;
 -8.0000001E-01;  9.9999998E-03; -4.0000001E-01;29;  0.0000000E+00;  0.0000000E+00;  0.0000000E+00;  1.0002262E+01;  4.0000001E-01;  2.4344331E-01;0;  0.0000000E+00;  0.0000000E+00;  0.0000000E+00;  0.0000000E+00;  0.0000000E+00;  0.0000000E+00;0; -1.2564617E-04;  1.0000000E+02;  0.0000000E+00;  0.0000000E+00;  1.0000000E+02;  0.0000000E+00;  1.0000000E+02; -1.2539653E-04;  0.0000000E+00; -2.4964180E-07;  0.0000000E+00;
 -8.0000001E-01;  9.9999998E-03; -2.0000000E-01;30;  0.0000000E+00;  0.0000000E+00;  0.0000000E+00;  1.0002410E+01;  4.0000001E-01;  2.5934792E-01;0;  0.0000000E+00;  0.0000000E+00;  0.0000000E+00;  0.0000000E+00;  0.0000000E+00;  0.0000000E+00;0; -1.3235417E-04;  1.0000000E+02;  0.0000000E+00;  0.0000000E+00;  1.0000000E+02;  0.0000000E+00;  1.0000000E+02; -1.3202612E-04;  0.0000000E+00; -3.2803911E-07;  0.0000000E+00;
 -6.0000002E-01;  9.9999998E-03; -1.8000000E+00;43;  0.0000000E+00;  0.0000000E+00;  0.0000000E+00;  1.0000278E+01;  4.0000001E-01;  3.0013537E-02;0;  0.0000000E+00;  0.0000000E+00;  0.0000000E+00;  0.0000000E+00;  0.0000000E+00;  0.0000000E+00;0; -1.4302236E-05;  1.0000000E+02;  0.0000000E+00;  0.0000000E+00;  1.0000000E+02;  0.0000000E+00;  1.0000000E+02; -1.4701427E-05;  0.0000000E+00;  3.9919055E-07;  0.0000000E+00;
 -6.0000002E-01;  9.9999998E-03; -1.6000000E+00;44;  0.0000000E+00;  0.0000000E+00;  0.0000000E+00;  1.0000528E+01;  4.0000001E-01;  5.6820501E-02;0;  0.0000000E+00;  0.0000000E+00;  0.0000000E+00;  0.0000000E+00;  0.0000000E+00;  0.0000000E+00;0; -2.8194365E-05;  1.0000000E+02;  0.0000000E+00;  0.0000000E+00;  1.0000000E+02;  0.0000000E+00;  1.0000000E+02; -2.8948798E-05;  0.0000000E+00;  7.5443376E-07;  0.0000000E+00;
 -6.0000002E-01;  9.9999998E-03; -1.4000000E+00;45;  0.0000000E+00;  0.0000000E+00;  0.0000000E+00;  1.0000902E+01;  4.0000001E-01;  9.7095080E-02;0;  0.0000000E+00;  0.0000000E+00;  0.0000000E+00;  0.0000000E+00;  0.0000000E+00;  0.0000000E+00;0; -4.9556624E-05;  1.0000000E+02;  0.0000000E+00;  0.0000000E+00;  1.0000000E+02;  0.0000000E+00;  1.0000000E+02; -5.0517312E-05;  0.0000000E+00;  9.6068823E-07;  0.0000000E+00;
 -6.0000002E-01;  9.9999998E-03; -1.2000000E+00;46;  0.0000000E+00;  0.0000000E+00;  0.0000000E+00;  1.0001415E+01;  4.0000001E-01;  1.5224816E-01;0;  0.0000000E+00;  0.0000000E+00;  0.0000000E+00;  0.0000000E+00;  0.0000000E+00;  0.0000000E+00;0; -7.8459474E-05;  1.0000000E+02;  0.0000000E+00;  0.0000000E+00;  1.0000000E+02;  0.0000000E+00;  1.0000000E+02; -7.9395410E-05;  0.0000000E+00;  9.3593536E-07;  0.0000000E+00;
 -6.0000002E-01;  9.9999998E-03; -1.0000000E+00;47;  0.0000000E+00;  0.0000000E+00;  0.0000000E+00;  1.0002022E+01;  4.0000001E-01;  2.1753402E-01;0;  0.0000000E+00;  0.0000000E+00;  0.0000000E+00;  0.0000000E+00;  0.0000000E+00;  0.0000000E+00;0; -1.1215647E-04;  1.0000000E+02;  0.0000000E+00;  0.0000000E+00;  1.0000000E+02;  0.0000000E+00;  1.0000000E+02; -1.1283406E-04;  0.0000000E+00;  6.7758901E-07;  0.0000000E+00;
 -6.0000002E-01;  9.9999998E-03; -8.0000001E-01;48;  0.0000000E+00;  0.0000000E+00;  0.0000000E+00;  1.0002650E+01;  4.0000001E-01;  2.8512862E-01;0;  0.0000000E+00;  0.0000000E+00;  0.0000000E+00;  0.0000000E+00;  0.0000000E+00;  0.0000000E+00;0; -1.4566163E-04;  1.0000000E+02;  0.0000000E+00;  0.0000000E+00;  1.0000000E+02;  0.0000000E+00;  1.0000000E+02; -1.4588230E-04;  0.0000000E+00;  2.2066098E-07;  0.0000000E+00;
 -6.0000002E-01;  9.9999998E-03; -6.0000002E-01;49;  0.0000000E+00;  0.0000000E+00;  0.0000000E+00;  1.0003171E+01;  4.0000001E-01;  3.4117952E-01;0;  0.0000000E+00;  0.0000000E+00;  0.0000000E+00;  0.0000000E+00;  0.0000000E+00;  0.0000000E+00;0; -1.7403030E-04;  1.0000000E+02;  0.0000000E+00;  0.0000000E+00;  1.0000000E+02;  0.0000000E+00;  1.0000000E+02; -1.7368680E-04;  0.0000000E+00; -3.4349776E-07;  0.0000000E+00;
 -6.0000002E-01;  9.9999998E-03; -4.0000001E-01;50;  0.0000000E+00;  0.0000000E+00;  0.0000000E+00;  1.0003564E+01;  4.0000001E-01;  3.8350633E-01;0;  0.0000000E+00;  0.0000000E+00;  0.0000000E+00;  0.0000000E+00;  0.0000000E+00;  0.0000000E+00;0; -1.9433888E-04;  1.0000000E+02;  0.0000000E+00;  0.0000000E+00;  1.0000000E+02;  0.0000000E+00;  1.0000000E+02; -1.9347398E-04;  0.0000000E+00; -8.6488666E-07;  0.0000000E+00;
 -6.0000002E-01;  9.9999998E-03; -2.0000000E-01;51;  0.0000000E+00;  0.0000000E+00;  0.0000000E+00;  1.0003797E+01;  4.0000001E-01;  4.0851760E-01;0;  0.0000000E+00;  0.0000000E+00;  0.0000000E+00;  0.0000000E+00;  0.0000000E+00;  0.0000000E+00;0; -2.0605502E-04;  1.0000000E+02;  0.0000000E+00;  0.0000000E+00;  1.0000000E+02;  0.0000000E+00;  1.0000000E+02; -2.0484389E-04;  0.0000000E+00; -1.2111331E-06;  0.0000000E+00;
 -4.0000001E-01;  9.9999998E-03; -1.8000000E+00;64;  0.0000000E+00;  0.0000000E+00;  0.0000000E+00;  1.0000381E+01;  4.0000001E-01;  4.0915824E-02;0;  0.0000000E+00;  0.0000000E+00;  0.0000000E+00;  0.0000000E+00;  0.0000000E+00;  0.0000000E+00;0; -1.7126298E-05;  1.0000000E+02;  0.0000000E+00;  0.0000000E+00;  1.0000000E+02;  0.0000000E+00;  1.0000000E+02; -1.8325603E-05;  0.0000000E+00;  1.1993060E-06;  0.0000000E+00;
 -4.0000001E-01;  9.9999998E-03; -1.6000000E+00;65;  0.0000000E+00;  0.0000000E+00;  0.0000000E+00;  1.0000670E+01;  4.0000001E-01;  7.2083682E-02;0;  0.0000000E+00;  0.0000000E+00;  0.0000000E+00;  0.0000000E+00;  0.0000000E+00;  0.0000000E+00;0; -3.3343415E-05;  1.0000000E+02;  0.0000000E+00;  0.0000000E+00;  1.0000000E+02;  0.0000000E+00;  1.0000000E+02; -3.5258003E-05;  0.0000000E+00;  1.9145889E-06;  0.0000000E+00;
 -4.0000001E-01;  9.9999998E-03; -1.4000000E+00;66;  0.0000000E+00;  0.0000000E+00;  0.0000000E+00;  1.0001164E+01;  4.0000001E-01;  1.2531273E-01;0;  0.0000000E+00;  0.0000000E+00;  0.0000000E+00;  0.0000000E+00;  0.0000000E+00;  0.0000000E+00;0; -5.8662663E-05;  1.0000000E+02;  0.0000000E+00;  0.0000000E+00;  1.0000000E+02;  0.0000000E+00;  1.0000000E+02; -6.0902672E-05;  0.0000000E+00;  2.2400075E-06;  0.0000000E+00;
 -4.0000001E-01;  9.9999998E-03; -1.2000000E+00;67;  0.0000000E+00;  0.0000000E+00;  0.0000000E+00;  1.0001806E+01;  4.0000001E-01;  1.9431812E-01;0;  0.0000000E+00;  0.0000000E+00;  0.0000000E+00;  0.0000000E+00;  0.0000000E+00;  0.0000000E+00;0; -9.3503892E-05;  1.0000000E+02;  0.0000000E+00;  0.0000000E+00;  1.0000000E+02;  0.0000000E+00;  1.0000000E+02; -9.5574309E-05;  0.0000000E+00;  2.0704156E-06;  0.0000000E+00;
 -4.0000001E-01;  9.9999998E-03; -1.0000000E+00;68;  0.0000000E+00;  0.0000000E+00;  0.0000000E+00;  1.0002571E+01;  4.0000001E-01;  2.7666283E-01;0;  0.0000000E+00;  0.0000000E+00;  0.0000000E+00;  0.0000000E+00;  0.0000000E+00;  0.0000000E+00;0; -1.3486750E-04;  1.0000000E+02;  0.0000000E+00;  0.0000000E+00;  1.0000000E+02;  0.0000000E+00;  1.0000000E+02; -1.3631067E-04;  0.0000000E+00;  1.4431704E-06;  0.0000000E+00;
 -4.0000001E-01;  9.9999998E-03; -8.0000001E-01;69;  0.0000000E+00;  0.0000000E+00;  0.0000000E+00;  1.0003350E+01;  4.0000001E-01;  3.6041841E-01;0;  0.0000000E+00;  0.0000000E+00;  0.0000000E+00;  0.0000000E+00;  0.0000000E+00;  0.0000000E+00;0; -1.7677393E-04;  1.0000000E+02;  0.0000000E+00;  0.0000000E+00;  1.0000000E+02;  0.0000000E+00;  1.0000000E+02; -1.7719838E-04;  0.0000000E+00;  4.2444560E-07;  0.0000000E+00;
 -4.0000001E-01;  9.9999998E-03; -6.0000002E-01;70;  0.0000000E+00;  0.0000000E+00;  0.0000000E+00;  1.0004033E+01;  4.0000001E-01;  4.3391299E-01;0;  0.0000000E+00;  0.0000000E+00;  0.0000000E+00;  0.0000000E+00;  0.0000000E+00;  0.0000000E+00;0; -2.1341594E-04;  1.0000000E+02;  0.0000000E+00;  0.0000000E+00;  1.0000000E+02;  0.0000000E+00;  1.0000000E+02; -2.1258925E-04;  0.0000000E+00; -8.2669419E-07;  0.0000000E+00;
 -4.0000001E-01;  9.9999998E-03; -4.0000001E-01;71;  0.0000000E+00;  0.0000000E+00;  0.0000000E+00;  1.0004540E+01;  4.0000001E-01;  4.8855293E-01;0;  0.0000000E+00;  0.0000000E+00;  0.0000000E+00;  0.0000000E+00;  0.0000000E+00;  0.0000000E+00;0; -2.4110229E-04;  1.0000000E+02;  0.0000000E+00;  0.0000000E+00;  1.0000000E+02;  0.0000000E+00;  1.0000000E+02; -2.3908055E-04;  0.0000000E+00; -2.0217446E-06;  0.0000000E+00;
 -4.0000001E-01;  9.9999998E-03; -2.0000000E-01;72;  0.0000000E+00;  0.0000000E+00;  0.0000000E+00;  1.0004860E+01;  4.0000001E-01;  5.2292734E-01;0;  0.0000000E+00;  0.0000000E+00;  0.0000000E+00;  0.0000000E+00;  0.0000000E+00;  0.0000000E+00;0; -2.5822435E-04;  1.0000000E+02;  0.0000000E+00;  0.0000000E+00;  1.0000000E+02;  0.0000000E+00;  1.0000000E+02; -2.5534519E-04;  0.0000000E+00; -2.8791435E-06;  0.0000000E+00;
 -2.0000000E-01;  9.9999998E-03; -1.8000000E+00;85;  0.0000000E+00;  0.0000000E+00;  0.0000000E+00;  1.0000424E+01;  4.0000001E-01;  4.5661394E-02;0;  0.0000000E+00;  0.0000000E+00;  0.0000000E+00;  0.0000000E+00;  0.0000000E+00;  0.0000000E+00;0; -1.6083426E-05;  1.0000000E+02;  0.0000000E+00;  0.0000000E+00;  1.0000000E+02;  0.0000000E+00;  1.0000000E+02; -1.8605055E-05;  0.0000000E+00;  2.5216291E-06;  0.0000000E+00;
 -2.0000000E-01;  9.9999998E-03; -1.6000000E+00;86;  0.0000000E+00;  0.0000000E+00;  0.0000000E+00;  1.0000748E+01;  4.0000001E-01;  8.0420487E-02;0;  0.0000000E+00;  0.0000000E+00;  0.0000000E+00;  0.0000000E+00;  0.0000000E+00;  0.0000000E+00;0; -3.1252781E-05;  1.0000000E+02;  0.0000000E+00;  0.0000000E+00;  1.0000000E+02;  0.0000000E+00;  1.0000000E+02; -3.4993747E-05;  0.0000000E+00;  3.7409666E-06;  0.0000000E+00;
 -2.0000000E-01;  9.9999998E-03; -1.4000000E+00;87;  0.0000000E+00;  0.0000000E+00;  0.0000000E+00;  1.0001284E+01;  4.0000001E-01;  1.3813855E-01;0;  0.0000000E+00;  0.0000000E+00;  0.0000000E+00;  0.0000000E+00;  0.0000000E+00;  0.0000000E+00;0; -5.5441862E-05;  1.0000000E+02;  0.0000000E+00;  0.0000000E+00;  1.0000000E+02;  0.0000000E+00;  1.0000000E+02; -5.9621521E-05;  0.0000000E+00;  4.1796607E-06;  0.0000000E+00;
 -2.0000000E-01;  9.9999998E-03; -1.2000000E+00;88;  0.0000000E+00;  0.0000000E+00;  0.0000000E+00;  1.0001987E+01;  4.0000001E-01;  2.1368507E-01;0;  0.0000000E+00;  0.0000000E+00;  0.0000000E+00;  0.0000000E+00;  0.0000000E+00;  0.0000000E+00;0; -8.9705776E-05;  1.0000000E+02;  0.0000000E+00;  0.0000000E+00;  1.0000000E+02;  0.0000000E+00;  1.0000000E+02; -9.3439543E-05;  0.0000000E+00;  3.7337679E-06;  0.0000000E+00;
 -2.0000000E-01;  9.9999998E-03; -1.0000000E+00;89;  0.0000000E+00;  0.0000000E+00;  0.0000000E+00;  1.0002845E+01;  4.0000001E-01;  3.0603394E-01;0;  0.0000000E+00;  0.0000000E+00;  0.0000000E+00;  0.0000000E+00;  0.0000000E+00;  0.0000000E+00;0; -1.3199537E-04;  1.0000000E+02;  0.0000000E+00;  0.0000000E+00;  1.0000000E+02;  0.0000000E+00;  1.0000000E+02; -1.3450171E-04;  0.0000000E+00;  2.5063380E-06;  0.0000000E+00;
 -2.0000000E-01;  9.9999998E-03; -8.0000001E-01;90;  0.0000000E+00;  0.0000000E+00;  0.0000000E+00;  1.0003716E+01;  4.0000001E-01;  3.9992198E-01;0;  0.0000000E+00;  0.0000000E+00;  0.0000000E+00;  0.0000000E+00;  0.0000000E+00;  0.0000000E+00;0; -1.7648020E-04;  1.0000000E+02;  0.0000000E+00;  0.0000000E+00;  1.0000000E+02;  0.0000000E+00;  1.0000000E+02; -1.7709515E-04;  0.0000000E+00;  6.1495024E-07;  0.0000000E+00;
 -2.0000000E-01;  9.9999998E-03; -6.0000002E-01;91;  0.0000000E+00;  0.0000000E+00;  0.0000000E+00;  1.0004490E+01;  4.0000001E-01;  4.8303598E-01;0;  0.0000000E+00;  0.0000000E+00;  0.0000000E+00;  0.0000000E+00;  0.0000000E+00;  0.0000000E+00;0; -2.1795902E-04;  1.0000000E+02;  0.0000000E+00;  0.0000000E+00;  1.0000000E+02;  0.0000000E+00;  1.0000000E+02; -2.1629549E-04;  0.0000000E+00; -1.6635317E-06;  0.0000000E+00;
 -2.0000000E-01;  9.9999998E-03; -4.0000001E-01;92;  0.0000000E+00;  0.0000000E+00;  0.0000000E+00;  1.0005078E+01;  4.0000001E-01;  5.4639757E-01;0;  0.0000000E+00;  0.0000000E+00;  0.0000000E+00;  0.0000000E+00;  0.0000000E+00;  0.0000000E+00;0; -2.5228187E-04;  1.0000000E+02;  0.0000000E+00;  0.0000000E+00;  1.0000000E+02;  0.0000000E+00;  1.0000000E+02; -2.4847194E-04;  0.0000000E+00; -3.8099204E-06;  0.0000000E+00;
 -2.0000000E-01;  9.9999998E-03; -2.0000000E-01;93;  0.0000000E+00;  0.0000000E+00;  0.0000000E+00;  1.0005458E+01;  4.0000001E-01;  5.8718503E-01;0;  0.0000000E+00;  0.0000000E+00;  0.0000000E+00;  0.0000000E+00;  0.0000000E+00;  0.0000000E+00;0; -2.7544505E-04;  1.0000000E+02;  0.0000000E+00;  0.0000000E+00;  1.0000000E+02;  0.0000000E+00;  1.0000000E+02; -2.7013806E-04;  0.0000000E+00; -5.3070094E-06;  0.0000000E+00;
  0.0000000E+00;  9.9999998E-03; -1.8000000E+00;106;  0.0000000E+00;  0.0000000E+00;  0.0000000E+00;  1.0000400E+01;  4.0000001E-01;  4.2967554E-02;0;  0.0000000E+00;  0.0000000E+00;  0.0000000E+00;  0.0000000E+00;  0.0000000E+00;  0.0000000E+00;0; -1.0178701E-05;  1.0000000E+02;  0.0000000E+00;  0.0000000E+00;  1.0000000E+02;  0.0000000E+00;  1.0000000E+02; -1.4414322E-05;  0.0000000E+00;  4.2356214E-06;  0.0000000E+00;
  0.0000000E+00;  9.9999998E-03; -1.6000000E+00;107;  0.0000000E+00;  0.0000000E+00;  0.0000000E+00;  1.0000765E+01;  4.0000001E-01;  8.2343787E-02;0;  0.0000000E+00;  0.0000000E+00;  0.0000000E+00;  0.0000000E+00;  0.0000000E+00;  0.0000000E+00;0; -1.8918898E-05;  1.0000000E+02;  0.0000000E+00;  0.0000000E+00;  1.0000000E+02;  0.0000000E+00;  1.0000000E+02; -2.4889769E-05;  0.0000000E+00;  5.9708718E-06;  0.0000000E+00;
  0.0000000E+00;  9.9999998E-03; -1.4000000E+00;108;  0.0000000E+00;  0.0000000E+00;  0.0000000E+00;  1.0001239E+01;  4.0000001E-01;  1.3326354E-01;0;  0.0000000E+00;  0.0000000E+00;  0.0000000E+00;  0.0000000E+00;  0.0000000E+00;  0.0000000E+00;0; -3.3286327E-05;  1.0000000E+02;  0.0000000E+00;  0.0000000E+00;  1.0000000E+02;  0.0000000E+00;  1.0000000E+02; -3.9771090E-05;  0.0000000E+00;  6.4847641E-06;  0.0000000E+00;
  0.0000000E+00;  9.9999998E-03; -1.2000000E+00;109;  0.0000000E+00;  0.0000000E+00;  0.0000000E+00;  1.0001941E+01;  4.0000001E-01;  2.0880948E-01;0;  0.0000000E+00;  0.0000000E+00;  0.0000000E+00;  0.0000000E+00;  0.0000000E+00;  0.0000000E+00;0; -5.5535296E-05;  1.0000000E+02;  0.0000000E+00;  0.0000000E+00;  1.0000000E+02;  0.0000000E+00;  1.0000000E+02; -6.1225554E-05;  0.0000000E+00;  5.6902591E-06;  0.0000000E+00;
  2.0000000E-01;  9.9999998E-03; -1.8000000E+00;116;  0.0000000E+00;  0.0000000E+00;  0.0000000E+00;  1.0000349E+01;  4.0000001E-01;  3.7579928E-02;0;  0.0000000E+00;  0.0000000E+00;  0.0000000E+00;  0.0000000E+00;  0.0000000E+00;  0.0000000E+00;0;  4.9516111E-06;  1.0000000E+02;  0.0000000E+00;  0.0000000E+00;  1.0000000E+02;  0.0000000E+00;  1.0000000E+02; -9.5042299E-07;  0.0000000E+00;  5.9020340E-06;  0.0000000E+00;
  2.0000000E-01;  9.9999998E-03; -1.6000000E+00;117;  0.0000000E+00;  0.0000000E+00;  0.0000000E+00;  1.0000655E+01;  4.0000001E-01;  7.0542529E-02;0;  0.0000000E+00;  0.0000000E+00;  0.0000000E+00;  0.0000000E+00;  0.0000000E+00;  0.0000000E+00;0;  1.2812322E-05;  1.0000000E+02;  0.0000000E+00;  0.0000000E+00;  1.0000000E+02;  0.0000000E+00;  1.0000000E+02;  4.8432294E-06;  0.0000000E+00;  7.9690926E-06;  0.0000000E+00;
  2.0000000E-01;  9.9999998E-03; -1.4000000E+00;118;  0.0000000E+00;  0.0000000E+00;  0.0000000E+00;  1.0001053E+01;  4.0000001E-01;  1.1325282E-01;0;  0.0000000E+00;  0.0000000E+00;  0.0000000E+00;  0.0000000E+00;  0.0000000E+00;  0.0000000E+00;0;  2.2640163E-05;  1.0000000E+02;  0.0000000E+00;  0.0000000E+00;  1.0000000E+02;  0.0000000E+00;  1.0000000E+02;  1.4163222E-05;  0.0000000E+00;  8.4769408E-06;  0.0000000E+00;
  2.0000000E-01;  9.9999998E-03; -1.2000000E+00;119;  0.0000000E+00;  0.0000000E+00;  0.0000000E+00;  1.0001606E+01;  4.0000001E-01;  1.7276506E-01;0;  0.0000000E+00;  0.0000000E+00;  0.0000000E+00;  0.0000000E+00;  0.0000000E+00;  0.0000000E+00;0;  2.9668927E-05;  1.0000000E+02;  0.0000000E+00;  0.0000000E+00;  1.0000000E+02;  0.0000000E+00;  1.0000000E+02;  2.2235286E-05;  0.0000000E+00;  7.4336399E-06;  0.0000000E+00;
  4.0000001E-01;  9.9999998E-03; -1.8000000E+00;126;  0.0000000E+00;  0.0000000E+00;  0.0000000E+00;  1.0000246E+01;  4.0000001E-01;  2.6420373E-02;0;  0.0000000E+00;  0.0000000E+00;  0.0000000E+00;  0.0000000E+00;  0.0000000E+00;  0.0000000E+00;0;  3.9783808E-05;  1.0000000E+02;  0.0000000E+00;  0.0000000E+00;  1.0000000E+02;  0.0000000E+00;  1.0000000E+02;  3.2686112E-05;  0.0000000E+00;  7.0976971E-06;  0.0000000E+00;
  4.0000001E-01;  9.9999998E-03; -1.6000000E+00;127;  0.0000000E+00;  0.0000000E+00;  0.0000000E+00;  1.0000406E+01;  4.0000001E-01;  4.3734696E-02;0;  0.0000000E+00;  0.0000000E+00;  0.0000000E+00;  0.0000000E+00;  0.0000000E+00;  0.0000000E+00;0;  8.1720296E-05;  1.0000000E+02;  0.0000000E+00;  0.0000000E+00;  1.0000000E+02;  0.0000000E+00;  1.0000000E+02;  7.2587405E-05;  0.0000000E+00;  9.1328948E-06;  0.0000000E+00;
  4.0000001E-01;  9.9999998E-03; -1.4000000E+00;128;  0.0000000E+00;  0.0000000E+00;  0.0000000E+00;  1.0000617E+01;  4.0000001E-01;  6.6435695E-02;0;  0.0000000E+00;  0.0000000E+00;  0.0000000E+00;  0.0000000E+00;  0.0000000E+00;  0.0000000E+00;0;  1.3839193E-04;  1.0000000E+02;  0.0000000E+00;  0.0000000E+00;  1.0000000E+02;  0.0000000E+00;  1.0000000E+02;  1.2894167E-04;  0.0000000E+00;  9.4502611E-06;  0.0000000E+00;
  4.0000001E-01;  9.9999998E-03; -1.2000000E+00;129;  0.0000000E+00;  0.0000000E+00;  0.0000000E+00;  1.0000916E+01;  4.0000001E-01;  9.8499253E-02;0;  0.0000000E+00;  0.0000000E+00;  0.0000000E+00;  0.0000000E+00;  0.0000000E+00;  0.0000000E+00;0;  1.9854037E-04;  1.0000000E+02;  0.0000000E+00;  0.0000000E+00;  1.0000000E+02;  0.0000000E+00;  1.0000000E+02;  1.9041062E-04;  0.0000000E+00;  8.1297512E-06;  0.0000000E+00;
  6.0000002E-01;  9.9999998E-03; -1.8000000E+00;136;  0.0000000E+00;  0.0000000E+00;  0.0000000E+00;  1.0000014E+01;  4.0000001E-01;  1.5389200E-03;0;  0.0000000E+00;  0.0000000E+00;  0.0000000E+00;  0.0000000E+00;  0.0000000E+00;  0.0000000E+00;0;  1.1042049E-04;  1.0000000E+02;  0.0000000E+00;  0.0000000E+00;  1.0000000E+02;  0.0000000E+00;  1.0000000E+02;  1.0269713E-04;  0.0000000E+00;  7.7233644E-06;  0.0000000E+00;
  6.0000002E-01;  9.9999998E-03; -1.6000000E+00;137;  0.0000000E+00;  0.0000000E+00;  0.0000000E+00;  1.0000000E+01;  4.0000001E-01;  0.0000000E+00;0;  0.0000000E+00;  0.0000000E+00;  0.0000000E+00;  0.0000000E+00;  0.0000000E+00;  0.0000000E+00;0;  2.1385709E-04;  1.0000000E+02;  0.0000000E+00;  0.0000000E+00;  1.0000000E+02;  0.0000000E+00;  1.0000000E+02;  2.0448912E-04;  0.0000000E+00;  9.3679701E-06;  0.0000000E+00;
  6.0000002E-01;  9.9999998E-03; -1.4000000E+00;138;  0.0000000E+00;  0.0000000E+00;  0.0000000E+00;  1.0000000E+01;  4.0000001E-01;  0.0000000E+00;0;  0.0000000E+00;  0.0000000E+00;  0.0000000E+00;  0.0000000E+00;  0.0000000E+00;  0.0000000E+00;0;  3.5191042E-04;  1.0000000E+02;  0.0000000E+00;  0.0000000E+00;  1.0000000E+02;  0.0000000E+00;  1.0000000E+02;  3.4251472E-04;  0.0000000E+00;  9.3956969E-06;  0.0000000E+00;
  6.0000002E-01;  9.9999998E-03; -1.2000000E+00;139;  0.0000000E+00;  0.0000000E+00;  0.0000000E+00;  1.0000000E+01;  4.0000001E-01;  0.0000000E+00;0;  0.0000000E+00;  0.0000000E+00;  0.0000000E+00;  0.0000000E+00;  0.0000000E+00;  0.0000000E+00;0;  4.9755815E-04;  1.0000000E+02;  0.0000000E+00;  0.0000000E+00;  1.0000000E+02;  0.0000000E+00;  1.0000000E+02;  4.8978324E-04;  0.0000000E+00;  7.7749019E-06;  0.0000000E+00;
  8.0000001E-01;  9.9999998E-03; -1.8000000E+00;146;  0.0000000E+00;  0.0000000E+00;  0.0000000E+00;  1.0000000E+01;  4.0000001E-01;  0.0000000E+00;0;  0.0000000E+00;  0.0000000E+00;  0.0000000E+00;  0.0000000E+00;  0.0000000E+00;  0.0000000E+00;0;  2.3354428E-04;  1.0000000E+02;  0.0000000E+00;  0.0000000E+00;  1.0000000E+02;  0.0000000E+00;  1.0000000E+02;  2.2577477E-04;  0.0000000E+00;  7.7695086E-06;  0.0000000E+00;
  8.0000001E-01;  9.9999998E-03; -1.6000000E+00;147;  0.0000000E+00;  0.0000000E+00;  0.0000000E+00;  1.0000000E+01;  4.0000001E-01;  0.0000000E+00;0;  0.0000000E+00;  0.0000000E+00;  0.0000000E+00;  0.0000000E+00;  0.0000000E+00;  0.0000000E+00;0;  4.3259177E-04;  1.0000000E+02;  0.0000000E+00;  0.0000000E+00;  1.0000000E+02;  0.0000000E+00;  1.0000000E+02;  4.2372837E-04;  0.0000000E+00;  8.8633933E-06;  0.0000000E+00;
  8.0000001E-01;  9.9999998E-03; -1.4000000E+00;148;  0.0000000E+00;  0.0000000E+00;  0.0000000E+00;  1.0000000E+01;  4.0000001E-01;  0.0000000E+00;0;  0.0000000E+00;  0.0000000E+00;  0.0000000E+00;  0.0000000E+00;  0.0000000E+00;  0.0000000E+00;0;  6.9563999E-04;  1.0000000E+02;  0.0000000E+00;  0.0000000E+00;  1.0000000E+02;  0.0000000E+00;  1.0000000E+02;  6.8663893E-04;  0.0000000E+00;  9.0010853E-06;  0.0000000E+00;
  8.0000001E-01;  9.9999998E-03; -1.2000000E+00;149;  0.0000000E+00;  0.0000000E+00;  0.0000000E+00;  1.0000000E+01;  4.0000001E-01;  0.0000000E+00;0;  0.0000000E+00;  0.0000000E+00;  0.0000000E+00;  0.0000000E+00;  0.0000000E+00;  0.0000000E+00;0;  9.6642657E-04;  1.0000000E+02;  0.0000000E+00;  0.0000000E+00;  1.0000000E+02;  0.0000000E+00;  1.0000000E+02;  9.5879100E-04;  0.0000000E+00;  7.6355755E-06;  0.0000000E+00;
  1.0000000E+00;  9.9999998E-03; -1.8000000E+00;156;  0.0000000E+00;  0.0000000E+00;  0.0000000E+00;  1.0000000E+01;  4.0000001E-01;  0.0000000E+00;0;  0.0000000E+00;  0.0000000E+00;  0.0000000E+00;  0.0000000E+00;  0.0000000E+00;  0.0000000E+00;0;  4.0532224E-04;  1.0000000E+02;  0.0000000E+00;  0.0000000E+00;  1.0000000E+02;  0.0000000E+00;  1.0000000E+02;  3.9924902E-04;  0.0000000E+00;  6.0732250E-06;  0.0000000E+00;
  1.0000000E+00;  9.9999998E-03; -1.6000000E+00;157;  0.0000000E+00;  0.0000000E+00;  0.0000000E+00;  1.0000000E+01;  4.0000001E-01;  0.0000000E+00;0;  0.0000000E+00;  0.0000000E+00;  0.0000000E+00;  0.0000000E+00;  0.0000000E+00;  0.0000000E+00;0;  7.2262669E-04;  1.0000000E+02;  0.0000000E+00;  0.0000000E+00;  1.0000000E+02;  0.0000000E+00;  1.0000000E+02;  7.1594771E-04;  0.0000000E+00;  6.6790044E-06;  0.0000000E+00;
  1.0000000E+00;  9.9999998E-03; -1.4000000E+00;158;  0.0000000E+00;  0.0000000E+00;  0.0000000E+00;  1.0000000E+01;  4.0000001E-01;  0.0000000E+00;0;  0.0000000E+00;  0.0000000E+00;  0.0000000E+00;  0.0000000E+00;  0.0000000E+00;  0.0000000E+00;0;  1.1493330E-03;  1.0000000E+02;  0.0000000E+00;  0.0000000E+00;  1.0000000E+02;  0.0000000E+00;  1.0000000E+02;  1.1413016E-03;  0.0000000E+00;  8.0313885E-06;  0.0000000E+00;
  1.0000000E+00;  9.9999998E-03; -1.2000000E+00;159;  0.0000000E+00;  0.0000000E+00;  0.0000000E+00;  1.0000000E+01;  4.0000001E-01;  0.0000000E+00;0;  0.0000000E+00;  0.0000000E+00;  0.0000000E+00;  0.0000000E+00;  0.0000000E+00;  0.0000000E+00;0;  1.5920089E-03;  1.0000000E+02;  0.0000000E+00;  0.0000000E+00;  1.0000000E+02;  0.0000000E+00;  1.0000000E+02;  1.5830719E-03;  0.0000000E+00;  8.9369505E-06;  0.0000000E+00;
 -1.0000000E+00;  9.9999998E-03;  0.0000000E+00;10;  0.0000000E+00;  0.0000000E+00;  0.0000000E+00;  1.0001144E+01;  4.0000001E-01;  1.2313259E-01;0;  0.0000000E+00;  0.0000000E+00;  0.0000000E+00;  0.0000000E+00;  0.0000000E+00;  0.0000000E+00;0; -6.2421415E-05;  1.0000000E+02;  0.0000000E+00;  0.0000000E+00;  1.0000000E+02;  0.0000000E+00;  1.0000000E+02; -6.2428124E-05;  0.0000000E+00;  6.7062684E-09;  0.0000000E+00;
 -1.0000000E+00;  9.9999998E-03;  2.0000000E-01;11;  0.0000000E+00;  0.0000000E+00;  0.0000000E+00;  1.0001125E+01;  4.0000001E-01;  1.2108038E-01;0;  0.0000000E+00;  0.0000000E+00;  0.0000000E+00;  0.0000000E+00;  0.0000000E+00;  0.0000000E+00;0; -6.1640065E-05;  1.0000000E+02;  0.0000000E+00;  0.0000000E+00;  1.0000000E+02;  0.0000000E+00;  1.0000000E+02; -6.1641134E-05;  0.0000000E+00;  1.0715918E-09;  0.0000000E+00;
 -1.0000000E+00;  9.9999998E-03;  4.0000001E-01;12;  0.0000000E+00;  0.0000000E+00;  0.0000000E+00;  1.0001063E+01;  4.0000001E-01;  1.1441070E-01;0;  0.0000000E+00;  0.0000000E+00;  0.0000000E+00;  0.0000000E+00;  0.0000000E+00;  0.0000000E+00;0; -5.8889786E-05;  1.0000000E+02;  0.0000000E+00;  0.0000000E+00;  1.0000000E+02;  0.0000000E+00;  1.0000000E+02; -5.8887781E-05;  0.0000000E+00; -2.0054602E-09;  0.0000000E+00;
 -1.0000000E+00;  9.9999998E-03;  6.0000002E-01;13;  0.0000000E+00;  0.0000000E+00;  0.0000000E+00;  1.0000950E+01;  4.0000001E-01;  1.0222570E-01;0;  0.0000000E+00;  0.0000000E+00;  0.0000000E+00;  0.0000000E+00;  0.0000000E+00;  0.0000000E+00;0; -5.3423035E-05;  1.0000000E+02;  0.0000000E+00;  0.0000000E+00;  1.0000000E+02;  0.0000000E+00;  1.0000000E+02; -5.3431377E-05;  0.0000000E+00;  8.3436040E-09;  0.0000000E+00;
 -1.0000000E+00;  9.9999998E-03;  8.0000001E-01;14;  0.0000000E+00;  0.0000000E+00;  0.0000000E+00;  1.0000774E+01;  4.0000001E-01;  8.3371021E-02;0;  0.0000000E+00;  0.0000000E+00;  0.0000000E+00;  0.0000000E+00;  0.0000000E+00;  0.0000000E+00;0; -4.5034129E-05;  1.0000000E+02;  0.0000000E+00;  0.0000000E+00;  1.0000000E+02;  0.0000000E+00;  1.0000000E+02; -4.5062530E-05;  0.0000000E+00;  2.8402944E-08;  0.0000000E+00;
 -1.0000000E+00;  9.9999998E-03;  1.0000000E+00;15;  0.0000000E+00;  0.0000000E+00;  0.0000000E+00;  1.0000577E+01;  4.0000001E-01;  6.2079348E-02;0;  0.0000000E+00;  0.0000000E+00;  0.0000000E+00;  0.0000000E+00;  0.0000000E+00;  0.0000000E+00;0; -3.4572084E-05;  1.0000000E+02;  0.0000000E+00;  0.0000000E+00;  1.0000000E+02;  0.0000000E+00;  1.0000000E+02; -3.4612371E-05;  0.0000000E+00;  4.0287738E-08;  0.0000000E+00;
 -1.0000000E+00;  9.9999998E-03;  1.2000000E+00;16;  0.0000000E+00;  0.0000000E+00;  0.0000000E+00;  1.0000445E+01;  4.0000001E-01;  4.7970403E-02;0;  0.0000000E+00;  0.0000000E+00;  0.0000000E+00;  0.0000000E+00;  0.0000000E+00;  0.0000000E+00;0; -2.3785062E-05;  1.0000000E+02;  0.0000000E+00;  0.0000000E+00;  1.0000000E+02;  0.0000000E+00;  1.0000000E+02; -2.3812883E-05;  0.0000000E+00;  2.7820677E-08;  0.0000000E+00;
 -1.0000000E+00;  9.9999998E-03;  1.4000000E+00;17;  0.0000000E+00;  0.0000000E+00;  0.0000000E+00;  1.0000267E+01;  4.0000001E-01;  2.8730936E-02;0;  0.0000000E+00;  0.0000000E+00;  0.0000000E+00;  0.0000000E+00;  0.0000000E+00;  0.0000000E+00;0; -1.4509801E-05;  1.0000000E+02;  0.0000000E+00;  0.0000000E+00;  1.0000000E+02;  0.0000000E+00;  1.0000000E+02; -1.4499024E-05;  0.0000000E+00; -1.0777886E-08;  0.0000000E+00;
 -8.0000001E-01;  9.9999998E-03;  0.0000000E+00;31;  0.0000000E+00;  0.0000000E+00;  0.0000000E+00;  1.0002454E+01;  4.0000001E-01;  2.6396540E-01;0;  0.0000000E+00;  0.0000000E+00;  0.0000000E+00;  0.0000000E+00;  0.0000000E+00;  0.0000000E+00;0; -1.3441265E-04;  1.0000000E+02;  0.0000000E+00;  0.0000000E+00;  1.0000000E+02;  0.0000000E+00;  1.0000000E+02; -1.3406583E-04;  0.0000000E+00; -3.4681705E-07;  0.0000000E+00;
 -8.0000001E-01;  9.9999998E-03;  2.0000000E-01;32;  0.0000000E+00;  0.0000000E+00;  0.0000000E+00;  1.0002410E+01;  4.0000001E-01;  2.5934792E-01;0;  0.0000000E+00;  0.0000000E+00;  0.0000000E+00;  0.0000000E+00;  0.0000000E+00;  0.0000000E+00;0; -1.3235421E-04;  1.0000000E+02;  0.0000000E+00;  0.0000000E+00;  1.0000000E+02;  0.0000000E+00;  1.0000000E+02; -1.3202617E-04;  0.0000000E+00; -3.2803894E-07;  0.0000000E+00;
 -8.0000001E-01;  9.9999998E-03;  4.0000001E-01;33;  0.0000000E+00;  0.0000000E+00;  0.0000000E+00;  1.0002262E+01;  4.0000001E-01;  2.4344331E-01;0;  0.0000000E+00;  0.0000000E+00;  0.0000000E+00;  0.0000000E+00;  0.0000000E+00;  0.0000000E+00;0; -1.2564618E-04;  1.0000000E+02;  0.0000000E+00;  0.0000000E+00;  1.0000000E+02;  0.0000000E+00;  1.0000000E+02; -1.2539655E-04;  0.0000000E+00; -2.4964098E-07;  0.0000000E+00;
 -8.0000001E-01;  9.9999998E-03;  6.0000002E-01;34;  0.0000000E+00;  0.0000000E+00;  0.0000000E+00;  1.0002021E+01;  4.0000001E-01;  2.1740590E-01;0;  0.0000000E+00;  0.0000000E+00;  0.0000000E+00;  0.0000000E+00;  0.0000000E+00;  0.0000000E+00;0; -1.1330778E-04;  1.0000000E+02;  0.0000000E+00;  0.0000000E+00;  1.0000000E+02;  0.0000000E+00;  1.0000000E+02; -1.1321172E-04;  0.0000000E+00; -9.6058024E-08;  0.0000000E+00;
 -8.0000001E-01;  9.9999998E-03;  8.0000001E-01;35;  0.0000000E+00;  0.0000000E+00;  0.0000000E+00;  1.0001695E+01;  4.0000001E-01;  1.8239008E-01;0;  0.0000000E+00;  0.0000000E+00;  0.0000000E+00;  0.0000000E+00;  0.0000000E+00;  0.0000000E+00;0; -9.5314659E-05;  1.0000000E+02;  0.0000000E+00;  0.0000000E+00;  1.0000000E+02;  0.0000000E+00;  1.0000000E+02; -9.5403026E-05;  0.0000000E+00;  8.8365958E-08;  0.0000000E+00;
 -8.0000001E-01;  9.9999998E-03;  1.0000000E+00;36;  0.0000000E+00;  0.0000000E+00;  0.0000000E+00;  1.0001290E+01;  4.0000001E-01;  1.3878064E-01;0;  0.0000000E+00;  0.0000000E+00;  0.0000000E+00;  0.0000000E+00;  0.0000000E+00;  0.0000000E+00;0; -7.3523697E-05;  1.0000000E+02;  0.0000000E+00;  0.0000000E+00;  1.0000000E+02;  0.0000000E+00;  1.0000000E+02; -7.3761155E-05;  0.0000000E+00;  2.3745862E-07;  0.0000000E+00;
 -8.0000001E-01;  9.9999998E-03;  1.2000000E+00;37;  0.0000000E+00;  0.0000000E+00;  0.0000000E+00;  1.0000896E+01;  4.0000001E-01;  9.6325561E-02;0;  0.0000000E+00;  0.0000000E+00;  0.0000000E+00;  0.0000000E+00;  0.0000000E+00;  0.0000000E+00;0; -5.1325351E-05;  1.0000000E+02;  0.0000000E+00;  0.0000000E+00;  1.0000000E+02;  0.0000000E+00;  1.0000000E+02; -5.1628966E-05;  0.0000000E+00;  3.0361429E-07;  0.0000000E+00;
 -8.0000001E-01;  9.9999998E-03;  1.4000000E+00;38;  0.0000000E+00;  0.0000000E+00;  0.0000000E+00;  1.0000555E+01;  4.0000001E-01;  5.9770592E-02;0;  0.0000000E+00;  0.0000000E+00;  0.0000000E+00;  0.0000000E+00;  0.0000000E+00;  0.0000000E+00;0; -3.2169995E-05;  1.0000000E+02;  0.0000000E+00;  0.0000000E+00;  1.0000000E+02;  0.0000000E+00;  1.0000000E+02; -3.2440541E-05;  0.0000000E+00;  2.7054523E-07;  0.0000000E+00;
 -6.0000002E-01;  9.9999998E-03;  0.0000000E+00;52;  0.0000000E+00;  0.0000000E+00;  0.0000000E+00;  1.0003871E+01;  4.0000001E-01;  4.1646990E-01;0;  0.0000000E+00;  0.0000000E+00;  0.0000000E+00;  0.0000000E+00;  0.0000000E+00;  0.0000000E+00;0; -2.0982981E-04;  1.0000000E+02;  0.0000000E+00;  0.0000000E+00;  1.0000000E+02;  0.0000000E+00;  1.0000000E+02; -2.0849834E-04;  0.0000000E+00; -1.3314744E-06;  0.0000000E+00;
 -6.0000002E-01;  9.9999998E-03;  2.0000000E-01;53;  0.0000000E+00;  0.0000000E+00;  0.0000000E+00;  1.0003797E+01;  4.0000001E-01;  4.0851760E-01;0;  0.0000000E+00;  0.0000000E+00;  0.0000000E+00;  0.0000000E+00;  0.0000000E+00;  0.0000000E+00;0; -2.0605513E-04;  1.0000000E+02;  0.0000000E+00;  0.0000000E+00;  1.0000000E+02;  0.0000000E+00;  1.0000000E+02; -2.0484401E-04;  0.0000000E+00; -1.2111323E-06;  0.0000000E+00;
 -6.0000002E-01;  9.9999998E-03;  4.0000001E-01;54;  0.0000000E+00;  0.0000000E+00;  0.0000000E+00;  1.0003564E+01;  4.0000001E-01;  3.8350633E-01;0;  0.0000000E+00;  0.0000000E+00;  0.0000000E+00;  0.0000000E+00;  0.0000000E+00;  0.0000000E+00;0; -1.9433889E-04;  1.0000000E+02;  0.0000000E+00;  0.0000000E+00;  1.0000000E+02;  0.0000000E+00;  1.0000000E+02; -1.9347401E-04;  0.0000000E+00; -8.6488529E-07;  0.0000000E+00;
 -6.0000002E-01;  9.9999998E-03;  6.0000002E-01;55;  0.0000000E+00;  0.0000000E+00;  0.0000000E+00;  1.0003171E+01;  4.0000001E-01;  3.4117952E-01;0;  0.0000000E+00;  0.0000000E+00;  0.0000000E+00;  0.0000000E+00;  0.0000000E+00;  0.0000000E+00;0; -1.7403031E-04;  1.0000000E+02;  0.0000000E+00;  0.0000000E+00;  1.0000000E+02;  0.0000000E+00;  1.0000000E+02; -1.7368681E-04;  0.0000000E+00; -3.4349441E-07;  0.0000000E+00;
 -6.0000002E-01;  9.9999998E-03;  8.0000001E-01;56;  0.0000000E+00;  0.0000000E+00;  0.0000000E+00;  1.0002650E+01;  4.0000001E-01;  2.8512862E-01;0;  0.0000000E+00;  0.0000000E+00;  0.0000000E+00;  0.0000000E+00;  0.0000000E+00;  0.0000000E+00;0; -1.4566160E-04;  1.0000000E+02;  0.0000000E+00;  0.0000000E+00;  1.0000000E+02;  0.0000000E+00;  1.0000000E+02; -1.4588227E-04;  0.0000000E+00;  2.2066577E-07;  0.0000000E+00;
 -6.0000002E-01;  9.9999998E-03;  1.0000000E+00;57;  0.0000000E+00;  0.0000000E+00;  0.0000000E+00;  1.0002022E+01;  4.0000001E-01;  2.1753402E-01;0;  0.0000000E+00;  0.0000000E+00;  0.0000000E+00;  0.0000000E+00;  0.0000000E+00;  0.0000000E+00;0; -1.1215643E-04;  1.0000000E+02;  0.0000000E+00;  0.0000000E+00;  1.0000000E+02;  0.0000000E+00;  1.0000000E+02; -1.1283403E-04;  0.0000000E+00;  6.7759515E-07;  0.0000000E+00;
 -6.0000002E-01;  9.9999998E-03;  1.2000000E+00;58;  0.0000000E+00;  0.0000000E+00;  0.0000000E+00;  1.0001415E+01;  4.0000001E-01;  1.5224816E-01;0;  0.0000000E+00;  0.0000000E+00;  0.0000000E+00;  0.0000000E+00;  0.0000000E+00;  0.0000000E+00;0; -7.8459474E-05;  1.0000000E+02;  0.0000000E+00;  0.0000000E+00;  1.0000000E+02;  0.0000000E+00;  1.0000000E+02; -7.9395417E-05;  0.0000000E+00;  9.3594196E-07;  0.0000000E+00;
 -6.0000002E-01;  9.9999998E-03;  1.4000000E+00;59;  0.0000000E+00;  0.0000000E+00;  0.0000000E+00;  1.0000902E+01;  4.0000001E-01;  9.7095080E-02;0;  0.0000000E+00;  0.0000000E+00;  0.0000000E+00;  0.0000000E+00;  0.0000000E+00;  0.0000000E+00;0; -4.9556602E-05;  1.0000000E+02;  0.0000000E+00;  0.0000000E+00;  1.0000000E+02;  0.0000000E+00;  1.0000000E+02; -5.0517297E-05;  0.0000000E+00;  9.6069459E-07;  0.0000000E+00;
 -4.0000001E-01;  9.9999998E-03;  0.0000000E+00;73;  0.0000000E+00;  0.0000000E+00;  0.0000000E+00;  1.0004963E+01;  4.0000001E-01;  5.3395796E-01;0;  0.0000000E+00;  0.0000000E+00;  0.0000000E+00;  0.0000000E+00;  0.0000000E+00;  0.0000000E+00;0; -2.6403461E-04;  1.0000000E+02;  0.0000000E+00;  0.0000000E+00;  1.0000000E+02;  0.0000000E+00;  1.0000000E+02; -2.6084098E-04;  0.0000000E+00; -3.1936258E-06;  0.0000000E+00;
 -4.0000001E-01;  9.9999998E-03;  2.0000000E-01;74;  0.0000000E+00;  0.0000000E+00;  0.0000000E+00;  1.0004860E+01;  4.0000001E-01;  5.2292734E-01;0;  0.0000000E+00;  0.0000000E+00;  0.0000000E+00;  0.0000000E+00;  0.0000000E+00;  0.0000000E+00;0; -2.5822423E-04;  1.0000000E+02;  0.0000000E+00;  0.0000000E+00;  1.0000000E+02;  0.0000000E+00;  1.0000000E+02; -2.5534508E-04;  0.0000000E+00; -2.8791421E-06;  0.0000000E+00;
 -4.0000001E-01;  9.9999998E-03;  4.0000001E-01;75;  0.0000000E+00;  0.0000000E+00;  0.0000000E+00;  1.0004540E+01;  4.0000001E-01;  4.8855293E-01;0;  0.0000000E+00;  0.0000000E+00;  0.0000000E+00;  0.0000000E+00;  0.0000000E+00;  0.0000000E+00;0; -2.4110235E-04;  1.0000000E+02;  0.0000000E+00;  0.0000000E+00;  1.0000000E+02;  0.0000000E+00;  1.0000000E+02; -2.3908060E-04;  0.0000000E+00; -2.0217410E-06;  0.0000000E+00;
 -4.0000001E-01;  9.9999998E-03;  6.0000002E-01;76;  0.0000000E+00;  0.0000000E+00;  0.0000000E+00;  1.0004033E+01;  4.0000001E-01;  4.3391299E-01;0;  0.0000000E+00;  0.0000000E+00;  0.0000000E+00;  0.0000000E+00;  0.0000000E+00;  0.0000000E+00;0; -2.1341590E-04;  1.0000000E+02;  0.0000000E+00;  0.0000000E+00;  1.0000000E+02;  0.0000000E+00;  1.0000000E+02; -2.1258921E-04;  0.0000000E+00; -8.2668805E-07;  0.0000000E+00;
 -4.0000001E-01;  9.9999998E-03;  8.0000001E-01;77;  0.0000000E+00;  0.0000000E+00;  0.0000000E+00;  1.0003350E+01;  4.0000001E-01;  3.6041841E-01;0;  0.0000000E+00;  0.0000000E+00;  0.0000000E+00;  0.0000000E+00;  0.0000000E+00;  0.0000000E+00;0; -1.7677386E-04;  1.0000000E+02;  0.0000000E+00;  0.0000000E+00;  1.0000000E+02;  0.0000000E+00;  1.0000000E+02; -1.7719831E-04;  0.0000000E+00;  4.2445484E-07;  0.0000000E+00;
 -4.0000001E-01;  9.9999998E-03;  1.0000000E+00;78;  0.0000000E+00;  0.0000000E+00;  0.0000000E+00;  1.0002571E+01;  4.0000001E-01;  2.7666283E-01;0;  0.0000000E+00;  0.0000000E+00;  0.0000000E+00;  0.0000000E+00;  0.0000000E+00;  0.0000000E+00;0; -1.3486747E-04;  1.0000000E+02;  0.0000000E+00;  0.0000000E+00;  1.0000000E+02;  0.0000000E+00;  1.0000000E+02; -1.3631066E-04;  0.0000000E+00;  1.4431815E-06;  0.0000000E+00;
 -4.0000001E-01;  9.9999998E-03;  1.2000000E+00;79;  0.0000000E+00;  0.0000000E+00;  0.0000000E+00;  1.0001806E+01;  4.0000001E-01;  1.9431812E-01;0;  0.0000000E+00;  0.0000000E+00;  0.0000000E+00;  0.0000000E+00;  0.0000000E+00;  0.0000000E+00;0; -9.3503870E-05;  1.0000000E+02;  0.0000000E+00;  0.0000000E+00;  1.0000000E+02;  0.0000000E+00;  1.0000000E+02; -9.5574302E-05;  0.0000000E+00;  2.0704285E-06;  0.0000000E+00;
 -4.0000001E-01;  9.9999998E-03;  1.4000000E+00;80;  0.0000000E+00;  0.0000000E+00;  0.0000000E+00;  1.0001164E+01;  4.0000001E-01;  1.2531273E-01;0;  0.0000000E+00;  0.0000000E+00;  0.0000000E+00;  0.0000000E+00;  0.0000000E+00;  0.0000000E+00;0; -5.8662648E-05;  1.0000000E+02;  0.0000000E+00;  0.0000000E+00;  1.0000000E+02;  0.0000000E+00;  1.0000000E+02; -6.0902668E-05;  0.0000000E+00;  2.2400191E-06;  0.0000000E+00;
 -2.0000000E-01;  9.9999998E-03;  0.0000000E+00;94;  0.0000000E+00;  0.0000000E+00;  0.0000000E+00;  1.0005580E+01;  4.0000001E-01;  6.0039604E-01;0;  0.0000000E+00;  0.0000000E+00;  0.0000000E+00;  0.0000000E+00;  0.0000000E+00;  0.0000000E+00;0; -2.8369148E-04;  1.0000000E+02;  0.0000000E+00;  0.0000000E+00;  1.0000000E+02;  0.0000000E+00;  1.0000000E+02; -2.7785797E-04;  0.0000000E+00; -5.8335090E-06;  0.0000000E+00;
 -2.0000000E-01;  9.9999998E-03;  2.0000000E-01;95;  0.0000000E+00;  0.0000000E+00;  0.0000000E+00;  1.0005458E+01;  4.0000001E-01;  5.8718503E-01;0;  0.0000000E+00;  0.0000000E+00;  0.0000000E+00;  0.0000000E+00;  0.0000000E+00;  0.0000000E+00;0; -2.7544508E-04;  1.0000000E+02;  0.0000000E+00;  0.0000000E+00;  1.0000000E+02;  0.0000000E+00;  1.0000000E+02; -2.7013809E-04;  0.0000000E+00; -5.3070053E-06;  0.0000000E+00;
 -2.0000000E-01;  9.9999998E-03;  4.0000001E-01;96;  0.0000000E+00;  0.0000000E+00;  0.0000000E+00;  1.0005078E+01;  4.0000001E-01;  5.4639757E-01;0;  0.0000000E+00;  0.0000000E+00;  0.0000000E+00;  0.0000000E+00;  0.0000000E+00;  0.0000000E+00;0; -2.5228187E-04;  1.0000000E+02;  0.0000000E+00;  0.0000000E+00;  1.0000000E+02;  0.0000000E+00;  1.0000000E+02; -2.4847194E-04;  0.0000000E+00; -3.8099124E-06;  0.0000000E+00;
 -2.0000000E-01;  9.9999998E-03;  6.0000002E-01;97;  0.0000000E+00;  0.0000000E+00;  0.0000000E+00;  1.0004490E+01;  4.0000001E-01;  4.8303598E-01;0;  0.0000000E+00;  0.0000000E+00;  0.0000000E+00;  0.0000000E+00;  0.0000000E+00;  0.0000000E+00;0; -2.1795912E-04;  1.0000000E+02;  0.0000000E+00;  0.0000000E+00;  1.0000000E+02;  0.0000000E+00;  1.0000000E+02; -2.1629561E-04;  0.0000000E+00; -1.6635203E-06;  0.0000000E+00;
 -2.0000000E-01;  9.9999998E-03;  8.0000001E-01;98;  0.0000000E+00;  0.0000000E+00;  0.0000000E+00;  1.0003716E+01;  4.0000001E-01;  3.9992198E-01;0;  0.0000000E+00;  0.0000000E+00;  0.0000000E+00;  0.0000000E+00;  0.0000000E+00;  0.0000000E+00;0; -1.7648020E-04;  1.0000000E+02;  0.0000000E+00;  0.0000000E+00;  1.0000000E+02;  0.0000000E+00;  1.0000000E+02; -1.7709516E-04;  0.0000000E+00;  6.1496604E-07;  0.0000000E+00;
 -2.0000000E-01;  9.9999998E-03;  1.0000000E+00;99;  0.0000000E+00;  0.0000000E+00;  0.0000000E+00;  1.0002845E+01;  4.0000001E-01;  3.0603394E-01;0;  0.0000000E+00;  0.0000000E+00;  0.0000000E+00;  0.0000000E+00;  0.0000000E+00;  0.0000000E+00;0; -1.3199537E-04;  1.0000000E+02;  0.0000000E+00;  0.0000000E+00;  1.0000000E+02;  0.0000000E+00;  1.0000000E+02; -1.3450174E-04;  0.0000000E+00;  2.5063569E-06;  0.0000000E+00;
 -2.0000000E-01;  9.9999998E-03;  1.2000000E+00;100;  0.0000000E+00;  0.0000000E+00;  0.0000000E+00;  1.0001987E+01;  4.0000001E-01;  2.1368507E-01;0;  0.0000000E+00;  0.0000000E+00;  0.0000000E+00;  0.0000000E+00;  0.0000000E+00;  0.0000000E+00;0; -8.9705762E-05;  1.0000000E+02;  0.0000000E+00;  0.0000000E+00;  1.0000000E+02;  0.0000000E+00;  1.0000000E+02; -9.3439550E-05;  0.0000000E+00;  3.7337879E-06;  0.0000000E+00;
 -2.0000000E-01;  9.9999998E-03;  1.4000000E+00;101;  0.0000000E+00;  0.0000000E+00;  0.0000000E+00;  1.0001284E+01;  4.0000001E-01;  1.3813855E-01;0;  0.0000000E+00;  0.0000000E+00;  0.0000000E+00;  0.0000000E+00;  0.0000000E+00;  0.0000000E+00;0; -5.5441822E-05;  1.0000000E+02;  0.0000000E+00;  0.0000000E+00;  1.0000000E+02;  0.0000000E+00;  1.0000000E+02; -5.9621500E-05;  0.0000000E+00;  4.1796793E-06;  0.0000000E+00;
  0.0000000E+00;  9.9999998E-03;  1.2000000E+00;110;  0.0000000E+00;  0.0000000E+00;  0.0000000E+00;  1.0001941E+01;  4.0000001E-01;  2.0880948E-01;0;  0.0000000E+00;  0.0000000E+00;  0.0000000E+00;  0.0000000E+00;  0.0000000E+00;  0.0000000E+00;0; -5.5535296E-05;  1.0000000E+02;  0.0000000E+00;  0.0000000E+00;  1.0000000E+02;  0.0000000E+00;  1.0000000E+02; -6.1225583E-05;  0.0000000E+00;  5.6902868E-06;  0.0000000E+00;
  0.0000000E+00;  9.9999998E-03;  1.4000000E+00;111;  0.0000000E+00;  0.0000000E+00;  0.0000000E+00;  1.0001239E+01;  4.0000001E-01;  1.3326354E-01;0;  0.0000000E+00;  0.0000000E+00;  0.0000000E+00;  0.0000000E+00;  0.0000000E+00;  0.0000000E+00;0; -3.3286320E-05;  1.0000000E+02;  0.0000000E+00;  0.0000000E+00;  1.0000000E+02;  0.0000000E+00;  1.0000000E+02; -3.9771105E-05;  0.0000000E+00;  6.4847859E-06;  0.0000000E+00;
  2.0000000E-01;  9.9999998E-03;  1.2000000E+00;120;  0.0000000E+00;  0.0000000E+00;  0.0000000E+00;  1.0001606E+01;  4.0000001E-01;  1.7276506E-01;0;  0.0000000E+00;  0.0000000E+00;  0.0000000E+00;  0.0000000E+00;  0.0000000E+00;  0.0000000E+00;0;  2.9668927E-05;  1.0000000E+02;  0.0000000E+00;  0.0000000E+00;  1.0000000E+02;  0.0000000E+00;  1.0000000E+02;  2.2235256E-05;  0.0000000E+00;  7.4336713E-06;  0.0000000E+00;
  2.0000000E-01;  9.9999998E-03;  1.4000000E+00;121;  0.0000000E+00;  0.0000000E+00;  0.0000000E+00;  1.0001053E+01;  4.0000001E-01;  1.1325282E-01;0;  0.0000000E+00;  0.0000000E+00;  0.0000000E+00;  0.0000000E+00;  0.0000000E+00;  0.0000000E+00;0;  2.2640190E-05;  1.0000000E+02;  0.0000000E+00;  0.0000000E+00;  1.0000000E+02;  0.0000000E+00;  1.0000000E+02;  1.4163221E-05;  0.0000000E+00;  8.4769681E-06;  0.0000000E+00;
  4.0000001E-01;  9.9999998E-03;  1.2000000E+00;130;  0.0000000E+00;  0.0000000E+00;  0.0000000E+00;  1.0000916E+01;  4.0000001E-01;  9.8499253E-02;0;  0.0000000E+00;  0.0000000E+00;  0.0000000E+00;  0.0000000E+00;  0.0000000E+00;  0.0000000E+00;0;  1.9854039E-04;  1.0000000E+02;  0.0000000E+00;  0.0000000E+00;  1.0000000E+02;  0.0000000E+00;  1.0000000E+02;  1.9041062E-04;  0.0000000E+00;  8.1297831E-06;  0.0000000E+00;
  4.0000001E-01;  9.9999998E-03;  1.4000000E+00;131;  0.0000000E+00;  0.0000000E+00;  0.0000000E+00;  1.0000617E+01;  4.0000001E-01;  6.6435695E-02;0;  0.0000000E+00;  0.0000000E+00;  0.0000000E+00;  0.0000000E+00;  0.0000000E+00;  0.0000000E+00;0;  1.3839196E-04;  1.0000000E+02;  0.0000000E+00;  0.0000000E+00;  1.0000000E+02;  0.0000000E+00;  1.0000000E+02;  1.2894168E-04;  0.0000000E+00;  9.4502757E-06;  0.0000000E+00;
  6.0000002E-01;  9.9999998E-03;  1.2000000E+00;140;  0.0000000E+00;  0.0000000E+00;  0.0000000E+00;  1.0000000E+01;  4.0000001E-01;  0.0000000E+00;0;  0.0000000E+00;  0.0000000E+00;  0.0000000E+00;  0.0000000E+00;  0.0000000E+00;  0.0000000E+00;0;  4.9755856E-04;  1.0000000E+02;  0.0000000E+00;  0.0000000E+00;  1.0000000E+02;  0.0000000E+00;  1.0000000E+02;  4.8978365E-04;  0.0000000E+00;  7.7749228E-06;  0.0000000E+00;
  6.0000002E-01;  9.9999998E-03;  1.4000000E+00;141;  0.0000000E+00;  0.0000000E+00;  0.0000000E+00;  1.0000000E+01;  4.0000001E-01;  0.0000000E+00;0;  0.0000000E+00;  0.0000000E+00;  0.0000000E+00;  0.0000000E+00;  0.0000000E+00;  0.0000000E+00;0;  3.5191062E-04;  1.0000000E+02;  0.0000000E+00;  0.0000000E+00;  1.0000000E+02;  0.0000000E+00;  1.0000000E+02;  3.4251495E-04;  0.0000000E+00;  9.3956869E-06;  0.0000000E+00;
  8.0000001E-01;  9.9999998E-03;  1.2000000E+00;150;  0.0000000E+00;  0.0000000E+00;  0.0000000E+00;  1.0000000E+01;  4.0000001E-01;  0.0000000E+00;0;  0.0000000E+00;  0.0000000E+00;  0.0000000E+00;  0.0000000E+00;  0.0000000E+00;  0.0000000E+00;0;  9.6642756E-04;  1.0000000E+02;  0.0000000E+00;  0.0000000E+00;  1.0000000E+02;  0.0000000E+00;  1.0000000E+02;  9.5879199E-04;  0.0000000E+00;  7.6355573E-06;  0.0000000E+00;
  8.0000001E-01;  9.9999998E-03;  1.4000000E+00;151;  0.0000000E+00;  0.0000000E+00;  0.0000000E+00;  1.0000000E+01;  4.0000001E-01;  0.0000000E+00;0;  0.0000000E+00;  0.0000000E+00;  0.0000000E+00;  0.0000000E+00;  0.0000000E+00;  0.0000000E+00;0;  6.9564069E-04;  1.0000000E+02;  0.0000000E+00;  0.0000000E+00;  1.0000000E+02;  0.0000000E+00;  1.0000000E+02;  6.8663969E-04;  0.0000000E+00;  9.0010099E-06;  0.0000000E+00;
  1.0000000E+00;  9.9999998E-03;  1.2000000E+00;160;  0.0000000E+00;  0.0000000E+00;  0.0000000E+00;  1.0000000E+01;  4.0000001E-01;  0.0000000E+00;0;  0.0000000E+00;  0.0000000E+00;  0.0000000E+00;  0.0000000E+00;  0.0000000E+00;  0.0000000E+00;0;  1.5920106E-03;  1.0000000E+02;  0.0000000E+00;  0.0000000E+00;  1.0000000E+02;  0.0000000E+00;  1.0000000E+02;  1.5830738E-03;  0.0000000E+00;  8.9368368E-06;  0.0000000E+00;
  1.0000000E+00;  9.9999998E-03;  1.4000000E+00;161;  0.0000000E+00;  0.0000000E+00;  0.0000000E+00;  1.0000000E+01;  4.0000001E-01;  0.0000000E+00;0;  0.0000000E+00;  0.0000000E+00;  0.0000000E+00;  0.0000000E+00;  0.0000000E+00;  0.0000000E+00;0;  1.1493345E-03;  1.0000000E+02;  0.0000000E+00;  0.0000000E+00;  1.0000000E+02;  0.0000000E+00;  1.0000000E+02;  1.1413033E-03;  0.0000000E+00;  8.0311511E-06;  0.0000000E+00;
 -1.0000000E+00;  9.9999998E-03;  1.6000000E+00;18;  0.0000000E+00;  0.0000000E+00;  0.0000000E+00;  1.0000038E+01;  4.0000001E-01;  4.1044196E-03;0;  0.0000000E+00;  0.0000000E+00;  0.0000000E+00;  0.0000000E+00;  0.0000000E+00;  0.0000000E+00;0; -7.8010962E-06;  1.0000000E+02;  0.0000000E+00;  0.0000000E+00;  1.0000000E+02;  0.0000000E+00;  1.0000000E+02; -7.7428767E-06;  0.0000000E+00; -5.8219420E-08;  0.0000000E+00;
 -1.0000000E+00;  9.9999998E-03;  1.8000000E+00;19;  0.0000000E+00;  0.0000000E+00;  0.0000000E+00;  1.0000000E+01;  4.0000001E-01;  0.0000000E+00;0;  0.0000000E+00;  0.0000000E+00;  0.0000000E+00;  0.0000000E+00;  0.0000000E+00;  0.0000000E+00;0; -3.6144252E-06;  1.0000000E+02;  0.0000000E+00;  0.0000000E+00;  1.0000000E+02;  0.0000000E+00;  1.0000000E+02; -3.5342159E-06;  0.0000000E+00; -8.0209311E-08;  0.0000000E+00;
 -1.0000000E+00;  9.9999998E-03;  2.0000000E+00;20;  0.0000000E+00;  0.0000000E+00;  0.0000000E+00;  1.0000000E+01;  4.0000001E-01;  0.0000000E+00;0;  0.0000000E+00;  0.0000000E+00;  0.0000000E+00;  0.0000000E+00;  0.0000000E+00;  0.0000000E+00;0; -1.2536241E-06;  1.0000000E+02;  0.0000000E+00;  0.0000000E+00;  1.0000000E+02;  0.0000000E+00;  1.0000000E+02; -1.2009541E-06;  0.0000000E+00; -5.2669943E-08;  0.0000000E+00;
 -8.0000001E-01;  9.9999998E-03;  1.6000000E+00;39;  0.0000000E+00;  0.0000000E+00;  0.0000000E+00;  1.0000361E+01;  4.0000001E-01;  3.8863711E-02;0;  0.0000000E+00;  0.0000000E+00;  0.0000000E+00;  0.0000000E+00;  0.0000000E+00;  0.0000000E+00;0; -1.8033114E-05;  1.0000000E+02;  0.0000000E+00;  0.0000000E+00;  1.0000000E+02;  0.0000000E+00;  1.0000000E+02; -1.8189037E-05;  0.0000000E+00;  1.5592408E-07;  0.0000000E+00;
 -8.0000001E-01;  9.9999998E-03;  1.8000000E+00;40;  0.0000000E+00;  0.0000000E+00;  0.0000000E+00;  1.0000087E+01;  4.0000001E-01;  9.3632042E-03;0;  0.0000000E+00;  0.0000000E+00;  0.0000000E+00;  0.0000000E+00;  0.0000000E+00;  0.0000000E+00;0; -8.9084078E-06;  1.0000000E+02;  0.0000000E+00;  0.0000000E+00;  1.0000000E+02;  0.0000000E+00;  1.0000000E+02; -8.9298601E-06;  0.0000000E+00;  2.1452413E-08;  0.0000000E+00;
 -8.0000001E-01;  9.9999998E-03;  2.0000000E+00;41;  0.0000000E+00;  0.0000000E+00;  0.0000000E+00;  1.0000000E+01;  4.0000001E-01;  0.0000000E+00;0;  0.0000000E+00;  0.0000000E+00;  0.0000000E+00;  0.0000000E+00;  0.0000000E+00;  0.0000000E+00;0; -3.5654255E-06;  1.0000000E+02;  0.0000000E+00;  0.0000000E+00;  1.0000000E+02;  0.0000000E+00;  1.0000000E+02; -3.5200967E-06;  0.0000000E+00; -4.5328743E-08;  0.0000000E+00;
 -6.0000002E-01;  9.9999998E-03;  1.6000000E+00;60;  0.0000000E+00;  0.0000000E+00;  0.0000000E+00;  1.0000528E+01;  4.0000001E-01;  5.6820501E-02;0;  0.0000000E+00;  0.0000000E+00;  0.0000000E+00;  0.0000000E+00;  0.0000000E+00;  0.0000000E+00;0; -2.8194352E-05;  1.0000000E+02;  0.0000000E+00;  0.0000000E+00;  1.0000000E+02;  0.0000000E+00;  1.0000000E+02; -2.8948791E-05;  0.0000000E+00;  7.5443893E-07;  0.0000000E+00;
 -6.0000002E-01;  9.9999998E-03;  1.8000000E+00;61;  0.0000000E+00;  0.0000000E+00;  0.0000000E+00;  1.0000278E+01;  4.0000001E-01;  3.0013537E-02;0;  0.0000000E+00;  0.0000000E+00;  0.0000000E+00;  0.0000000E+00;  0.0000000E+00;  0.0000000E+00;0; -1.4302231E-05;  1.0000000E+02;  0.0000000E+00;  0.0000000E+00;  1.0000000E+02;  0.0000000E+00;  1.0000000E+02; -1.4701424E-05;  0.0000000E+00;  3.9919368E-07;  0.0000000E+00;
 -6.0000002E-01;  9.9999998E-03;  2.0000000E+00;62;  0.0000000E+00;  0.0000000E+00;  0.0000000E+00;  1.0000000E+01;  4.0000001E-01;  0.0000000E+00;0;  0.0000000E+00;  0.0000000E+00;  0.0000000E+00;  0.0000000E+00;  0.0000000E+00;  0.0000000E+00;0; -6.1408064E-06;  1.0000000E+02;  0.0000000E+00;  0.0000000E+00;  1.0000000E+02;  0.0000000E+00;  1.0000000E+02; -6.2391246E-06;  0.0000000E+00;  9.8318090E-08;  0.0000000E+00;
 -4.0000001E-01;  9.9999998E-03;  1.6000000E+00;81;  0.0000000E+00;  0.0000000E+00;  0.0000000E+00;  1.0000670E+01;  4.0000001E-01;  7.2083682E-02;0;  0.0000000E+00;  0.0000000E+00;  0.0000000E+00;  0.0000000E+00;  0.0000000E+00;  0.0000000E+00;0; -3.3343400E-05;  1.0000000E+02;  0.0000000E+00;  0.0000000E+00;  1.0000000E+02;  0.0000000E+00;  1.0000000E+02; -3.5257999E-05;  0.0000000E+00;  1.9145991E-06;  0.0000000E+00;
 -4.0000001E-01;  9.9999998E-03;  1.8000000E+00;82;  0.0000000E+00;  0.0000000E+00;  0.0000000E+00;  1.0000381E+01;  4.0000001E-01;  4.0915824E-02;0;  0.0000000E+00;  0.0000000E+00;  0.0000000E+00;  0.0000000E+00;  0.0000000E+00;  0.0000000E+00;0; -1.7126285E-05;  1.0000000E+02;  0.0000000E+00;  0.0000000E+00;  1.0000000E+02;  0.0000000E+00;  1.0000000E+02; -1.8325598E-05;  0.0000000E+00;  1.1993121E-06;  0.0000000E+00;
 -4.0000001E-01;  9.9999998E-03;  2.0000000E+00;83;  0.0000000E+00;  0.0000000E+00;  0.0000000E+00;  1.0000092E+01;  4.0000001E-01;  9.8762335E-03;0;  0.0000000E+00;  0.0000000E+00;  0.0000000E+00;  0.0000000E+00;  0.0000000E+00;  0.0000000E+00;0; -7.7186960E-06;  1.0000000E+02;  0.0000000E+00;  0.0000000E+00;  1.0000000E+02;  0.0000000E+00;  1.0000000E+02; -8.1902190E-06;  0.0000000E+00;  4.7152284E-07;  0.0000000E+00;
 -2.0000000E-01;  9.9999998E-03;  1.6000000E+00;102;  0.0000000E+00;  0.0000000E+00;  0.0000000E+00;  1.0000748E+01;  4.0000001E-01;  8.0420487E-02;0;  0.0000000E+00;  0.0000000E+00;  0.0000000E+00;  0.0000000E+00;  0.0000000E+00;  0.0000000E+00;0; -3.1252774E-05;  1.0000000E+02;  0.0000000E+00;  0.0000000E+00;  1.0000000E+02;  0.0000000E+00;  1.0000000E+02; -3.4993755E-05;  0.0000000E+00;  3.7409807E-06;  0.0000000E+00;
 -2.0000000E-01;  9.9999998E-03;  1.8000000E+00;103;  0.0000000E+00;  0.0000000E+00;  0.0000000E+00;  1.0000424E+01;  4.0000001E-01;  4.5661394E-02;0;  0.0000000E+00;  0.0000000E+00;  0.0000000E+00;  0.0000000E+00;  0.0000000E+00;  0.0000000E+00;0; -1.6083413E-05;  1.0000000E+02;  0.0000000E+00;  0.0000000E+00;  1.0000000E+02;  0.0000000E+00;  1.0000000E+02; -1.8605053E-05;  0.0000000E+00;  2.5216393E-06;  0.0000000E+00;
 -2.0000000E-01;  9.9999998E-03;  2.0000000E+00;104;  0.0000000E+00;  0.0000000E+00;  0.0000000E+00;  1.0000140E+01;  4.0000001E-01;  1.5134957E-02;0;  0.0000000E+00;  0.0000000E+00;  0.0000000E+00;  0.0000000E+00;  0.0000000E+00;  0.0000000E+00;0; -7.4762238E-06;  1.0000000E+02;  0.0000000E+00;  0.0000000E+00;  1.0000000E+02;  0.0000000E+00;  1.0000000E+02; -8.6122300E-06;  0.0000000E+00;  1.1360061E-06;  0.0000000E+00;
  0.0000000E+00;  9.9999998E-03;  1.6000000E+00;112;  0.0000000E+00;  0.0000000E+00;  0.0000000E+00;  1.0000765E+01;  4.0000001E-01;  8.2343787E-02;0;  0.0000000E+00;  0.0000000E+00;  0.0000000E+00;  0.0000000E+00;  0.0000000E+00;  0.0000000E+00;0; -1.8918887E-05;  1.0000000E+02;  0.0000000E+00;  0.0000000E+00;  1.0000000E+02;  0.0000000E+00;  1.0000000E+02; -2.4889778E-05;  0.0000000E+00;  5.9708914E-06;  0.0000000E+00;
  0.0000000E+00;  9.9999998E-03;  1.8000000E+00;113;  0.0000000E+00;  0.0000000E+00;  0.0000000E+00;  1.0000400E+01;  4.0000001E-01;  4.2967554E-02;0;  0.0000000E+00;  0.0000000E+00;  0.0000000E+00;  0.0000000E+00;  0.0000000E+00;  0.0000000E+00;0; -1.0178692E-05;  1.0000000E+02;  0.0000000E+00;  0.0000000E+00;  1.0000000E+02;  0.0000000E+00;  1.0000000E+02; -1.4414325E-05;  0.0000000E+00;  4.2356337E-06;  0.0000000E+00;
  0.0000000E+00;  9.9999998E-03;  2.0000000E+00;114;  0.0000000E+00;  0.0000000E+00;  0.0000000E+00;  1.0000150E+01;  4.0000001E-01;  1.6160930E-02;0;  0.0000000E+00;  0.0000000E+00;  0.0000000E+00;  0.0000000E+00;  0.0000000E+00;  0.0000000E+00;0; -5.0318495E-06;  1.0000000E+02;  0.0000000E+00;  0.0000000E+00;  1.0000000E+02;  0.0000000E+00;  1.0000000E+02; -7.1049417E-06;  0.0000000E+00;  2.0730920E-06;  0.0000000E+00;
  2.0000000E-01;  9.9999998E-03;  1.6000000E+00;122;  0.0000000E+00;  0.0000000E+00;  0.0000000E+00;  1.0000655E+01;  4.0000001E-01;  7.0542529E-02;0;  0.0000000E+00;  0.0000000E+00;  0.0000000E+00;  0.0000000E+00;  0.0000000E+00;  0.0000000E+00;0;  1.2812336E-05;  1.0000000E+02;  0.0000000E+00;  0.0000000E+00;  1.0000000E+02;  0.0000000E+00;  1.0000000E+02;  4.8432271E-06;  0.0000000E+00;  7.9691081E-06;  0.0000000E+00;
  2.0000000E-01;  9.9999998E-03;  1.8000000E+00;123;  0.0000000E+00;  0.0000000E+00;  0.0000000E+00;  1.0000349E+01;  4.0000001E-01;  3.7579928E-02;0;  0.0000000E+00;  0.0000000E+00;  0.0000000E+00;  0.0000000E+00;  0.0000000E+00;  0.0000000E+00;0;  4.9516211E-06;  1.0000000E+02;  0.0000000E+00;  0.0000000E+00;  1.0000000E+02;  0.0000000E+00;  1.0000000E+02; -9.5042242E-07;  0.0000000E+00;  5.9020435E-06;  0.0000000E+00;
  2.0000000E-01;  9.9999998E-03;  2.0000000E+00;124;  0.0000000E+00;  0.0000000E+00;  0.0000000E+00;  1.0000134E+01;  4.0000001E-01;  1.4493283E-02;0;  0.0000000E+00;  0.0000000E+00;  0.0000000E+00;  0.0000000E+00;  0.0000000E+00;  0.0000000E+00;0;  7.1071622E-07;  1.0000000E+02;  0.0000000E+00;  0.0000000E+00;  1.0000000E+02;  0.0000000E+00;  1.0000000E+02; -2.3651080E-06;  0.0000000E+00;  3.0758242E-06;  0.0000000E+00;
  4.0000001E-01;  9.9999998E-03;  1.6000000E+00;132;  0.0000000E+00;  0.0000000E+00;  0.0000000E+00;  1.0000406E+01;  4.0000001E-01;  4.3734696E-02;0;  0.0000000E+00;  0.0000000E+00;  0.0000000E+00;  0.0000000E+00;  0.0000000E+00;  0.0000000E+00;0;  8.1720355E-05;  1.0000000E+02;  0.0000000E+00;  0.0000000E+00;  1.0000000E+02;  0.0000000E+00;  1.0000000E+02;  7.2587456E-05;  0.0000000E+00;  9.1328957E-06;  0.0000000E+00;
  4.0000001E-01;  9.9999998E-03;  1.8000000E+00;133;  0.0000000E+00;  0.0000000E+00;  0.0000000E+00;  1.0000246E+01;  4.0000001E-01;  2.6420373E-02;0;  0.0000000E+00;  0.0000000E+00;  0.0000000E+00;  0.0000000E+00;  0.0000000E+00;  0.0000000E+00;0;  3.9783834E-05;  1.0000000E+02;  0.0000000E+00;  0.0000000E+00;  1.0000000E+02;  0.0000000E+00;  1.0000000E+02;  3.2686145E-05;  0.0000000E+00;  7.0976903E-06;  0.0000000E+00;
  4.0000001E-01;  9.9999998E-03;  2.0000000E+00;134;  0.0000000E+00;  0.0000000E+00;  0.0000000E+00;  1.0000126E+01;  4.0000001E-01;  1.3594949E-02;0;  0.0000000E+00;  0.0000000E+00;  0.0000000E+00;  0.0000000E+00;  0.0000000E+00;  0.0000000E+00;0;  1.4595737E-05;  1.0000000E+02;  0.0000000E+00;  0.0000000E+00;  1.0000000E+02;  0.0000000E+00;  1.0000000E+02;  1.0658673E-05;  0.0000000E+00;  3.9370634E-06;  0.0000000E+00;
  6.0000002E-01;  9.9999998E-03;  1.6000000E+00;142;  0.0000000E+00;  0.0000000E+00;  0.0000000E+00;  1.0000000E+01;  4.0000001E-01;  0.0000000E+00;0;  0.0000000E+00;  0.0000000E+00;  0.0000000E+00;  0.0000000E+00;  0.0000000E+00;  0.0000000E+00;0;  2.1385720E-04;  1.0000000E+02;  0.0000000E+00;  0.0000000E+00;  1.0000000E+02;  0.0000000E+00;  1.0000000E+02;  2.0448926E-04;  0.0000000E+00;  9.3679428E-06;  0.0000000E+00;
  6.0000002E-01;  9.9999998E-03;  1.8000000E+00;143;  0.0000000E+00;  0.0000000E+00;  0.0000000E+00;  1.0000014E+01;  4.0000001E-01;  1.5389200E-03;0;  0.0000000E+00;  0.0000000E+00;  0.0000000E+00;  0.0000000E+00;  0.0000000E+00;  0.0000000E+00;0;  1.1042058E-04;  1.0000000E+02;  0.0000000E+00;  0.0000000E+00;  1.0000000E+02;  0.0000000E+00;  1.0000000E+02;  1.0269725E-04;  0.0000000E+00;  7.7233344E-06;  0.0000000E+00;
  6.0000002E-01;  9.9999998E-03;  2.0000000E+00;144;  0.0000000E+00;  0.0000000E+00;  0.0000000E+00;  1.0000035E+01;  4.0000001E-01;  3.8473001E-03;0;  0.0000000E+00;  0.0000000E+00;  0.0000000E+00;  0.0000000E+00;  0.0000000E+00;  0.0000000E+00;0;  4.6040088E-05;  1.0000000E+02;  0.0000000E+00;  0.0000000E+00;  1.0000000E+02;  0.0000000E+00;  1.0000000E+02;  4.1386789E-05;  0.0000000E+00;  4.6532991E-06;  0.0000000E+00;
  8.0000001E-01;  9.9999998E-03;  1.6000000E+00;152;  0.0000000E+00;  0.0000000E+00;  0.0000000E+00;  1.0000000E+01;  4.0000001E-01;  0.0000000E+00;0;  0.0000000E+00;  0.0000000E+00;  0.0000000E+00;  0.0000000E+00;  0.0000000E+00;  0.0000000E+00;0;  4.3259218E-04;  1.0000000E+02;  0.0000000E+00;  0.0000000E+00;  1.0000000E+02;  0.0000000E+00;  1.0000000E+02;  4.2372887E-04;  0.0000000E+00;  8.8633042E-06;  0.0000000E+00;
  8.0000001E-01;  9.9999998E-03;  1.8000000E+00;153;  0.0000000E+00;  0.0000000E+00;  0.0000000E+00;  1.0000000E+01;  4.0000001E-01;  0.0000000E+00;0;  0.0000000E+00;  0.0000000E+00;  0.0000000E+00;  0.0000000E+00;  0.0000000E+00;  0.0000000E+00;0;  2.3354452E-04;  1.0000000E+02;  0.0000000E+00;  0.0000000E+00;  1.0000000E+02;  0.0000000E+00;  1.0000000E+02;  2.2577509E-04;  0.0000000E+00;  7.7694312E-06;  0.0000000E+00;
  8.0000001E-01;  9.9999998E-03;  2.0000000E+00;154;  0.0000000E+00;  0.0000000E+00;  0.0000000E+00;  1.0000000E+01;  4.0000001E-01;  0.0000000E+00;0;  0.0000000E+00;  0.0000000E+00;  0.0000000E+00;  0.0000000E+00;  0.0000000E+00;  0.0000000E+00;0;  1.0664794E-04;  1.0000000E+02;  0.0000000E+00;  0.0000000E+00;  1.0000000E+02;  0.0000000E+00;  1.0000000E+02;  1.0129643E-04;  0.0000000E+00;  5.3515118E-06;  0.0000000E+00;
  1.0000000E+00;  9.9999998E-03;  1.6000000E+00;162;  0.0000000E+00;  0.0000000E+00;  0.0000000E+00;  1.0000000E+01;  4.0000001E-01;  0.0000000E+00;0;  0.0000000E+00;  0.0000000E+00;  0.0000000E+00;  0.0000000E+00;  0.0000000E+00;  0.0000000E+00;0;  7.2262762E-04;  1.0000000E+02;  0.0000000E+00;  0.0000000E+00;  1.0000000E+02;  0.0000000E+00;  1.0000000E+02;  7.1594887E-04;  0.0000000E+00;  6.6787452E-06;  0.0000000E+00;
  1.0000000E+00;  9.9999998E-03;  1.8000000E+00;163;  0.0000000E+00;  0.0000000E+00;  0.0000000E+00;  1.0000000E+01;  4.0000001E-01;  0.0000000E+00;0;  0.0000000E+00;  0.0000000E+00;  0.0000000E+00;  0.0000000E+00;  0.0000000E+00;  0.0000000E+00;0;  4.0532270E-04;  1.0000000E+02;  0.0000000E+00;  0.0000000E+00;  1.0000000E+02;  0.0000000E+00;  1.0000000E+02;  3.9924969E-04;  0.0000000E+00;  6.0730117E-06;  0.0000000E+00;
  1.0000000E+00;  9.9999998E-03;  2.0000000E+00;164;  0.0000000E+00;  0.0000000E+00;  0.0000000E+00;  1.0000000E+01;  4.0000001E-01;  0.0000000E+00;0;  0.0000000E+00;  0.0000000E+00;  0.0000000E+00;  0.0000000E+00;  0.0000000E+00;  0.0000000E+00;0;  2.0353019E-04;  1.0000000E+02;  0.0000000E+00;  0.0000000E+00;  1.0000000E+02;  0.0000000E+00;  1.0000000E+02;  1.9825572E-04;  0.0000000E+00;  5.2744745E-06;  0.0000000E+00;
 -3.1226230E-04;  9.9999998E-03; -1.0000534E+00;165; -2.0074820E-04;  0.0000000E+00; -1.3406405E-05;  1.0000778E+01;  3.9992538E-01;  8.3754666E-02;3; -5.8436640E-02;  0.0000000E+00; -2.9869465E-02;  0.0000000E+00;  0.0000000E+00;  0.0000000E+00;0; -8.0844991E-05;  1.0005235E+02;  0.0000000E+00; -1.7787350E-04;  1.0000000E+02;  0.0000000E+00;  1.0000087E+02; -8.5158084E-05;  0.0000000E+00;  4.3130908E-06;  0.0000000E+00;
 -3.5506161E-04;  9.9999998E-03; -8.0004632E-01;166; -2.1365278E-04;  0.0000000E+00; -5.8191267E-06;  1.0001043E+01;  3.9990190E-01;  1.1222868E-01;3; -8.2324542E-02;  0.0000000E+00; -2.3326356E-02;  0.0000000E+00;  0.0000000E+00;  0.0000000E+00;0; -1.1757848E-04;  1.0007008E+02;  0.0000000E+00; -1.2494081E-04;  1.0000000E+02;  0.0000000E+00;  1.0000000E+02; -1.1825348E-04;  0.0000000E+00;  6.7499445E-07;  0.0000000E+00;
 -3.9228215E-04;  9.9999998E-03; -6.0003906E-01;167; -2.2411223E-04;  0.0000000E+00; -3.3333772E-06;  1.0001290E+01;  3.9988127E-01;  1.3877878E-01;3; -1.0455398E-01;  0.0000000E+00; -1.4859675E-02;  0.0000000E+00;  0.0000000E+00;  0.0000000E+00;0; -1.5805742E-04;  1.0008646E+02;  0.0000000E+00; -5.5745539E-05;  1.0000000E+02;  0.0000000E+00;  9.9998749E+01; -1.5517416E-04;  0.0000000E+00; -2.8832549E-06;  0.0000000E+00;
 -4.2104541E-04;  9.9999998E-03; -4.0002853E-01;168; -2.3197182E-04;  0.0000000E+00; -2.6422488E-06;  1.0001496E+01;  3.9986613E-01;  1.6096799E-01;3; -1.2206957E-01;  0.0000000E+00; -7.7416259E-03;  0.0000000E+00;  0.0000000E+00;  0.0000000E+00;0; -1.9724399E-04;  1.0009966E+02;  0.0000000E+00; -1.3576999E-05;  1.0000000E+02;  0.0000000E+00;  9.9997711E+01; -1.9128488E-04;  0.0000000E+00; -5.9591184E-06;  0.0000000E+00;
 -4.3895890E-04;  9.9999998E-03; -2.0001499E-01;169; -2.3679622E-04;  0.0000000E+00; -1.6820878E-06;  1.0001635E+01;  3.9985549E-01;  1.7584631E-01;3; -1.3305959E-01;  0.0000000E+00; -3.0265630E-03;  0.0000000E+00;  0.0000000E+00;  0.0000000E+00;0; -2.2644644E-04;  1.0010829E+02;  0.0000000E+00; -1.1238818E-06;  1.0000000E+02;  0.0000000E+00;  9.9996994E+01; -2.1850286E-04;  0.0000000E+00; -7.9435913E-06;  0.0000000E+00;
  1.9962133E-01;  9.9999998E-03; -1.0000168E+00;176; -2.4594550E-04;  0.0000000E+00;  2.7352453E-05;  1.0000448E+01;  3.9992005E-01;  4.8225444E-02;3; -5.5348188E-02;  0.0000000E+00; -4.6655398E-02;  0.0000000E+00;  0.0000000E+00;  0.0000000E+00;0;  1.2359101E-05;  1.0004800E+02;  0.0000000E+00; -7.8860897E-04;  1.0000000E+02;  0.0000000E+00;  1.0000108E+02;  9.5208088E-06;  0.0000000E+00;  2.8382919E-06;  0.0000000E+00;
  1.9956419E-01;  9.9999998E-03; -8.0002189E-01;177; -2.5830645E-04;  0.0000000E+00;  2.1599682E-05;  1.0000590E+01;  3.9989838E-01;  6.3488282E-02;3; -7.3854953E-02;  0.0000000E+00; -3.5402551E-02;  0.0000000E+00;  0.0000000E+00;  0.0000000E+00;0; -1.8187848E-06;  1.0006287E+02;  0.0000000E+00; -5.8442104E-04;  1.0000000E+02;  0.0000000E+00;  9.9999870E+01; -1.5947444E-06;  0.0000000E+00; -2.2404038E-07;  0.0000000E+00;
  1.9951631E-01;  9.9999998E-03; -6.0002428E-01;178; -2.6825326E-04;  0.0000000E+00;  1.3738973E-05;  1.0000759E+01;  3.9987820E-01;  8.1701085E-02;3; -9.1671199E-02;  0.0000000E+00; -2.2584122E-02;  0.0000000E+00;  0.0000000E+00;  0.0000000E+00;0; -3.5101337E-05;  1.0007758E+02;  0.0000000E+00; -2.9551500E-04;  1.0000000E+02;  0.0000000E+00;  9.9998405E+01; -3.0733005E-05;  0.0000000E+00; -4.3683303E-06;  0.0000000E+00;
  1.9947976E-01;  9.9999998E-03; -4.0002093E-01;179; -2.7649134E-04;  0.0000000E+00;  7.5209641E-06;  1.0000915E+01;  3.9986217E-01;  9.8374769E-02;3; -1.0566416E-01;  0.0000000E+00; -1.2058539E-02;  0.0000000E+00;  0.0000000E+00;  0.0000000E+00;0; -7.7959805E-05;  1.0009031E+02;  0.0000000E+00; -9.2975111E-05;  1.0000000E+02;  0.0000000E+00;  9.9997200E+01; -7.0119531E-05;  0.0000000E+00; -7.8402718E-06;  0.0000000E+00;
  1.9945683E-01;  9.9999998E-03; -2.0001209E-01;180; -2.8164417E-04;  0.0000000E+00;  3.1281713E-06;  1.0001033E+01;  3.9985010E-01;  1.1107243E-01;3; -1.1444459E-01;  0.0000000E+00; -4.9155466E-03;  0.0000000E+00;  0.0000000E+00;  0.0000000E+00;0; -1.1414094E-04;  1.0009907E+02;  0.0000000E+00; -1.3310712E-05;  1.0000000E+02;  0.0000000E+00;  9.9996803E+01; -1.0418093E-04;  0.0000000E+00; -9.9600102E-06;  0.0000000E+00;
  3.9959589E-01;  9.9999998E-03; -1.0000094E+00;187; -2.4704635E-04;  0.0000000E+00;  3.1814016E-05;  1.0000018E+01;  3.9992771E-01;  1.9238137E-03;3; -8.9604720E-02;  0.0000000E+00; -1.3931580E-01;  0.0000000E+00;  0.0000000E+00;  0.0000000E+00;0;  2.0644393E-04;  1.0003597E+02;  0.0000000E+00; -2.2825496E-03;  1.0000000E+02;  0.0000000E+00;  1.0000108E+02;  2.0493564E-04;  0.0000000E+00;  1.5082933E-06;  0.0000000E+00;
  3.9949980E-01;  9.9999998E-03; -7.9999876E-01;188; -2.8057792E-04;  0.0000000E+00;  3.4579432E-05;  1.0000055E+01;  3.9991191E-01;  5.8996957E-03;3; -1.0136785E-01;  0.0000000E+00; -1.0874216E-01;  0.0000000E+00;  0.0000000E+00;  0.0000000E+00;0;  2.2600018E-04;  1.0004604E+02;  0.0000000E+00; -1.7459588E-03;  1.0000000E+02;  0.0000000E+00;  9.9999763E+01;  2.2807560E-04;  0.0000000E+00; -2.0754214E-06;  0.0000000E+00;
  3.9943042E-01;  9.9999998E-03; -6.0000288E-01;189; -3.0190553E-04;  0.0000000E+00;  2.6134081E-05;  1.0000147E+01;  3.9989570E-01;  1.5775274E-02;3; -1.1234581E-01;  0.0000000E+00; -7.1547560E-02;  0.0000000E+00;  0.0000000E+00;  0.0000000E+00;0;  2.0643069E-04;  1.0005715E+02;  0.0000000E+00; -9.4742363E-04;  1.0000000E+02;  0.0000000E+00;  9.9997925E+01;  2.1223689E-04;  0.0000000E+00; -5.8062024E-06;  0.0000000E+00;
  3.9938018E-01;  9.9999998E-03; -4.0000471E-01;190; -3.1615171E-04;  0.0000000E+00;  1.6321050E-05;  1.0000263E+01;  3.9988050E-01;  2.8344193E-02;3; -1.2110244E-01;  0.0000000E+00; -3.9954863E-02;  0.0000000E+00;  0.0000000E+00;  0.0000000E+00;0;  1.6070816E-04;  1.0006805E+02;  0.0000000E+00; -3.3933643E-04;  1.0000000E+02;  0.0000000E+00;  9.9996887E+01;  1.6949102E-04;  0.0000000E+00; -8.7828466E-06;  0.0000000E+00;
  3.9935011E-01;  9.9999998E-03; -2.0000322E-01;191; -3.2419511E-04;  0.0000000E+00;  7.6761607E-06;  1.0000361E+01;  3.9986873E-01;  3.8861044E-02;3; -1.2665613E-01;  0.0000000E+00; -1.7092310E-02;  0.0000000E+00;  0.0000000E+00;  0.0000000E+00;0;  1.1536920E-04;  1.0007627E+02;  0.0000000E+00; -6.1522063E-05;  1.0000000E+02;  0.0000000E+00;  9.9996735E+01;  1.2604579E-04;  0.0000000E+00; -1.0676596E-05;  0.0000000E+00;
  5.9962708E-01;  9.9999998E-03; -1.0000271E+00;198; -1.8505532E-04;  0.0000000E+00;  1.6623268E-05;  9.9994688E+00;  3.9995390E-01; -5.7132427E-02;3; -9.0356782E-02;  0.0000000E+00; -1.5698355E-01;  0.0000000E+00;  0.0000000E+00;  0.0000000E+00;0;  5.6101190E-04;  1.0001241E+02;  0.0000000E+00; -4.8802914E-03;  1.0000000E+02;  0.0000000E+00;  1.0000097E+02;  5.5981881E-04;  0.0000000E+00;  1.1931052E-06;  0.0000000E+00;
  5.9947145E-01;  9.9999998E-03; -7.9998744E-01;199; -2.6262694E-04;  0.0000000E+00;  3.6029287E-05;  9.9994516E+00;  3.9994445E-01; -5.8991954E-02;3; -8.1558660E-02;  0.0000000E+00; -1.2277853E-01;  0.0000000E+00;  0.0000000E+00;  0.0000000E+00;0;  6.1224779E-04;  1.0001810E+02;  0.0000000E+00; -3.7474872E-03;  1.0000000E+02;  0.0000000E+00;  9.9999290E+01;  6.1707926E-04;  0.0000000E+00; -4.8314669E-06;  0.0000000E+00;
  5.9937328E-01;  9.9999998E-03; -5.9998614E-01;200; -3.0453978E-04;  0.0000000E+00;  2.9279168E-05;  9.9994907E+00;  3.9993590E-01; -5.4759931E-02;3; -7.4469067E-02;  0.0000000E+00; -7.9178520E-02;  0.0000000E+00;  0.0000000E+00;  0.0000000E+00;0;  6.0519425E-04;  1.0002480E+02;  0.0000000E+00; -2.1392440E-03;  1.0000000E+02;  0.0000000E+00;  9.9997139E+01;  6.1212986E-04;  0.0000000E+00; -6.9356083E-06;  0.0000000E+00;
  5.9930557E-01;  9.9999998E-03; -3.9998993E-01;201; -3.3298210E-04;  0.0000000E+00;  2.0992919E-05;  9.9995918E+00;  3.9992371E-01; -4.3923363E-02;3; -7.2141156E-02;  0.0000000E+00; -4.3592609E-02;  0.0000000E+00;  0.0000000E+00;  0.0000000E+00;0;  5.5084430E-04;  1.0003353E+02;  0.0000000E+00; -8.3007244E-04;  1.0000000E+02;  0.0000000E+00;  9.9996727E+01;  5.5957859E-04;  0.0000000E+00; -8.7342978E-06;  0.0000000E+00;
  5.9926730E-01;  9.9999998E-03; -1.9999471E-01;202; -3.4762139E-04;  0.0000000E+00;  1.1146793E-05;  9.9996939E+00;  3.9991283E-01; -3.2958552E-02;3; -7.1859941E-02;  0.0000000E+00; -1.8565927E-02;  0.0000000E+00;  0.0000000E+00;  0.0000000E+00;0;  4.9047719E-04;  1.0004118E+02;  0.0000000E+00; -1.6860676E-04;  1.0000000E+02;  0.0000000E+00;  9.9996727E+01;  5.0087413E-04;  0.0000000E+00; -1.0396950E-05;  0.0000000E+00;
  7.9973596E-01;  9.9999998E-03; -1.0000713E+00;209; -4.3262924E-05;  0.0000000E+00; -1.1093665E-06;  9.9987516E+00;  4.0002173E-01; -1.3424547E-01;3; -1.1204223E-01;  0.0000000E+00; -1.5806392E-01;  0.0000000E+00;  0.0000000E+00;  0.0000000E+00;0;  1.1514075E-03;  9.9967270E+01;  0.0000000E+00; -8.2798684E-03;  1.0000000E+02;  0.0000000E+00;  9.9997093E+01;  1.1471990E-03;  0.0000000E+00;  4.2085449E-06;  0.0000000E+00;
  7.9953325E-01;  9.9999998E-03; -8.0002195E-01;210; -8.3636703E-05;  0.0000000E+00; -1.4131761E-05;  9.9986982E+00;  4.0001127E-01; -1.4001536E-01;3; -7.4799351E-02;  0.0000000E+00; -1.2182352E-01;  0.0000000E+00;  0.0000000E+00;  0.0000000E+00;0;  1.2401037E-03;  9.9971542E+01;  0.0000000E+00; -6.2667658E-03;  1.0000000E+02;  0.0000000E+00;  9.9996735E+01;  1.2377322E-03;  0.0000000E+00;  2.3715129E-06;  0.0000000E+00;
  7.9936045E-01;  9.9999998E-03; -5.9998804E-01;211; -2.3672770E-04;  0.0000000E+00;  7.8152334E-06;  9.9987774E+00;  4.0000543E-01; -1.3148881E-01;3; -5.1233746E-02;  0.0000000E+00; -7.8119226E-02;  0.0000000E+00;  0.0000000E+00;  0.0000000E+00;0;  1.2079444E-03;  9.9976738E+01;  0.0000000E+00; -3.6508364E-03;  1.0000000E+02;  0.0000000E+00;  9.9995934E+01;  1.2127932E-03;  0.0000000E+00; -4.8488428E-06;  0.0000000E+00;
  7.9926097E-01;  9.9999998E-03; -3.9998382E-01;212; -3.1979935E-04;  0.0000000E+00;  1.6640543E-05;  9.9988880E+00;  3.9999652E-01; -1.1962856E-01;3; -3.8878154E-02;  0.0000000E+00; -4.1959431E-02;  0.0000000E+00;  0.0000000E+00;  0.0000000E+00;0;  1.1299297E-03;  9.9984146E+01;  0.0000000E+00; -1.5007117E-03;  1.0000000E+02;  0.0000000E+00;  9.9995453E+01;  1.1379160E-03;  0.0000000E+00; -7.9863785E-06;  0.0000000E+00;
  7.9920983E-01;  9.9999998E-03; -1.9999053E-01;213; -3.5123454E-04;  0.0000000E+00;  9.6204794E-06;  9.9990015E+00;  3.9998603E-01; -1.0738362E-01;3; -3.3612419E-02;  0.0000000E+00; -1.7612565E-02;  0.0000000E+00;  0.0000000E+00;  0.0000000E+00;0;  1.0471707E-03;  9.9991547E+01;  0.0000000E+00; -3.2499569E-04;  1.0000000E+02;  0.0000000E+00;  9.9996033E+01;  1.0577729E-03;  0.0000000E+00; -1.0602161E-05;  0.0000000E+00;
  9.9975830E-01;  9.9999998E-03; -1.0000519E+00;220; -6.3441112E-05;  0.0000000E+00;  6.9198722E-05;  9.9981318E+00;  4.0012419E-01; -2.0083533E-01;3; -1.3017271E-01;  0.0000000E+00; -1.6308366E-01;  0.0000000E+00;  0.0000000E+00;  0.0000000E+00;0;  1.8518448E-03;  9.9904312E+01;  0.0000000E+00; -9.4256960E-03;  1.0000000E+02;  0.0000000E+00;  9.9997147E+01;  1.8808030E-03;  0.0000000E+00; -2.8958246E-05;  0.0000000E+00;
  9.9964505E-01;  9.9999998E-03; -8.0004919E-01;221;  3.1406654E-04;  0.0000000E+00; -1.2783631E-05;  9.9978886E+00;  4.0013188E-01; -2.2698118E-01;3; -7.6852478E-02;  0.0000000E+00; -1.0754076E-01;  0.0000000E+00;  0.0000000E+00;  0.0000000E+00;0;  2.1473172E-03;  9.9898537E+01;  0.0000000E+00; -8.2926964E-03;  1.0000000E+02;  0.0000000E+00;  9.9993385E+01;  2.1403313E-03;  0.0000000E+00;  6.9857510E-06;  0.0000000E+00;
  9.9944729E-01;  9.9999998E-03; -6.0002065E-01;222;  2.6156480E-04;  0.0000000E+00; -7.8351826E-05;  9.9979525E+00;  4.0012592E-01; -2.2012444E-01;3; -3.4550223E-02;  0.0000000E+00; -6.4494535E-02;  0.0000000E+00;  0.0000000E+00;  0.0000000E+00;0;  2.1090580E-03;  9.9903534E+01;  0.0000000E+00; -5.0370130E-03;  1.0000000E+02;  0.0000000E+00;  9.9992813E+01;  2.0912674E-03;  0.0000000E+00;  1.7790644E-05;  0.0000000E+00;
  9.9924672E-01;  9.9999998E-03; -3.9998427E-01;223; -2.4667056E-04;  0.0000000E+00;  6.2920585E-06;  9.9981251E+00;  4.0011400E-01; -2.0160462E-01;3; -2.0869184E-02;  0.0000000E+00; -3.5118442E-02;  0.0000000E+00;  0.0000000E+00;  0.0000000E+00;0;  1.9455705E-03;  9.9911842E+01;  0.0000000E+00; -2.1070833E-03;  1.0000000E+02;  0.0000000E+00;  9.9994011E+01;  1.9521330E-03;  0.0000000E+00; -6.5625459E-06;  0.0000000E+00;
  9.9917293E-01;  9.9999998E-03; -1.9998862E-01;224; -3.3869126E-04;  0.0000000E+00;  1.0906578E-05;  9.9982491E+00;  4.0010357E-01; -1.8827546E-01;3; -1.3263623E-02;  0.0000000E+00; -1.4473676E-02;  0.0000000E+00;  0.0000000E+00;  0.0000000E+00;0;  1.8434220E-03;  9.9919258E+01;  0.0000000E+00; -4.7522094E-04;  1.0000000E+02;  0.0000000E+00;  9.9994316E+01;  1.8568396E-03;  0.0000000E+00; -1.3417637E-05;  0.0000000E+00;
  1.1997852E+00;  9.9999998E-03; -1.0000650E+00;231;  1.5262351E-04;  0.0000000E+00; -3.3516182E-05;  9.9974699E+00;  4.0028378E-01; -2.7177969E-01;3; -1.0365015E-01;  0.0000000E+00; -1.2765262E-01;  0.0000000E+00;  0.0000000E+00;  0.0000000E+00;0;  2.9112366E-03;  9.9815163E+01;  0.0000000E+00; -6.8611493E-03;  1.0000000E+02;  0.0000000E+00;  9.9993340E+01;  2.8700128E-03;  0.0000000E+00;  4.1223851E-05;  0.0000000E+00;
  1.1998297E+00;  9.9999998E-03; -8.0007225E-01;232;  1.1526035E-03;  0.0000000E+00; -6.4275690E-07;  9.9970484E+00;  4.0032488E-01; -3.1704420E-01;3; -7.1769267E-02;  0.0000000E+00; -8.3055533E-02;  0.0000000E+00;  0.0000000E+00;  0.0000000E+00;0;  3.3583879E-03;  9.9791962E+01;  0.0000000E+00; -9.0531213E-03;  1.0000000E+02;  0.0000000E+00;  9.9986961E+01;  3.3443612E-03;  0.0000000E+00;  1.4026751E-05;  0.0000000E+00;
  1.1996650E+00;  9.9999998E-03; -6.0006696E-01;233;  1.3576776E-03;  0.0000000E+00; -1.9300893E-04;  9.9970617E+00;  4.0032226E-01; -3.1563604E-01;3; -2.9006703E-02;  0.0000000E+00; -4.3010063E-02;  0.0000000E+00;  0.0000000E+00;  0.0000000E+00;0;  3.3542232E-03;  9.9795021E+01;  0.0000000E+00; -5.9548775E-03;  1.0000000E+02;  0.0000000E+00;  9.9986038E+01;  3.2755162E-03;  0.0000000E+00;  7.8706973E-05;  0.0000000E+00;
  1.1993052E+00;  9.9999998E-03; -3.9999616E-01;234;  2.7754565E-04;  0.0000000E+00; -9.5247473E-05;  9.9973125E+00;  4.0030262E-01; -2.8868282E-01;3; -8.7141031E-03;  0.0000000E+00; -2.3684280E-02;  0.0000000E+00;  0.0000000E+00;  0.0000000E+00;0;  3.0781694E-03;  9.9804893E+01;  0.0000000E+00; -2.3744253E-03;  1.0000000E+02;  0.0000000E+00;  9.9990440E+01;  3.0635262E-03;  0.0000000E+00;  1.4643165E-05;  0.0000000E+00;
  1.1991575E+00;  9.9999998E-03; -1.9998385E-01;235; -2.8439448E-04;  0.0000000E+00;  2.7815888E-05;  9.9974508E+00;  4.0029216E-01; -2.7382961E-01;3; -4.7888025E-03;  0.0000000E+00; -9.9238902E-03;  0.0000000E+00;  0.0000000E+00;  0.0000000E+00;0;  2.9442403E-03;  9.9811119E+01;  0.0000000E+00; -5.3840940E-04;  1.0000000E+02;  0.0000000E+00;  9.9991928E+01;  2.9636624E-03;  0.0000000E+00; -1.9422137E-05;  0.0000000E+00;
  1.4000273E+00;  9.9999998E-03; -1.0000842E+00;242;  1.9340462E-03;  0.0000000E+00;  5.5974640E-05;  9.9966030E+00;  4.0053138E-01; -3.6412972E-01;3; -6.8799503E-02;  0.0000000E+00; -7.8004904E-02;  0.0000000E+00;  0.0000000E+00;  0.0000000E+00;0;  4.5449808E-03;  9.9679634E+01;  0.0000000E+00; -4.4317623E-03;  1.0000000E+02;  0.0000000E+00;  9.9987717E+01;  4.5829602E-03;  0.0000000E+00; -3.7979225E-05;  0.0000000E+00;
  1.4000438E+00;  9.9999998E-03; -8.0006498E-01;243;  1.6251934E-03;  0.0000000E+00;  1.4834256E-04;  9.9965000E+00;  4.0059114E-01; -3.7518325E-01;3; -5.0384387E-02;  0.0000000E+00; -5.5383913E-02;  0.0000000E+00;  0.0000000E+00;  0.0000000E+00;0;  4.4936659E-03;  9.9652435E+01;  0.0000000E+00; -7.7818055E-03;  1.0000000E+02;  0.0000000E+00;  9.9982796E+01;  4.5795832E-03;  0.0000000E+00; -8.5917069E-05;  0.0000000E+00;
  1.3998959E+00;  9.9999998E-03; -6.0006899E-01;244;  1.9760013E-03;  0.0000000E+00;  1.0869738E-05;  9.9964132E+00;  4.0060180E-01; -3.8451254E-01;3; -2.0775519E-02;  0.0000000E+00; -2.6008900E-02;  0.0000000E+00;  0.0000000E+00;  0.0000000E+00;0;  4.6262434E-03;  9.9648735E+01;  0.0000000E+00; -5.6030769E-03;  1.0000000E+02;  0.0000000E+00;  9.9979149E+01;  4.6022423E-03;  0.0000000E+00;  2.4000978E-05;  0.0000000E+00;
  1.3994428E+00;  9.9999998E-03; -3.9999077E-01;245;  1.0449968E-03;  0.0000000E+00;  1.0659020E-05;  9.9965496E+00;  4.0058571E-01; -3.6988333E-01;3; -2.7988302E-03;  0.0000000E+00; -1.3716355E-02;  0.0000000E+00;  0.0000000E+00;  0.0000000E+00;0;  4.4817855E-03;  9.9653831E+01;  0.0000000E+00; -2.1378100E-03;  1.0000000E+02;  0.0000000E+00;  9.9985703E+01;  4.4759377E-03;  0.0000000E+00;  5.8478440E-06;  0.0000000E+00;
  1.3991927E+00;  9.9999998E-03; -1.9997454E-01;246;  9.2064744E-05;  0.0000000E+00;  6.0813516E-05;  9.9966269E+00;  4.0057841E-01; -3.6157840E-01;3;  9.1707497E-04;  0.0000000E+00; -5.1176618E-03;  0.0000000E+00;  0.0000000E+00;  0.0000000E+00;0;  4.3963478E-03;  9.9656097E+01;  0.0000000E+00; -4.6907557E-04;  1.0000000E+02;  0.0000000E+00;  9.9987732E+01;  4.4167018E-03;  0.0000000E+00; -2.0354266E-05;  0.0000000E+00;
  1.6005383E+00;  9.9999998E-03; -1.0001101E+00;253;  2.5951895E-03;  0.0000000E+00; -1.6525086E-05;  9.9960699E+00;  4.0087581E-01; -4.1947404E-01;3; -4.7622629E-02;  0.0000000E+00; -4.3386780E-02;  0.0000000E+00;  0.0000000E+00;  0.0000000E+00;0;  5.8860616E-03;  9.9503319E+01;  0.0000000E+00; -4.6177395E-03;  1.0000000E+02;  0.0000000E+00;  9.9981682E+01;  5.8511663E-03;  0.0000000E+00;  3.4895438E-05;  0.0000000E+00;
  1.6004498E+00;  9.9999998E-03; -8.0006117E-01;254;  2.6530586E-03;  0.0000000E+00;  1.3154079E-04;  9.9959688E+00;  4.0093648E-01; -4.3022609E-01;3; -2.9576782E-02;  0.0000000E+00; -3.0006578E-02;  0.0000000E+00;  0.0000000E+00;  0.0000000E+00;0;  5.9993649E-03;  9.9474487E+01;  0.0000000E+00; -6.3038287E-03;  1.0000000E+02;  0.0000000E+00;  9.9978432E+01;  6.0664047E-03;  0.0000000E+00; -6.7039888E-05;  0.0000000E+00;
  1.6001009E+00;  9.9999998E-03; -6.0003382E-01;255;  2.6208770E-03;  0.0000000E+00;  8.4289597E-05;  9.9958763E+00;  4.0096256E-01; -4.4009107E-01;3; -1.0144328E-02;  0.0000000E+00; -1.3792466E-02;  0.0000000E+00;  0.0000000E+00;  0.0000000E+00;0;  6.1691185E-03;  9.9463997E+01;  0.0000000E+00; -3.8266720E-03;  1.0000000E+02;  0.0000000E+00;  9.9974121E+01;  6.1431765E-03;  0.0000000E+00;  2.5942034E-05;  0.0000000E+00;
  1.5996431E+00;  9.9999998E-03; -3.9997470E-01;256;  1.7626034E-03;  0.0000000E+00;  7.3040945E-05;  9.9958811E+00;  4.0096900E-01; -4.3958840E-01;3;  2.6483074E-04;  0.0000000E+00; -6.4886184E-03;  0.0000000E+00;  0.0000000E+00;  0.0000000E+00;0;  6.1821025E-03;  9.9457489E+01;  0.0000000E+00; -1.4609557E-03;  1.0000000E+02;  0.0000000E+00;  9.9977463E+01;  6.1524422E-03;  0.0000000E+00;  2.9660281E-05;  0.0000000E+00;
  1.5993489E+00;  9.9999998E-03; -1.9996682E-01;257;  9.8263717E-04;  0.0000000E+00;  7.3304109E-05;  9.9958849E+00;  4.0097585E-01; -4.3921065E-01;3;  4.2968602E-03;  0.0000000E+00; -2.3090742E-03;  0.0000000E+00;  0.0000000E+00;  0.0000000E+00;0;  6.1924667E-03;  9.9452682E+01;  0.0000000E+00; -3.0585469E-04;  1.0000000E+02;  0.0000000E+00;  9.9978966E+01;  6.1805532E-03;  0.0000000E+00;  1.1913555E-05;  0.0000000E+00;
  1.8014301E+00;  9.9999998E-03; -1.0001725E+00;264;  3.0583811E-03;  0.0000000E+00; -1.1200697E-04;  9.9957428E+00;  4.0130058E-01; -4.5022631E-01;3; -3.1927578E-02;  0.0000000E+00; -1.9361546E-02;  0.0000000E+00;  0.0000000E+00;  0.0000000E+00;0;  7.3920460E-03;  9.9297668E+01;  0.0000000E+00; -6.5309200E-03;  1.0000000E+02;  0.0000000E+00;  9.9970039E+01;  7.2673000E-03;  0.0000000E+00;  1.2474591E-04;  0.0000000E+00;
  1.8011435E+00;  9.9999998E-03; -8.0008578E-01;265;  4.4379169E-03;  0.0000000E+00;  5.2291893E-05;  9.9955473E+00;  4.0135765E-01; -4.7091159E-01;3; -1.2131428E-02;  0.0000000E+00; -1.2882448E-02;  0.0000000E+00;  0.0000000E+00;  0.0000000E+00;0;  7.7717658E-03;  9.9267654E+01;  0.0000000E+00; -4.9298801E-03;  1.0000000E+02;  0.0000000E+00;  9.9968422E+01;  7.7335122E-03;  0.0000000E+00;  3.8253544E-05;  0.0000000E+00;
  1.8004390E+00;  9.9999998E-03; -5.9999681E-01;266;  3.4834770E-03;  0.0000000E+00;  1.4113357E-04;  9.9954691E+00;  4.0139881E-01; -4.7925401E-01;3; -8.9690258E-04;  0.0000000E+00; -6.3114762E-03;  0.0000000E+00;  0.0000000E+00;  0.0000000E+00;0;  7.9286508E-03;  9.9247849E+01;  0.0000000E+00; -1.9196053E-03;  1.0000000E+02;  0.0000000E+00;  9.9966225E+01;  7.8603886E-03;  0.0000000E+00;  6.8261790E-05;  0.0000000E+00;
  1.7999519E+00;  9.9999998E-03; -3.9994526E-01;267;  2.4879363E-03;  0.0000000E+00;  1.4331336E-04;  9.9953671E+00;  4.0143958E-01; -4.9004924E-01;3;  2.6241164E-03;  0.0000000E+00; -2.4643750E-03;  0.0000000E+00;  0.0000000E+00;  0.0000000E+00;0;  8.1127053E-03;  9.9228310E+01;  0.0000000E+00; -7.0205756E-04;  1.0000000E+02;  0.0000000E+00;  9.9963425E+01;  8.0059525E-03;  0.0000000E+00;  1.0675302E-04;  0.0000000E+00;
  1.7996645E+00;  9.9999998E-03; -1.9995905E-01;268;  1.9222301E-03;  0.0000000E+00;  8.5633772E-05;  9.9952984E+00;  4.0146625E-01; -4.9730825E-01;3;  4.9242820E-03;  0.0000000E+00; -7.5178803E-04;  0.0000000E+00;  0.0000000E+00;  0.0000000E+00;0;  8.2375966E-03;  9.9215385E+01;  0.0000000E+00; -1.3553827E-04;  1.0000000E+02;  0.0000000E+00;  9.9962082E+01;  8.1266528E-03;  0.0000000E+00;  1.1094353E-04;  0.0000000E+00;
  2.0030396E+00;  9.9999998E-03; -1.0002933E+00;275;  7.6426049E-03;  0.0000000E+00; -2.9958590E-04;  9.9953871E+00;  4.0176454E-01; -4.7943160E-01;3; -1.2427549E-02;  0.0000000E+00; -6.1311740E-03;  0.0000000E+00;  0.0000000E+00;  0.0000000E+00;0;  9.4500585E-03;  9.9083931E+01;  0.0000000E+00; -7.7546127E-03;  1.0000000E+02;  0.0000000E+00;  9.9947800E+01;  9.1467844E-03;  0.0000000E+00;  3.0327414E-04;  0.0000000E+00;
  2.0022111E+00;  9.9999998E-03; -8.0015367E-01;276;  7.0714070E-03;  0.0000000E+00; -1.1337346E-04;  9.9953032E+00;  4.0181658E-01; -4.8821232E-01;3;  7.8317721E-04;  0.0000000E+00; -5.0953822E-03;  0.0000000E+00;  0.0000000E+00;  0.0000000E+00;0;  9.6312622E-03;  9.9054932E+01;  0.0000000E+00; -3.1614501E-03;  1.0000000E+02;  0.0000000E+00;  9.9948967E+01;  9.3704164E-03;  0.0000000E+00;  2.6084619E-04;  0.0000000E+00;
  2.0013978E+00;  9.9999998E-03; -5.9999621E-01;277;  5.2637118E-03;  0.0000000E+00;  1.3684161E-04;  9.9951963E+00;  4.0188095E-01; -4.9934828E-01;3;  4.0716333E-03;  0.0000000E+00; -2.2051595E-03;  0.0000000E+00;  0.0000000E+00;  0.0000000E+00;0;  9.8089054E-03;  9.9023193E+01;  0.0000000E+00; -9.8525954E-04;  1.0000000E+02;  0.0000000E+00;  9.9947777E+01;  9.6024973E-03;  0.0000000E+00;  2.0640844E-04;  0.0000000E+00;
  2.0007899E+00;  9.9999998E-03; -3.9993656E-01;278;  4.0630968E-03;  0.0000000E+00;  1.8775939E-04;  9.9950342E+00;  4.0195307E-01; -5.1623720E-01;3;  4.5087142E-03;  0.0000000E+00; -6.0908776E-04;  0.0000000E+00;  0.0000000E+00;  0.0000000E+00;0;  1.0143069E-02;  9.8994171E+01;  0.0000000E+00; -2.6248448E-04;  1.0000000E+02;  0.0000000E+00;  9.9937218E+01;  9.8618455E-03;  0.0000000E+00;  2.8122304E-04;  0.0000000E+00;
  2.0004036E+00;  9.9999998E-03; -1.9996096E-01;279;  3.4068797E-03;  0.0000000E+00;  1.0160868E-04;  9.9949245E+00;  4.0199921E-01; -5.2766186E-01;3;  5.9392629E-03;  0.0000000E+00; -1.1286108E-04;  0.0000000E+00;  0.0000000E+00;  0.0000000E+00;0;  1.0369525E-02;  9.8974457E+01;  0.0000000E+00; -3.5466070E-05;  1.0000000E+02;  0.0000000E+00;  9.9932365E+01;  1.0056333E-02;  0.0000000E+00;  3.1319278E-04;  0.0000000E+00;
  2.2036822E+00;  9.9999998E-03; -1.0005072E+00;286;  9.4812019E-03;  0.0000000E+00; -6.0137454E-04;  9.9953279E+00;  4.0222523E-01; -4.7192335E-01;3;  2.3011200E-03;  0.0000000E+00; -1.8145923E-03;  0.0000000E+00;  0.0000000E+00;  0.0000000E+00;0;  1.1125056E-02;  9.8897423E+01;  0.0000000E+00; -2.0013021E-03;  1.0000000E+02;  0.0000000E+00;  9.9905785E+01;  1.0544965E-02;  0.0000000E+00;  5.8009091E-04;  0.0000000E+00;
  2.2031667E+00;  9.9999998E-03; -8.0031693E-01;287;  8.4526772E-03;  0.0000000E+00; -2.8068037E-04;  9.9952478E+00;  4.0229726E-01; -4.8009345E-01;3;  4.8458343E-03;  0.0000000E+00; -4.9277549E-03;  0.0000000E+00;  0.0000000E+00;  0.0000000E+00;0;  1.1314638E-02;  9.8858986E+01;  0.0000000E+00; -9.0351037E-04;  1.0000000E+02;  0.0000000E+00;  9.9907242E+01;  1.0846145E-02;  0.0000000E+00;  4.6849367E-04;  0.0000000E+00;
  2.2027662E+00;  9.9999998E-03; -6.0009187E-01;288;  7.6915524E-03;  0.0000000E+00; -3.2522064E-05;  9.9950523E+00;  4.0236640E-01; -4.9987769E-01;3;  6.4797928E-03;  0.0000000E+00;  4.0123370E-05;  0.0000000E+00;  0.0000000E+00;  0.0000000E+00;0;  1.1724400E-02;  9.8820595E+01;  0.0000000E+00; -3.0735458E-04;  1.0000000E+02;  0.0000000E+00;  9.9907341E+01;  1.1190733E-02;  0.0000000E+00;  5.3366745E-04;  0.0000000E+00;
  2.2025242E+00;  9.9999998E-03; -3.9999169E-01;289;  7.2540701E-03;  0.0000000E+00;  1.7525932E-04;  9.9948902E+00;  4.0245754E-01; -5.1627833E-01;3;  7.5988835E-03;  0.0000000E+00;  8.5040585E-05;  0.0000000E+00;  0.0000000E+00;  0.0000000E+00;0;  1.2104008E-02;  9.8787186E+01;  0.0000000E+00; -5.9740014E-05;  1.0000000E+02;  0.0000000E+00;  9.9893097E+01;  1.1514675E-02;  0.0000000E+00;  5.8933388E-04;  0.0000000E+00;
  2.2024195E+00;  9.9999998E-03; -1.9998872E-01;290;  7.1392213E-03;  0.0000000E+00;  8.8541354E-05;  9.9947681E+00;  4.0251195E-01; -5.2863300E-01;3;  8.2756188E-03;  0.0000000E+00;  7.1567687E-05;  0.0000000E+00;  0.0000000E+00;  0.0000000E+00;0;  1.2401834E-02;  9.8764290E+01;  0.0000000E+00; -1.3307581E-06;  1.0000000E+02;  0.0000000E+00;  9.9886414E+01;  1.1746939E-02;  0.0000000E+00;  6.5489445E-04;  0.0000000E+00;
  2.4041154E+00;  9.9999998E-03; -1.0008426E+00;297;  9.6465582E-03;  0.0000000E+00; -1.1602818E-03;  9.9951344E+00;  4.0274984E-01; -4.7369254E-01;3;  4.9329475E-03;  0.0000000E+00;  1.6877207E-03;  0.0000000E+00;  0.0000000E+00;  0.0000000E+00;0;  1.3306868E-02;  9.8705215E+01;  0.0000000E+00; -1.3269280E-04;  1.0000000E+02;  0.0000000E+00;  9.9835869E+01;  1.2122966E-02;  0.0000000E+00;  1.1839018E-03;  0.0000000E+00;
  2.4041336E+00;  9.9999998E-03; -8.0060303E-01;298;  9.7968811E-03;  0.0000000E+00; -5.7557214E-04;  9.9951267E+00;  4.0281090E-01; -4.7444531E-01;3;  6.4589009E-03;  0.0000000E+00; -1.7126623E-03;  0.0000000E+00;  0.0000000E+00;  0.0000000E+00;0;  1.3206988E-02;  9.8674339E+01;  0.0000000E+00; -8.4686224E-05;  1.0000000E+02;  0.0000000E+00;  9.9836517E+01;  1.2389646E-02;  0.0000000E+00;  8.1734214E-04;  0.0000000E+00;
  2.4042189E+00;  9.9999998E-03; -6.0033590E-01;299;  1.0138155E-02;  0.0000000E+00; -4.1110828E-04;  9.9949398E+00;  4.0286705E-01; -4.9265844E-01;3;  8.2555879E-03;  0.0000000E+00;  1.1627832E-03;  0.0000000E+00;  0.0000000E+00;  0.0000000E+00;0;  1.3765829E-02;  9.8642937E+01;  0.0000000E+00; -1.4775832E-05;  1.0000000E+02;  0.0000000E+00;  9.9836891E+01;  1.2683106E-02;  0.0000000E+00;  1.0827227E-03;  0.0000000E+00;
  2.4043729E+00;  9.9999998E-03; -4.0008923E-01;300;  1.0746978E-02;  0.0000000E+00;  6.9888134E-05;  9.9948559E+00;  4.0292832E-01; -5.0076765E-01;3;  1.0120367E-02;  0.0000000E+00;  1.3828264E-04;  0.0000000E+00;  0.0000000E+00;  0.0000000E+00;0;  1.4002675E-02;  9.8615631E+01;  0.0000000E+00;  8.6821892E-06;  1.0000000E+02;  0.0000000E+00;  9.9832375E+01;  1.2951778E-02;  0.0000000E+00;  1.0508974E-03;  0.0000000E+00;
  2.4045105E+00;  9.9999998E-03; -2.0003282E-01;301;  1.1242596E-02;  0.0000000E+00;  4.8513288E-05;  9.9947519E+00;  4.0298080E-01; -5.1090890E-01;3;  1.1484222E-02;  0.0000000E+00;  1.0047496E-04;  0.0000000E+00;  0.0000000E+00;  0.0000000E+00;0;  1.4290780E-02;  9.8596748E+01;  0.0000000E+00;  3.1902441E-06;  1.0000000E+02;  0.0000000E+00;  9.9823479E+01;  1.3142128E-02;  0.0000000E+00;  1.1486521E-03;  0.0000000E+00;
  2.6050806E+00;  9.9999998E-03; -1.0012707E+00;308;  1.1252736E-02;  0.0000000E+00; -1.8570534E-03;  9.9949169E+00;  4.0335095E-01; -4.7754386E-01;3;  6.7282170E-03;  0.0000000E+00; -5.5318405E-03;  0.0000000E+00;  0.0000000E+00;  0.0000000E+00;0;  1.5963340E-02;  9.8495155E+01;  0.0000000E+00; -7.4711849E-08;  1.0000000E+02;  0.0000000E+00;  9.9746147E+01;  1.4077096E-02;  0.0000000E+00;  1.8862443E-03;  0.0000000E+00;
  2.6053815E+00;  9.9999998E-03; -8.0099189E-01;309;  1.1843061E-02;  0.0000000E+00; -1.2585684E-03;  9.9948273E+00;  4.0338761E-01; -4.8592055E-01;3;  7.9383682E-03;  0.0000000E+00;  3.8959165E-03;  0.0000000E+00;  0.0000000E+00;  0.0000000E+00;0;  1.5838342E-02;  9.8480377E+01;  0.0000000E+00;  9.5247542E-06;  1.0000000E+02;  0.0000000E+00;  9.9741684E+01;  1.4191431E-02;  0.0000000E+00;  1.6469104E-03;  0.0000000E+00;
  2.6055727E+00;  9.9999998E-03; -6.0068679E-01;310;  1.2439177E-02;  0.0000000E+00; -8.8294991E-04;  9.9947929E+00;  4.0341121E-01; -4.8915356E-01;3;  9.4628138E-03;  0.0000000E+00;  1.1450478E-03;  0.0000000E+00;  0.0000000E+00;  0.0000000E+00;0;  1.6067611E-02;  9.8465698E+01;  0.0000000E+00;  1.4699994E-05;  1.0000000E+02;  0.0000000E+00;  9.9743980E+01;  1.4316550E-02;  0.0000000E+00;  1.7510607E-03;  0.0000000E+00;
  2.6058288E+00;  9.9999998E-03; -4.0033948E-01;311;  1.3209251E-02;  0.0000000E+00; -4.4820292E-04;  9.9947605E+00;  4.0342548E-01; -4.9215743E-01;3;  1.1159954E-02;  0.0000000E+00; -2.0598240E-04;  0.0000000E+00;  0.0000000E+00;  0.0000000E+00;0;  1.6198102E-02;  9.8453117E+01;  0.0000000E+00;  8.5644160E-06;  1.0000000E+02;  0.0000000E+00;  9.9748871E+01;  1.4428279E-02;  0.0000000E+00;  1.7698236E-03;  0.0000000E+00;
  2.6060405E+00;  9.9999998E-03; -2.0011452E-01;312;  1.3840770E-02;  0.0000000E+00;  1.5091060E-05;  9.9947338E+00;  4.0344921E-01; -4.9466062E-01;3;  1.2522939E-02;  0.0000000E+00;  1.0898564E-04;  0.0000000E+00;  0.0000000E+00;  0.0000000E+00;0;  1.6281480E-02;  9.8444710E+01;  0.0000000E+00;  2.2177542E-06;  1.0000000E+02;  0.0000000E+00;  9.9745071E+01;  1.4504604E-02;  0.0000000E+00;  1.7768758E-03;  0.0000000E+00;
  2.8066378E+00;  9.9999998E-03; -1.0017513E+00;319;  1.4155257E-02;  0.0000000E+00; -2.4853649E-03;  9.9946070E+00;  4.0404537E-01; -4.9374196E-01;3;  8.9791734E-03;  0.0000000E+00; -6.5688714E-03;  0.0000000E+00;  0.0000000E+00;  0.0000000E+00;0;  1.8817583E-02;  9.8249657E+01;  0.0000000E+00;  1.1580170E-06;  1.0000000E+02;  0.0000000E+00;  9.9646034E+01;  1.6421510E-02;  0.0000000E+00;  2.3960739E-03;  0.0000000E+00;
  2.8068991E+00;  9.9999998E-03; -8.0140811E-01;320;  1.4614821E-02;  0.0000000E+00; -2.0879330E-03;  9.9944696E+00;  4.0404546E-01; -5.0627977E-01;3;  9.8776305E-03;  0.0000000E+00;  5.7276543E-03;  0.0000000E+00;  0.0000000E+00;  0.0000000E+00;0;  1.9000258E-02;  9.8252190E+01;  0.0000000E+00;  1.5788215E-05;  1.0000000E+02;  0.0000000E+00;  9.9640900E+01;  1.6363876E-02;  0.0000000E+00;  2.6363831E-03;  0.0000000E+00;
  2.8070164E+00;  9.9999998E-03; -6.0104221E-01;321;  1.4983071E-02;  0.0000000E+00; -1.5333662E-03;  9.9945469E+00;  4.0403000E-01; -4.9923474E-01;3;  1.0919468E-02;  0.0000000E+00;  6.1509436E-06;  0.0000000E+00;  0.0000000E+00;  0.0000000E+00;0;  1.8889088E-02;  9.8256157E+01;  0.0000000E+00;  2.0400212E-05;  1.0000000E+02;  0.0000000E+00;  9.9646049E+01;  1.6295290E-02;  0.0000000E+00;  2.5937983E-03;  0.0000000E+00;
  2.8071492E+00;  9.9999998E-03; -4.0069893E-01;322;  1.5445428E-02;  0.0000000E+00; -9.5994869E-04;  9.9945774E+00;  4.0401411E-01; -4.9644524E-01;3;  1.2050833E-02;  0.0000000E+00; -3.6184452E-04;  0.0000000E+00;  0.0000000E+00;  0.0000000E+00;0;  1.8788692E-02;  9.8260719E+01;  0.0000000E+00;  1.1645717E-05;  1.0000000E+02;  0.0000000E+00;  9.9649673E+01;  1.6227178E-02;  0.0000000E+00;  2.5615140E-03;  0.0000000E+00;
  2.8072643E+00;  9.9999998E-03; -2.0042491E-01;323;  1.5859609E-02;  0.0000000E+00; -5.9003662E-04;  9.9945879E+00;  4.0400413E-01; -4.9545741E-01;3;  1.3027861E-02;  0.0000000E+00;  1.2590115E-04;  0.0000000E+00;  0.0000000E+00;  0.0000000E+00;0;  1.8755164E-02;  9.8264496E+01;  0.0000000E+00;  3.0388007E-06;  1.0000000E+02;  0.0000000E+00;  9.9650955E+01;  1.6174542E-02;  0.0000000E+00;  2.5806220E-03;  0.0000000E+00;
  3.0086064E+00;  9.9999998E-03; -1.0022371E+00;330;  1.8078743E-02;  0.0000000E+00; -3.1557800E-03;  9.9942532E+00;  4.0482667E-01; -5.1830250E-01;3;  1.1919699E-02;  0.0000000E+00; -3.7305877E-03;  0.0000000E+00;  0.0000000E+00;  0.0000000E+00;0;  2.1963201E-02;  9.7961571E+01;  0.0000000E+00;  4.8641286E-06;  1.0000000E+02;  0.0000000E+00;  9.9546600E+01;  1.9018680E-02;  0.0000000E+00;  2.9445216E-03;  0.0000000E+00;
  3.0086701E+00;  9.9999998E-03; -8.0180466E-01;331;  1.8187869E-02;  0.0000000E+00; -2.9419120E-03;  9.9940987E+00;  4.0479299E-01; -5.3222317E-01;3;  1.2629116E-02;  0.0000000E+00;  5.6457585E-03;  0.0000000E+00;  0.0000000E+00;  0.0000000E+00;0;  2.2477502E-02;  9.7977127E+01;  0.0000000E+00;  2.8148703E-05;  1.0000000E+02;  0.0000000E+00;  9.9544266E+01;  1.8832184E-02;  0.0000000E+00;  3.6453183E-03;  0.0000000E+00;
  3.0086052E+00;  9.9999998E-03; -6.0135561E-01;332;  1.8180069E-02;  0.0000000E+00; -2.1418231E-03;  9.9942436E+00;  4.0474829E-01; -5.1916260E-01;3;  1.3345819E-02;  0.0000000E+00; -7.2430540E-04;  0.0000000E+00;  0.0000000E+00;  0.0000000E+00;0;  2.2050438E-02;  9.7994728E+01;  0.0000000E+00;  3.1477826E-05;  1.0000000E+02;  0.0000000E+00;  9.9551216E+01;  1.8623978E-02;  0.0000000E+00;  3.4264612E-03;  0.0000000E+00;
  3.0085719E+00;  9.9999998E-03; -4.0095565E-01;333;  1.8261392E-02;  0.0000000E+00; -1.2146479E-03;  9.9943285E+00;  4.0471083E-01; -5.1147658E-01;3;  1.4082012E-02;  0.0000000E+00; -5.5269874E-04;  0.0000000E+00;  0.0000000E+00;  0.0000000E+00;0;  2.1727275E-02;  9.8011528E+01;  0.0000000E+00;  1.8331579E-05;  1.0000000E+02;  0.0000000E+00;  9.9554008E+01;  1.8429352E-02;  0.0000000E+00;  3.2979234E-03;  0.0000000E+00;
  3.0085406E+00;  9.9999998E-03; -2.0061047E-01;334;  1.8349359E-02;  0.0000000E+00; -1.0170788E-03;  9.9943390E+00;  4.0468079E-01; -5.1056361E-01;3;  1.4707579E-02;  0.0000000E+00; -3.0929348E-04;  0.0000000E+00;  0.0000000E+00;  0.0000000E+00;0;  2.1693977E-02;  9.8024139E+01;  0.0000000E+00;  4.9567470E-06;  1.0000000E+02;  0.0000000E+00;  9.9556511E+01;  1.8288102E-02;  0.0000000E+00;  3.4058751E-03;  0.0000000E+00;
  3.2110288E+00;  9.9999998E-03; -1.0027072E+00;341;  2.2964887E-02;  0.0000000E+00; -3.8027870E-03;  9.9939480E+00;  4.0567401E-01; -5.4165953E-01;3;  1.5608203E-02;  0.0000000E+00;  3.0748162E-04;  0.0000000E+00;  0.0000000E+00;  0.0000000E+00;0;  2.5045801E-02;  9.7639450E+01;  0.0000000E+00;  2.4769344E-05;  1.0000000E+02;  0.0000000E+00;  9.9452049E+01;  2.1591386E-02;  0.0000000E+00;  3.4544151E-03;  0.0000000E+00;
  3.2108889E+00;  9.9999998E-03; -8.0216599E-01;342;  2.2736799E-02;  0.0000000E+00; -3.7196926E-03;  9.9937906E+00;  4.0561861E-01; -5.5574441E-01;3;  1.6307143E-02;  0.0000000E+00;  2.1862087E-03;  0.0000000E+00;  0.0000000E+00;  0.0000000E+00;0;  2.5915371E-02;  9.7659874E+01;  0.0000000E+00;  5.2021638E-05;  1.0000000E+02;  0.0000000E+00;  9.9454964E+01;  2.1363124E-02;  0.0000000E+00;  4.5522470E-03;  0.0000000E+00;
  3.2106452E+00;  9.9999998E-03; -6.0163915E-01;343;  2.2396050E-02;  0.0000000E+00; -2.6905730E-03;  9.9939308E+00;  4.0556908E-01; -5.4315847E-01;3;  1.6951261E-02;  0.0000000E+00; -2.5757428E-04;  0.0000000E+00;  0.0000000E+00;  0.0000000E+00;0;  2.5330987E-02;  9.7682663E+01;  0.0000000E+00;  4.7350586E-05;  1.0000000E+02;  0.0000000E+00;  9.9458893E+01;  2.1111313E-02;  0.0000000E+00;  4.2196731E-03;  0.0000000E+00;
  3.2104387E+00;  9.9999998E-03; -4.0113816E-01;344;  2.2125369E-02;  0.0000000E+00; -1.5754818E-03;  9.9940243E+00;  4.0552098E-01; -5.3483951E-01;3;  1.7575150E-02;  0.0000000E+00; -1.0059590E-03;  0.0000000E+00;  0.0000000E+00;  0.0000000E+00;0;  2.4958042E-02;  9.7703911E+01;  0.0000000E+00;  2.6172231E-05;  1.0000000E+02;  0.0000000E+00;  9.9462677E+01;  2.0877840E-02;  0.0000000E+00;  4.0802029E-03;  0.0000000E+00;
  3.2102635E+00;  9.9999998E-03; -2.0067340E-01;345;  2.1907831E-02;  0.0000000E+00; -1.1842949E-03;  9.9940386E+00;  4.0548313E-01; -5.3356159E-01;3;  1.8048806E-02;  0.0000000E+00; -7.4850040E-04;  0.0000000E+00;  0.0000000E+00;  0.0000000E+00;0;  2.4906952E-02;  9.7719543E+01;  0.0000000E+00;  7.0553610E-06;  1.0000000E+02;  0.0000000E+00;  9.9465950E+01;  2.0710096E-02;  0.0000000E+00;  4.1968571E-03;  0.0000000E+00;
  3.4138710E+00;  9.9999998E-03; -1.0031621E+00;352;  2.8482035E-02;  0.0000000E+00; -4.4325371E-03;  9.9936981E+00;  4.0656546E-01; -5.6196570E-01;3;  2.0146424E-02;  0.0000000E+00;  5.4955808E-03;  0.0000000E+00;  0.0000000E+00;  0.0000000E+00;0;  2.7878806E-02;  9.7296074E+01;  0.0000000E+00;  4.7824502E-05;  1.0000000E+02;  0.0000000E+00;  9.9361023E+01;  2.3913937E-02;  0.0000000E+00;  3.9648702E-03;  0.0000000E+00;
  3.4135971E+00;  9.9999998E-03; -8.0251175E-01;353;  2.8033704E-02;  0.0000000E+00; -4.3731430E-03;  9.9935360E+00;  4.0650421E-01; -5.7642466E-01;3;  2.0922964E-02;  0.0000000E+00;  9.8280681E-05;  0.0000000E+00;  0.0000000E+00;  0.0000000E+00;0;  2.9031331E-02;  9.7315025E+01;  0.0000000E+00;  7.6665703E-05;  1.0000000E+02;  0.0000000E+00;  9.9368286E+01;  2.3722658E-02;  0.0000000E+00;  5.3086733E-03;  0.0000000E+00;
  3.4132314E+00;  9.9999998E-03; -6.0190976E-01;354;  2.7470037E-02;  0.0000000E+00; -3.0908415E-03;  9.9936590E+00;  4.0646589E-01; -5.6542486E-01;3;  2.1632614E-02;  0.0000000E+00;  1.2339022E-03;  0.0000000E+00;  0.0000000E+00;  0.0000000E+00;0;  2.8399460E-02;  9.7336555E+01;  0.0000000E+00;  6.0424638E-05;  1.0000000E+02;  0.0000000E+00;  9.9367729E+01;  2.3509018E-02;  0.0000000E+00;  4.8904424E-03;  0.0000000E+00;
  3.4129028E+00;  9.9999998E-03; -4.0128741E-01;355;  2.6951179E-02;  0.0000000E+00; -2.0450111E-03;  9.9937181E+00;  4.0641260E-01; -5.6016505E-01;3;  2.2271674E-02;  0.0000000E+00; -1.6656512E-03;  0.0000000E+00;  0.0000000E+00;  0.0000000E+00;0;  2.8192051E-02;  9.7356949E+01;  0.0000000E+00;  3.0566385E-05;  1.0000000E+02;  0.0000000E+00;  9.9374252E+01;  2.3308847E-02;  0.0000000E+00;  4.8832027E-03;  0.0000000E+00;
  3.4126246E+00;  9.9999998E-03; -2.0066418E-01;356;  2.6509538E-02;  0.0000000E+00; -1.2327818E-03;  9.9937391E+00;  4.0637100E-01; -5.5830657E-01;3;  2.2679191E-02;  0.0000000E+00; -1.3973872E-03;  0.0000000E+00;  0.0000000E+00;  0.0000000E+00;0;  2.8104896E-02;  9.7371933E+01;  0.0000000E+00;  7.8980984E-06;  1.0000000E+02;  0.0000000E+00;  9.9379379E+01;  2.3163673E-02;  0.0000000E+00;  4.9412237E-03;  0.0000000E+00;
  3.6170094E+00;  9.9999998E-03; -1.0036131E+00;363;  3.4173448E-02;  0.0000000E+00; -5.0178799E-03;  9.9934731E+00;  4.0750170E-01; -5.8103722E-01;3;  2.5605684E-02;  0.0000000E+00;  1.0862115E-02;  0.0000000E+00;  0.0000000E+00;  0.0000000E+00;0;  3.0416012E-02;  9.6932961E+01;  0.0000000E+00;  5.1684681E-05;  1.0000000E+02;  0.0000000E+00;  9.9270935E+01;  2.5973642E-02;  0.0000000E+00;  4.4423691E-03;  0.0000000E+00;
  3.6166911E+00;  9.9999998E-03; -8.0285484E-01;364;  3.3641566E-02;  0.0000000E+00; -4.8938971E-03;  9.9933176E+00;  4.0743443E-01; -5.9488767E-01;3;  2.6377402E-02;  0.0000000E+00; -1.3506936E-03;  0.0000000E+00;  0.0000000E+00;  0.0000000E+00;0;  3.1752646E-02;  9.6950966E+01;  0.0000000E+00;  7.7612072E-05;  1.0000000E+02;  0.0000000E+00;  9.9282028E+01;  2.5847150E-02;  0.0000000E+00;  5.9054960E-03;  0.0000000E+00;
  3.6162934E+00;  9.9999998E-03; -6.0216624E-01;365;  3.2994308E-02;  0.0000000E+00; -3.4580601E-03;  9.9934063E+00;  4.0740231E-01; -5.8698255E-01;3;  2.7079053E-02;  0.0000000E+00;  2.0900762E-03;  0.0000000E+00;  0.0000000E+00;  0.0000000E+00;0;  3.1223079E-02;  9.6971680E+01;  0.0000000E+00;  5.5398741E-05;  1.0000000E+02;  0.0000000E+00;  9.9278526E+01;  2.5703004E-02;  0.0000000E+00;  5.5200760E-03;  0.0000000E+00;
  3.6159365E+00;  9.9999998E-03; -4.0138853E-01;366;  3.2375656E-02;  0.0000000E+00; -2.5555489E-03;  9.9934216E+00;  4.0733656E-01; -5.8565712E-01;3;  2.7653264E-02;  0.0000000E+00; -2.9668941E-03;  0.0000000E+00;  0.0000000E+00;  0.0000000E+00;0;  3.1228116E-02;  9.6992088E+01;  0.0000000E+00;  2.4574001E-05;  1.0000000E+02;  0.0000000E+00;  9.9289680E+01;  2.5562160E-02;  0.0000000E+00;  5.6659565E-03;  0.0000000E+00;
  3.6156232E+00;  9.9999998E-03; -2.0058723E-01;367;  3.1824626E-02;  0.0000000E+00; -1.1014930E-03;  9.9934616E+00;  4.0729216E-01; -5.8210284E-01;3;  2.7932631E-02;  0.0000000E+00; -2.0359822E-03;  0.0000000E+00;  0.0000000E+00;  0.0000000E+00;0;  3.1065233E-02;  9.7007751E+01;  0.0000000E+00;  5.5724968E-06;  1.0000000E+02;  0.0000000E+00;  9.9295845E+01;  2.5454655E-02;  0.0000000E+00;  5.6105773E-03;  0.0000000E+00;
  3.8203008E+00;  9.9999998E-03; -1.0040758E+00;374;  3.9650597E-02;  0.0000000E+00; -5.5591185E-03;  9.9932070E+00;  4.0851322E-01; -6.0430455E-01;3;  3.1712987E-02;  0.0000000E+00;  1.4442883E-02;  0.0000000E+00;  0.0000000E+00;  0.0000000E+00;0;  3.2849103E-02;  9.6538559E+01;  0.0000000E+00;  4.7914975E-05;  1.0000000E+02;  0.0000000E+00;  9.9178101E+01;  2.7956411E-02;  0.0000000E+00;  4.8926938E-03;  0.0000000E+00;
  3.8200223E+00;  9.9999998E-03; -8.0321580E-01;375;  3.9171159E-02;  0.0000000E+00; -5.4439772E-03;  9.9930363E+00;  4.0842322E-01; -6.1946958E-01;3;  3.2265093E-02;  0.0000000E+00; -2.0119841E-03;  0.0000000E+00;  0.0000000E+00;  0.0000000E+00;0;  3.4424342E-02;  9.6563057E+01;  0.0000000E+00;  6.0667797E-05;  1.0000000E+02;  0.0000000E+00;  9.9193001E+01;  2.7865915E-02;  0.0000000E+00;  6.5584285E-03;  0.0000000E+00;
  3.8196988E+00;  9.9999998E-03; -6.0242784E-01;376;  3.8605507E-02;  0.0000000E+00; -3.8228405E-03;  9.9931192E+00;  4.0837619E-01; -6.1209983E-01;3;  3.2763500E-02;  0.0000000E+00;  1.9308459E-03;  0.0000000E+00;  0.0000000E+00;  0.0000000E+00;0;  3.3896293E-02;  9.6589882E+01;  0.0000000E+00;  3.6965004E-05;  1.0000000E+02;  0.0000000E+00;  9.9190269E+01;  2.7770502E-02;  0.0000000E+00;  6.1257905E-03;  0.0000000E+00;
  3.8194096E+00;  9.9999998E-03; -4.0144476E-01;377;  3.8060162E-02;  0.0000000E+00; -2.9907618E-03;  9.9931116E+00;  4.0828040E-01; -6.1278963E-01;3;  3.3122029E-02;  0.0000000E+00; -5.2145137E-03;  0.0000000E+00;  0.0000000E+00;  0.0000000E+00;0;  3.4046959E-02;  9.6616615E+01;  0.0000000E+00;  1.1628310E-05;  1.0000000E+02;  0.0000000E+00;  9.9209129E+01;  2.7674830E-02;  0.0000000E+00;  6.3721291E-03;  0.0000000E+00;
  3.8191409E+00;  9.9999998E-03; -2.0046768E-01;378;  3.7561078E-02;  0.0000000E+00; -7.7673304E-04;  9.9931679E+00;  4.0823072E-01; -6.0775280E-01;3;  3.3225458E-02;  0.0000000E+00; -2.4461132E-03;  0.0000000E+00;  0.0000000E+00;  0.0000000E+00;0;  3.3786222E-02;  9.6637230E+01;  0.0000000E+00;  1.3526745E-06;  1.0000000E+02;  0.0000000E+00;  9.9213234E+01;  2.7598113E-02;  0.0000000E+00;  6.1881077E-03;  0.0000000E+00;
  4.0236464E+00;  9.9999998E-03; -1.0045568E+00;385;  4.4698585E-02;  0.0000000E+00; -6.0912082E-03;  9.9928303E+00;  4.0962529E-01; -6.3760263E-01;3;  3.7716243E-02;  0.0000000E+00;  1.4508824E-02;  0.0000000E+00;  0.0000000E+00;  0.0000000E+00;0;  3.5436746E-02;  9.6102570E+01;  0.0000000E+00;  4.3063083E-05;  1.0000000E+02;  0.0000000E+00;  9.9080032E+01;  3.0047441E-02;  0.0000000E+00;  5.3893058E-03;  0.0000000E+00;
  4.0234685E+00;  9.9999998E-03; -8.0361176E-01;386;  4.4410814E-02;  0.0000000E+00; -6.0499487E-03;  9.9926243E+00;  4.0949348E-01; -6.5588957E-01;3;  3.7919801E-02;  0.0000000E+00; -2.2541836E-03;  0.0000000E+00;  0.0000000E+00;  0.0000000E+00;0;  3.7245773E-02;  9.6142448E+01;  0.0000000E+00;  5.1694915E-05;  1.0000000E+02;  0.0000000E+00;  9.9098740E+01;  2.9943675E-02;  0.0000000E+00;  7.3020970E-03;  0.0000000E+00;
  4.0232983E+00;  9.9999998E-03; -6.0272712E-01;387;  4.4102892E-02;  0.0000000E+00; -4.2817635E-03;  9.9927330E+00;  4.0940547E-01; -6.4624268E-01;3;  3.8104374E-02;  0.0000000E+00;  5.9494888E-04;  0.0000000E+00;  0.0000000E+00;  0.0000000E+00;0;  3.6617741E-02;  9.6184212E+01;  0.0000000E+00;  3.1363321E-05;  1.0000000E+02;  0.0000000E+00;  9.9100449E+01;  2.9851191E-02;  0.0000000E+00;  6.7665512E-03;  0.0000000E+00;
  4.0231533E+00;  9.9999998E-03; -4.0155759E-01;388;  4.3830622E-02;  0.0000000E+00; -3.2493419E-03;  9.9927397E+00;  4.0926582E-01; -6.4565980E-01;3;  3.8197484E-02;  0.0000000E+00; -7.4319933E-03;  0.0000000E+00;  0.0000000E+00;  0.0000000E+00;0;  3.6705986E-02;  9.6224197E+01;  0.0000000E+00;  7.8265293E-06;  1.0000000E+02;  0.0000000E+00;  9.9126930E+01;  2.9766250E-02;  0.0000000E+00;  6.9397334E-03;  0.0000000E+00;
  4.0229926E+00;  9.9999998E-03; -2.0040315E-01;389;  4.3577693E-02;  0.0000000E+00; -4.8300598E-04;  9.9928045E+00;  4.0919998E-01; -6.3988233E-01;3;  3.8225126E-02;  0.0000000E+00; -2.7284408E-03;  0.0000000E+00;  0.0000000E+00;  0.0000000E+00;0;  3.6384888E-02;  9.6254318E+01;  0.0000000E+00;  6.4984903E-08;  1.0000000E+02;  0.0000000E+00;  9.9129341E+01;  2.9701905E-02;  0.0000000E+00;  6.6829817E-03;  0.0000000E+00;
  4.2271409E+00;  9.9999998E-03; -1.0050308E+00;396;  4.9602628E-02;  0.0000000E+00; -6.6161361E-03;  9.9923325E+00;  4.1078913E-01; -6.8176109E-01;3;  4.2993460E-02;  0.0000000E+00;  7.6656318E-03;  0.0000000E+00;  0.0000000E+00;  0.0000000E+00;0;  3.8117711E-02;  9.5644775E+01;  0.0000000E+00; -1.9209598E-05;  1.0000000E+02;  0.0000000E+00;  9.8981552E+01;  3.2153726E-02;  0.0000000E+00;  5.9639849E-03;  0.0000000E+00;
  4.2270432E+00;  9.9999998E-03; -8.0403048E-01;397;  4.9542494E-02;  0.0000000E+00; -6.6658799E-03;  9.9920807E+00;  4.1060925E-01; -7.0412618E-01;3;  4.2875152E-02;  0.0000000E+00; -2.1029483E-03;  0.0000000E+00;  0.0000000E+00;  0.0000000E+00;0;  4.0097013E-02;  9.5702965E+01;  0.0000000E+00;  1.1866357E-06;  1.0000000E+02;  0.0000000E+00;  9.9002487E+01;  3.2014478E-02;  0.0000000E+00;  8.0825342E-03;  0.0000000E+00;
  4.2270403E+00;  9.9999998E-03; -6.0307950E-01;398;  4.9580179E-02;  0.0000000E+00; -4.8588216E-03;  9.9922209E+00;  4.1046804E-01; -6.9167173E-01;3;  4.2771686E-02;  0.0000000E+00; -1.9989046E-03;  0.0000000E+00;  0.0000000E+00;  0.0000000E+00;0;  3.9320219E-02;  9.5763718E+01;  0.0000000E+00; -1.4448584E-05;  1.0000000E+02;  0.0000000E+00;  9.9010773E+01;  3.1887338E-02;  0.0000000E+00;  7.4328822E-03;  0.0000000E+00;
  4.2270231E+00;  9.9999998E-03; -4.0184253E-01;399;  4.9656205E-02;  0.0000000E+00; -3.3182069E-03;  9.9922886E+00;  4.1028920E-01; -6.8568301E-01;3;  4.2649176E-02;  0.0000000E+00; -8.4804939E-03;  0.0000000E+00;  0.0000000E+00;  0.0000000E+00;0;  3.9099284E-02;  9.5820221E+01;  0.0000000E+00; -1.8760352E-06;  1.0000000E+02;  0.0000000E+00;  9.9039978E+01;  3.1780075E-02;  0.0000000E+00;  7.3192092E-03;  0.0000000E+00;
  4.2269368E+00;  9.9999998E-03; -2.0054442E-01;400;  4.9708996E-02;  0.0000000E+00; -6.0655939E-04;  9.9923449E+00;  4.1019449E-01; -6.8064827E-01;3;  4.2734317E-02;  0.0000000E+00; -3.0949616E-03;  0.0000000E+00;  0.0000000E+00;  0.0000000E+00;0;  3.8815077E-02;  9.5861427E+01;  0.0000000E+00;  4.4791709E-06;  1.0000000E+02;  0.0000000E+00;  9.9044487E+01;  3.1708233E-02;  0.0000000E+00;  7.1068443E-03;  0.0000000E+00;
  4.4315724E+00;  9.9999998E-03; -1.0054289E+00;407;  5.5844329E-02;  0.0000000E+00; -7.0925592E-03;  9.9917841E+00;  4.1182560E-01; -7.3047078E-01;3;  4.7703654E-02;  0.0000000E+00; -3.0420704E-03;  0.0000000E+00;  0.0000000E+00;  0.0000000E+00;0;  4.0353820E-02;  9.5234268E+01;  0.0000000E+00; -9.5606054E-05;  1.0000000E+02;  0.0000000E+00;  9.8897629E+01;  3.3743173E-02;  0.0000000E+00;  6.6106473E-03;  0.0000000E+00;
  4.4312463E+00;  9.9999998E-03; -8.0441070E-01;408;  5.5627093E-02;  0.0000000E+00; -7.0441635E-03;  9.9915161E+00;  4.1162357E-01; -7.5431812E-01;3;  4.7297895E-02;  0.0000000E+00; -7.2434675E-03;  0.0000000E+00;  0.0000000E+00;  0.0000000E+00;0;  4.2177979E-02;  9.5303902E+01;  0.0000000E+00; -8.1301754E-05;  1.0000000E+02;  0.0000000E+00;  9.8917061E+01;  3.3597812E-02;  0.0000000E+00;  8.5801668E-03;  0.0000000E+00;
  4.4310875E+00;  9.9999998E-03; -6.0342938E-01;409;  5.5600364E-02;  0.0000000E+00; -5.4247556E-03;  9.9916601E+00;  4.1143489E-01; -7.4149358E-01;3;  4.6948966E-02;  0.0000000E+00; -6.9638900E-03;  0.0000000E+00;  0.0000000E+00;  0.0000000E+00;0;  4.1436207E-02;  9.5378708E+01;  0.0000000E+00; -2.9946925E-04;  1.0000000E+02;  0.0000000E+00;  9.8932571E+01;  3.3439763E-02;  0.0000000E+00;  7.9964437E-03;  0.0000000E+00;
  4.4309921E+00;  9.9999998E-03; -4.0232247E-01;410;  5.5737291E-02;  0.0000000E+00; -3.1172552E-03;  9.9918118E+00;  4.1124991E-01; -7.2803307E-01;3;  4.6657503E-02;  0.0000000E+00; -7.5616213E-03;  0.0000000E+00;  0.0000000E+00;  0.0000000E+00;0;  4.0735379E-02;  9.5446770E+01;  0.0000000E+00; -2.3544626E-04;  1.0000000E+02;  0.0000000E+00;  9.8953972E+01;  3.3308908E-02;  0.0000000E+00;  7.4264691E-03;  0.0000000E+00;
  4.4308958E+00;  9.9999998E-03; -2.0098710E-01;411;  5.5894978E-02;  0.0000000E+00; -1.3939164E-03;  9.9918318E+00;  4.1112265E-01; -7.2623128E-01;3;  4.6703529E-02;  0.0000000E+00; -3.6022735E-03;  0.0000000E+00;  0.0000000E+00;  0.0000000E+00;0;  4.0658779E-02;  9.5494446E+01;  0.0000000E+00; -5.6683333E-05;  1.0000000E+02;  0.0000000E+00;  9.8966194E+01;  3.3227082E-02;  0.0000000E+00;  7.4316962E-03;  0.0000000E+00;
  4.6384683E+00;  9.9999998E-03; -1.0056638E+00;418;  6.5960899E-02;  0.0000000E+00; -7.5530275E-03;  9.9912596E+00;  4.1249040E-01; -7.7708268E-01;3;  5.2551985E-02;  0.0000000E+00; -1.9356536E-02;  0.0000000E+00;  0.0000000E+00;  0.0000000E+00;0;  4.1512124E-02;  9.4965851E+01;  0.0000000E+00;  7.8049826E-04;  1.0000000E+02;  0.0000000E+00;  9.8847237E+01;  3.4076836E-02;  0.0000000E+00;  7.4352901E-03;  0.0000000E+00;
  4.6373477E+00;  9.9999998E-03; -8.0465925E-01;419;  6.4707652E-02;  0.0000000E+00; -6.9845594E-03;  9.9910603E+00;  4.1229501E-01; -7.9478228E-01;3;  5.1868029E-02;  0.0000000E+00; -1.0422484E-02;  0.0000000E+00;  0.0000000E+00;  0.0000000E+00;0;  4.2513743E-02;  9.5039970E+01;  0.0000000E+00; -7.0371164E-04;  1.0000000E+02;  0.0000000E+00;  9.8860100E+01;  3.3943959E-02;  0.0000000E+00;  8.5697845E-03;  0.0000000E+00;
  4.6362333E+00;  9.9999998E-03; -6.0365731E-01;420;  6.3445248E-02;  0.0000000E+00; -5.5827950E-03;  9.9912033E+00;  4.1207832E-01; -7.8206414E-01;3;  5.0948307E-02;  0.0000000E+00; -1.3887357E-02;  0.0000000E+00;  0.0000000E+00;  0.0000000E+00;0;  4.1929644E-02;  9.5119072E+01;  0.0000000E+00; -1.0798007E-03;  1.0000000E+02;  0.0000000E+00;  9.8884209E+01;  3.3789903E-02;  0.0000000E+00;  8.1397407E-03;  0.0000000E+00;
  4.6354451E+00;  9.9999998E-03; -4.0276125E-01;421;  6.2733836E-02;  0.0000000E+00; -2.8842087E-03;  9.9913921E+00;  4.1192120E-01; -7.6531863E-01;3;  5.0642043E-02;  0.0000000E+00; -6.4563397E-03;  0.0000000E+00;  0.0000000E+00;  0.0000000E+00;0;  4.0984277E-02;  9.5186958E+01;  0.0000000E+00; -8.9460588E-04;  1.0000000E+02;  0.0000000E+00;  9.8892830E+01;  3.3675943E-02;  0.0000000E+00;  7.3083336E-03;  0.0000000E+00;
  4.6348386E+00;  9.9999998E-03; -2.0163274E-01;422;  6.2135484E-02;  0.0000000E+00; -2.6064671E-03;  9.9913616E+00;  4.1178629E-01; -7.6802129E-01;3;  5.0389253E-02;  0.0000000E+00; -3.9217910E-03;  0.0000000E+00;  0.0000000E+00;  0.0000000E+00;0;  4.1172192E-02;  9.5232697E+01;  0.0000000E+00; -3.0748046E-04;  1.0000000E+02;  0.0000000E+00;  9.8909386E+01;  3.3601053E-02;  0.0000000E+00;  7.5711366E-03;  0.0000000E+00;
  4.8488536E+00;  9.9999998E-03; -1.0057187E+00;429;  8.1399642E-02;  0.0000000E+00; -7.8793233E-03;  9.9906540E+00;  4.1279271E-01; -8.3091241E-01;3;  5.6192670E-02;  0.0000000E+00; -3.3485830E-02;  0.0000000E+00;  0.0000000E+00;  0.0000000E+00;0;  4.1631795E-02;  9.4835686E+01;  0.0000000E+00;  1.2393354E-02;  1.0000000E+02;  0.0000000E+00;  9.8826660E+01;  3.3356916E-02;  0.0000000E+00;  8.2748793E-03;  0.0000000E+00;
  4.8463335E+00;  9.9999998E-03; -8.0470383E-01;430;  7.8362495E-02;  0.0000000E+00; -6.3869148E-03;  9.9907455E+00;  4.1249955E-01; -8.2275170E-01;3;  5.6893349E-02;  0.0000000E+00; -1.4987948E-02;  0.0000000E+00;  0.0000000E+00;  0.0000000E+00;0;  4.0800452E-02;  9.4955124E+01;  0.0000000E+00; -5.6961975E-03;  1.0000000E+02;  0.0000000E+00;  9.8843887E+01;  3.2879423E-02;  0.0000000E+00;  7.9210289E-03;  0.0000000E+00;
  4.8433151E+00;  9.9999998E-03; -6.0367459E-01;431;  7.4245028E-02;  0.0000000E+00; -5.0592343E-03;  9.9909382E+00;  4.1221121E-01; -8.0563545E-01;3;  5.4568380E-02;  0.0000000E+00; -1.8269230E-02;  0.0000000E+00;  0.0000000E+00;  0.0000000E+00;0;  4.0154722E-02;  9.5059776E+01;  0.0000000E+00; -4.3789227E-03;  1.0000000E+02;  0.0000000E+00;  9.8876938E+01;  3.2502566E-02;  0.0000000E+00;  7.6521551E-03;  0.0000000E+00;
  4.8410878E+00;  9.9999998E-03; -4.0292957E-01;432;  7.1666345E-02;  0.0000000E+00; -2.9473552E-03;  9.9910831E+00;  4.1206980E-01; -7.9275846E-01;3;  5.5197991E-02;  0.0000000E+00; -4.3356651E-03;  0.0000000E+00;  0.0000000E+00;  0.0000000E+00;0;  3.9443869E-02;  9.5128387E+01;  0.0000000E+00; -1.7388213E-03;  1.0000000E+02;  0.0000000E+00;  9.8876175E+01;  3.2354239E-02;  0.0000000E+00;  7.0896284E-03;  0.0000000E+00;
  4.8395815E+00;  9.9999998E-03; -2.0208229E-01;433;  6.9642521E-02;  0.0000000E+00; -2.9525198E-03;  9.9910545E+00;  4.1195077E-01; -7.9530209E-01;3;  5.4571029E-02;  0.0000000E+00; -3.4233858E-03;  0.0000000E+00;  0.0000000E+00;  0.0000000E+00;0;  3.9620623E-02;  9.5166580E+01;  0.0000000E+00; -4.3901821E-04;  1.0000000E+02;  0.0000000E+00;  9.8892960E+01;  3.2285128E-02;  0.0000000E+00;  7.3354938E-03;  0.0000000E+00;
  5.0534444E+00;  9.9999998E-03; -1.0055058E+00;440;  8.1930161E-02;  0.0000000E+00; -7.4903490E-03;  9.9906778E+00;  4.1240868E-01; -8.2878816E-01;3;  4.1576661E-02;  0.0000000E+00; -4.6728615E-02;  0.0000000E+00;  0.0000000E+00;  0.0000000E+00;0;  3.7675135E-02;  9.4977440E+01;  0.0000000E+00;  3.5899326E-02;  1.0000000E+02;  0.0000000E+00;  9.8863602E+01;  2.9599043E-02;  0.0000000E+00;  8.0760932E-03;  0.0000000E+00;
  5.0531235E+00;  9.9999998E-03; -8.0446398E-01;441;  8.2691133E-02;  0.0000000E+00; -5.6069801E-03;  9.9907427E+00;  4.1218749E-01; -8.2301205E-01;3;  4.5707304E-02;  0.0000000E+00; -3.0365461E-02;  0.0000000E+00;  0.0000000E+00;  0.0000000E+00;0;  3.6786985E-02;  9.5056923E+01;  0.0000000E+00; -8.6901635E-03;  1.0000000E+02;  0.0000000E+00;  9.8888115E+01;  2.9727096E-02;  0.0000000E+00;  7.0598898E-03;  0.0000000E+00;
  5.0518637E+00;  9.9999998E-03; -6.0347360E-01;442;  8.4517643E-02;  0.0000000E+00; -4.2698071E-03;  9.9906950E+00;  4.1193837E-01; -8.2725143E-01;3;  5.3077158E-02;  0.0000000E+00; -2.6394589E-02;  0.0000000E+00;  0.0000000E+00;  0.0000000E+00;0;  3.6928643E-02;  9.5148338E+01;  0.0000000E+00; -1.5149298E-02;  1.0000000E+02;  0.0000000E+00;  9.8911400E+01;  3.0076580E-02;  0.0000000E+00;  6.8520624E-03;  0.0000000E+00;
  5.0487337E+00;  9.9999998E-03; -4.0262872E-01;443;  8.3170436E-02;  0.0000000E+00; -2.6807564E-03;  9.9908142E+00;  4.1167000E-01; -8.1665307E-01;3;  5.8541603E-02;  0.0000000E+00; -6.7417407E-03;  0.0000000E+00;  0.0000000E+00;  0.0000000E+00;0;  3.6388252E-02;  9.5265182E+01;  0.0000000E+00; -4.4773999E-03;  1.0000000E+02;  0.0000000E+00;  9.8920959E+01;  2.9822432E-02;  0.0000000E+00;  6.5658214E-03;  0.0000000E+00;
  5.0464211E+00;  9.9999998E-03; -2.0197502E-01;444;  8.0216810E-02;  0.0000000E+00; -2.5655585E-03;  9.9908638E+00;  4.1152903E-01; -8.1225491E-01;3;  5.9509974E-02;  0.0000000E+00; -2.2520304E-03;  0.0000000E+00;  0.0000000E+00;  0.0000000E+00;0;  3.6257483E-02;  9.5322800E+01;  0.0000000E+00; -5.4229400E-04;  1.0000000E+02;  0.0000000E+00;  9.8929939E+01;  2.9497441E-02;  0.0000000E+00;  6.7600408E-03;  0.0000000E+00;
  5.2548623E+00;  9.9999998E-03; -1.0049844E+00;451;  8.1758067E-02;  0.0000000E+00; -5.6621414E-03;  9.9914751E+00;  4.1103411E-01; -7.5788361E-01;3;  3.9892640E-02;  0.0000000E+00; -3.6392026E-02;  0.0000000E+00;  0.0000000E+00;  0.0000000E+00;0;  2.9001972E-02;  9.5522270E+01;  0.0000000E+00;  5.0862044E-02;  1.0000000E+02;  0.0000000E+00;  9.8974045E+01;  2.3395525E-02;  0.0000000E+00;  5.6064464E-03;  0.0000000E+00;
  5.2562757E+00;  9.9999998E-03; -8.0403692E-01;452;  8.5785985E-02;  0.0000000E+00; -4.5660804E-03;  9.9907007E+00;  4.1120628E-01; -8.2677245E-01;3;  4.5859464E-02;  0.0000000E+00; -2.1350794E-02;  0.0000000E+00;  0.0000000E+00;  0.0000000E+00;0;  3.1344455E-02;  9.5428482E+01;  0.0000000E+00;  2.8156659E-03;  1.0000000E+02;  0.0000000E+00;  9.8972900E+01;  2.5464769E-02;  0.0000000E+00;  5.8796848E-03;  0.0000000E+00;
  5.2559156E+00;  9.9999998E-03; -6.0306972E-01;453;  8.6855136E-02;  0.0000000E+00; -3.0881551E-03;  9.9907465E+00;  4.1107899E-01; -8.2269216E-01;3;  5.3368531E-02;  0.0000000E+00; -2.6142268E-02;  0.0000000E+00;  0.0000000E+00;  0.0000000E+00;0;  3.1463854E-02;  9.5473358E+01;  0.0000000E+00; -1.4900711E-02;  1.0000000E+02;  0.0000000E+00;  9.8988716E+01;  2.5853865E-02;  0.0000000E+00;  5.6099901E-03;  0.0000000E+00;
  5.2554340E+00;  9.9999998E-03; -4.0208772E-01;454;  8.7919869E-02;  0.0000000E+00; -2.6951465E-03;  9.9905090E+00;  4.1093358E-01; -8.4378272E-01;3;  5.0541222E-02;  0.0000000E+00; -1.6591460E-02;  0.0000000E+00;  0.0000000E+00;  0.0000000E+00;0;  3.2168306E-02;  9.5513008E+01;  0.0000000E+00; -8.3909687E-03;  1.0000000E+02;  0.0000000E+00;  9.9012657E+01;  2.6098482E-02;  0.0000000E+00;  6.0698246E-03;  0.0000000E+00;
  5.2548156E+00;  9.9999998E-03; -2.0105453E-01;455;  8.9263156E-02;  0.0000000E+00; -1.4944960E-03;  9.9904947E+00;  4.1079912E-01; -8.4505457E-01;3;  4.9400192E-02;  0.0000000E+00; -6.1032139E-03;  0.0000000E+00;  0.0000000E+00;  0.0000000E+00;0;  3.2172423E-02;  9.5556190E+01;  0.0000000E+00; -1.7160034E-03;  1.0000000E+02;  0.0000000E+00;  9.9032509E+01;  2.6303131E-02;  0.0000000E+00;  5.8692917E-03;  0.0000000E+00;
  5.4559560E+00;  9.9999998E-03; -1.0040206E+00;462;  8.4342957E-02;  0.0000000E+00; -4.5556268E-03;  9.9920654E+00;  4.0869004E-01; -7.0542133E-01;3;  8.4487330E-03;  0.0000000E+00; -6.0371015E-02;  0.0000000E+00;  0.0000000E+00;  0.0000000E+00;0;  2.1936420E-02;  9.6408409E+01;  0.0000000E+00;  3.4062490E-02;  1.0000000E+02;  0.0000000E+00;  9.9203926E+01;  1.7528590E-02;  0.0000000E+00;  4.4078310E-03;  0.0000000E+00;
  5.4596725E+00;  9.9999998E-03; -8.0349463E-01;463;  8.9284912E-02;  0.0000000E+00; -3.4256682E-03;  9.9905291E+00;  4.1013616E-01; -8.4203309E-01;3;  8.0209486E-03;  0.0000000E+00; -5.1460236E-02;  0.0000000E+00;  0.0000000E+00;  0.0000000E+00;0;  2.6042383E-02;  9.5817055E+01;  0.0000000E+00;  3.4573812E-02;  1.0000000E+02;  0.0000000E+00;  9.9083702E+01;  2.1578345E-02;  0.0000000E+00;  4.4640368E-03;  0.0000000E+00;
  5.4589787E+00;  9.9999998E-03; -6.0249472E-01;464;  8.8817030E-02;  0.0000000E+00; -2.6597066E-03;  9.9905605E+00;  4.0980625E-01; -8.3922458E-01;3;  3.5871577E-02;  0.0000000E+00; -2.6085775E-02;  0.0000000E+00;  0.0000000E+00;  0.0000000E+00;0;  2.5844149E-02;  9.5943169E+01;  0.0000000E+00; -6.6756513E-03;  1.0000000E+02;  0.0000000E+00;  9.9113029E+01;  2.0873070E-02;  0.0000000E+00;  4.9710805E-03;  0.0000000E+00;
  5.4581747E+00;  9.9999998E-03; -4.0146017E-01;465;  8.9097433E-02;  0.0000000E+00; -1.5845695E-03;  9.9905100E+00;  4.0957481E-01; -8.4372884E-01;3;  3.7374344E-02;  0.0000000E+00; -2.0171346E-02;  0.0000000E+00;  0.0000000E+00;  0.0000000E+00;0;  2.5883971E-02;  9.6022026E+01;  0.0000000E+00; -3.9296406E-03;  1.0000000E+02;  0.0000000E+00;  9.9142555E+01;  2.0967368E-02;  0.0000000E+00;  4.9166027E-03;  0.0000000E+00;
  5.4577084E+00;  9.9999998E-03; -2.0050693E-01;466;  9.0303972E-02;  0.0000000E+00; -1.3307761E-04;  9.9903164E+00;  4.0947512E-01; -8.6089802E-01;3;  3.4685362E-02;  0.0000000E+00; -2.6343854E-03;  0.0000000E+00;  0.0000000E+00;  0.0000000E+00;0;  2.6289087E-02;  9.6055824E+01;  0.0000000E+00; -9.0878702E-06;  1.0000000E+02;  0.0000000E+00;  9.9152031E+01;  2.1526475E-02;  0.0000000E+00;  4.7626127E-03;  0.0000000E+00;
  5.6594243E+00;  9.9999998E-03; -8.0238706E-01;473;  8.8517494E-02;  0.0000000E+00; -2.3432674E-03;  9.9916325E+00;  4.0731186E-01; -7.4389273E-01;3;  7.1699107E-03;  0.0000000E+00; -5.6845322E-02;  0.0000000E+00;  0.0000000E+00;  0.0000000E+00;0;  1.7125146E-02;  9.6903038E+01;  0.0000000E+00;  2.9186448E-02;  1.0000000E+02;  0.0000000E+00;  9.9358322E+01;  1.4009635E-02;  0.0000000E+00;  3.1155122E-03;  0.0000000E+00;
  5.6607871E+00;  9.9999998E-03; -6.0179073E-01;474;  9.0885498E-02;  0.0000000E+00; -1.1730004E-03;  9.9899435E+00;  4.0803605E-01; -8.9407027E-01;3; -4.4056177E-03;  0.0000000E+00; -3.5187658E-02;  0.0000000E+00;  0.0000000E+00;  0.0000000E+00;0;  1.9465048E-02;  9.6599106E+01;  0.0000000E+00;  9.3916850E-03;  1.0000000E+02;  0.0000000E+00;  9.9284302E+01;  1.6373919E-02;  0.0000000E+00;  3.0911292E-03;  0.0000000E+00;
  5.6599650E+00;  9.9999998E-03; -4.0080115E-01;475;  8.9559153E-02;  0.0000000E+00; -6.9974893E-04;  9.9905777E+00;  4.0774474E-01; -8.3768749E-01;3;  1.8230496E-02;  0.0000000E+00; -1.8221419E-02;  0.0000000E+00;  0.0000000E+00;  0.0000000E+00;0;  1.8456690E-02;  9.6725342E+01;  0.0000000E+00;  3.5608376E-04;  1.0000000E+02;  0.0000000E+00;  9.9308922E+01;  1.4730383E-02;  0.0000000E+00;  3.7263078E-03;  0.0000000E+00;
  5.6598492E+00;  9.9999998E-03; -2.0023574E-01;476;  9.1517620E-02;  0.0000000E+00;  1.3200358E-04;  9.9896135E+00;  4.0782261E-01; -9.2342752E-01;3;  1.1409034E-02;  0.0000000E+00; -3.5301584E-04;  0.0000000E+00;  0.0000000E+00;  0.0000000E+00;0;  2.0450899E-02;  9.6698769E+01;  0.0000000E+00;  7.6107390E-04;  1.0000000E+02;  0.0000000E+00;  9.9278870E+01;  1.6601969E-02;  0.0000000E+00;  3.8489301E-03;  0.0000000E+00;
  5.8606372E+00;  9.9999998E-03; -6.0084319E-01;482;  9.0582766E-02;  0.0000000E+00; -1.2931523E-03;  9.9893513E+00;  4.0519598E-01; -9.4674349E-01;3; -1.0596067E-03;  0.0000000E+00; -2.9090967E-02;  0.0000000E+00;  0.0000000E+00;  0.0000000E+00;0;  1.3014032E-02;  9.7695854E+01;  0.0000000E+00; -7.8186179E-03;  1.0000000E+02;  0.0000000E+00;  9.9538719E+01;  9.9793747E-03;  0.0000000E+00;  3.0346571E-03;  0.0000000E+00;
  5.8608227E+00;  9.9999998E-03; -4.0017948E-01;483;  9.0839230E-02;  0.0000000E+00; -1.0913815E-04;  9.9892273E+00;  4.0543002E-01; -9.5776570E-01;3;  6.9521433E-03;  0.0000000E+00; -5.1521240E-03;  0.0000000E+00;  0.0000000E+00;  0.0000000E+00;0;  1.2538643E-02;  9.7620255E+01;  0.0000000E+00; -7.1362713E-03;  1.0000000E+02;  0.0000000E+00;  9.9498589E+01;  9.8803053E-03;  0.0000000E+00;  2.6583374E-03;  0.0000000E+00;
  5.8612056E+00;  9.9999998E-03; -1.9998409E-01;484;  9.2324071E-02;  0.0000000E+00;  3.1164385E-04;  9.9870577E+00;  4.0582979E-01; -1.1506542E+00;3; -5.3104693E-03;  0.0000000E+00; -5.6121731E-04;  0.0000000E+00;  0.0000000E+00;  0.0000000E+00;0;  1.4783202E-02;  9.7468193E+01;  0.0000000E+00; -1.2266495E-03;  1.0000000E+02;  0.0000000E+00;  9.9414909E+01;  1.1793682E-02;  0.0000000E+00;  2.9895192E-03;  0.0000000E+00;
  6.0609703E+00;  9.9999998E-03; -3.9977458E-01;489;  9.1128044E-02;  0.0000000E+00; -1.8753910E-04;  9.9805622E+00;  4.0279996E-01; -1.7281008E+00;3; -5.0943121E-03;  0.0000000E+00; -7.2559584E-03;  0.0000000E+00;  0.0000000E+00;  0.0000000E+00;0;  7.6410309E-03;  9.8559540E+01;  0.0000000E+00; -4.0874101E-02;  1.0000000E+02;  0.0000000E+00;  9.9668686E+01;  5.4227267E-03;  0.0000000E+00;  2.2183042E-03;  0.0000000E+00;
  6.0614328E+00;  9.9999998E-03; -1.9954988E-01;490;  9.2211783E-02;  0.0000000E+00;  7.5798348E-04;  9.9776545E+00;  4.0316901E-01; -1.9866456E+00;3; -4.3383231E-03;  0.0000000E+00; -8.4070582E-04;  0.0000000E+00;  0.0000000E+00;  0.0000000E+00;0;  8.8342354E-03;  9.8417641E+01;  0.0000000E+00; -1.3686802E-02;  1.0000000E+02;  0.0000000E+00;  9.9572075E+01;  6.7737359E-03;  0.0000000E+00;  2.0604990E-03;  0.0000000E+00;
 -4.4494896E-04;  9.9999998E-03;  2.8732134E-12;170; -2.3840443E-04;  0.0000000E+00;  4.5473493E-11;  1.0001681E+01;  3.9985079E-01;  1.8084851E-01;3; -1.3676935E-01;  0.0000000E+00; -8.8525791E-09;  0.0000000E+00;  0.0000000E+00;  0.0000000E+00;0; -2.3728429E-04;  1.0011134E+02;  0.0000000E+00; -6.8776466E-18;  1.0000000E+02;  0.0000000E+00;  9.9996727E+01; -2.2866728E-04;  0.0000000E+00; -8.6170094E-06;  0.0000000E+00;
 -4.3895887E-04;  9.9999998E-03;  2.0001499E-01;171; -2.3679626E-04;  0.0000000E+00;  1.6820160E-06;  1.0001635E+01;  3.9985549E-01;  1.7584631E-01;3; -1.3305958E-01;  0.0000000E+00;  3.0265758E-03;  0.0000000E+00;  0.0000000E+00;  0.0000000E+00;0; -2.2644644E-04;  1.0010829E+02;  0.0000000E+00; -1.1238537E-06;  1.0000000E+02;  0.0000000E+00;  9.9996994E+01; -2.1850286E-04;  0.0000000E+00; -7.9435849E-06;  0.0000000E+00;
 -4.2104538E-04;  9.9999998E-03;  4.0002853E-01;172; -2.3197204E-04;  0.0000000E+00;  2.6422135E-06;  1.0001496E+01;  3.9986613E-01;  1.6096799E-01;3; -1.2206957E-01;  0.0000000E+00;  7.7416296E-03;  0.0000000E+00;  0.0000000E+00;  0.0000000E+00;0; -1.9724399E-04;  1.0009966E+02;  0.0000000E+00; -1.3576994E-05;  1.0000000E+02;  0.0000000E+00;  9.9997711E+01; -1.9128488E-04;  0.0000000E+00; -5.9591052E-06;  0.0000000E+00;
 -3.9228215E-04;  9.9999998E-03;  6.0003906E-01;173; -2.2411220E-04;  0.0000000E+00;  3.3333395E-06;  1.0001290E+01;  3.9988127E-01;  1.3877878E-01;3; -1.0455400E-01;  0.0000000E+00;  1.4859674E-02;  0.0000000E+00;  0.0000000E+00;  0.0000000E+00;0; -1.5805745E-04;  1.0008646E+02;  0.0000000E+00; -5.5745619E-05;  1.0000000E+02;  0.0000000E+00;  9.9998749E+01; -1.5517422E-04;  0.0000000E+00; -2.8832360E-06;  0.0000000E+00;
 -3.5506164E-04;  9.9999998E-03;  8.0004632E-01;174; -2.1365259E-04;  0.0000000E+00;  5.8191240E-06;  1.0001043E+01;  3.9990190E-01;  1.1222868E-01;3; -8.2324475E-02;  0.0000000E+00;  2.3326335E-02;  0.0000000E+00;  0.0000000E+00;  0.0000000E+00;0; -1.1757860E-04;  1.0007008E+02;  0.0000000E+00; -1.2494078E-04;  1.0000000E+02;  0.0000000E+00;  1.0000000E+02; -1.1825362E-04;  0.0000000E+00;  6.7502015E-07;  0.0000000E+00;
 -3.1226230E-04;  9.9999998E-03;  1.0000534E+00;175; -2.0074809E-04;  0.0000000E+00;  1.3406327E-05;  1.0000778E+01;  3.9992538E-01;  8.3754666E-02;3; -5.8436651E-02;  0.0000000E+00;  2.9869469E-02;  0.0000000E+00;  0.0000000E+00;  0.0000000E+00;0; -8.0845057E-05;  1.0005235E+02;  0.0000000E+00; -1.7787328E-04;  1.0000000E+02;  0.0000000E+00;  1.0000087E+02; -8.5158172E-05;  0.0000000E+00;  4.3131167E-06;  0.0000000E+00;
  1.9944902E-01;  9.9999998E-03; -4.0467395E-12;181; -2.8333385E-04;  0.0000000E+00; -7.6501715E-11;  1.0001077E+01;  3.9984500E-01;  1.1581802E-01;3; -1.1741756E-01;  0.0000000E+00; -9.1567802E-09;  0.0000000E+00;  0.0000000E+00;  0.0000000E+00;0; -1.2833238E-04;  1.0010226E+02;  0.0000000E+00; -6.4611189E-18;  1.0000000E+02;  0.0000000E+00;  9.9996635E+01; -1.1767376E-04;  0.0000000E+00; -1.0658628E-05;  0.0000000E+00;
  1.9945683E-01;  9.9999998E-03;  2.0001209E-01;182; -2.8164423E-04;  0.0000000E+00; -3.1282377E-06;  1.0001033E+01;  3.9985010E-01;  1.1107243E-01;3; -1.1444458E-01;  0.0000000E+00;  4.9155378E-03;  0.0000000E+00;  0.0000000E+00;  0.0000000E+00;0; -1.1414105E-04;  1.0009907E+02;  0.0000000E+00; -1.3310645E-05;  1.0000000E+02;  0.0000000E+00;  9.9996803E+01; -1.0418105E-04;  0.0000000E+00; -9.9599984E-06;  0.0000000E+00;
  1.9947976E-01;  9.9999998E-03;  4.0002093E-01;183; -2.7649128E-04;  0.0000000E+00; -7.5210196E-06;  1.0000915E+01;  3.9986217E-01;  9.8374769E-02;3; -1.0566421E-01;  0.0000000E+00;  1.2058534E-02;  0.0000000E+00;  0.0000000E+00;  0.0000000E+00;0; -7.7959885E-05;  1.0009031E+02;  0.0000000E+00; -9.2975155E-05;  1.0000000E+02;  0.0000000E+00;  9.9997200E+01; -7.0119633E-05;  0.0000000E+00; -7.8402500E-06;  0.0000000E+00;
  1.9951631E-01;  9.9999998E-03;  6.0002428E-01;184; -2.6825335E-04;  0.0000000E+00; -1.3738995E-05;  1.0000759E+01;  3.9987820E-01;  8.1701085E-02;3; -9.1671236E-02;  0.0000000E+00;  2.2584140E-02;  0.0000000E+00;  0.0000000E+00;  0.0000000E+00;0; -3.5101424E-05;  1.0007758E+02;  0.0000000E+00; -2.9551503E-04;  1.0000000E+02;  0.0000000E+00;  9.9998405E+01; -3.0733121E-05;  0.0000000E+00; -4.3683049E-06;  0.0000000E+00;
  1.9956419E-01;  9.9999998E-03;  8.0002189E-01;185; -2.5830642E-04;  0.0000000E+00; -2.1599781E-05;  1.0000590E+01;  3.9989838E-01;  6.3488282E-02;3; -7.3854983E-02;  0.0000000E+00;  3.5402529E-02;  0.0000000E+00;  0.0000000E+00;  0.0000000E+00;0; -1.8188784E-06;  1.0006287E+02;  0.0000000E+00; -5.8442098E-04;  1.0000000E+02;  0.0000000E+00;  9.9999870E+01; -1.5948754E-06;  0.0000000E+00; -2.2400309E-07;  0.0000000E+00;
  1.9962133E-01;  9.9999998E-03;  1.0000168E+00;186; -2.4594541E-04;  0.0000000E+00; -2.7352460E-05;  1.0000448E+01;  3.9992005E-01;  4.8225444E-02;3; -5.5348173E-02;  0.0000000E+00;  4.6655413E-02;  0.0000000E+00;  0.0000000E+00;  0.0000000E+00;0;  1.2359105E-05;  1.0004800E+02;  0.0000000E+00; -7.8860851E-04;  1.0000000E+02;  0.0000000E+00;  1.0000108E+02;  9.5207797E-06;  0.0000000E+00;  2.8383256E-06;  0.0000000E+00;
  3.9934018E-01;  9.9999998E-03;  4.7610418E-12;192; -3.2663907E-04;  0.0000000E+00; -3.0124080E-11;  1.0000401E+01;  3.9986473E-01;  4.3093432E-02;3; -1.2852694E-01;  0.0000000E+00;  1.5753599E-08;  0.0000000E+00;  0.0000000E+00;  0.0000000E+00;0;  9.6559765E-05;  1.0007939E+02;  0.0000000E+00; -2.3561034E-18;  1.0000000E+02;  0.0000000E+00;  9.9996727E+01;  1.0790248E-04;  0.0000000E+00; -1.1342716E-05;  0.0000000E+00;
  3.9935011E-01;  9.9999998E-03;  2.0000322E-01;193; -3.2419511E-04;  0.0000000E+00; -7.6760844E-06;  1.0000361E+01;  3.9986873E-01;  3.8861044E-02;3; -1.2665612E-01;  0.0000000E+00;  1.7092282E-02;  0.0000000E+00;  0.0000000E+00;  0.0000000E+00;0;  1.1536910E-04;  1.0007627E+02;  0.0000000E+00; -6.1522027E-05;  1.0000000E+02;  0.0000000E+00;  9.9996735E+01;  1.2604568E-04;  0.0000000E+00; -1.0676581E-05;  0.0000000E+00;
  3.9938018E-01;  9.9999998E-03;  4.0000471E-01;194; -3.1615174E-04;  0.0000000E+00; -1.6321015E-05;  1.0000263E+01;  3.9988050E-01;  2.8344193E-02;3; -1.2110242E-01;  0.0000000E+00;  3.9954863E-02;  0.0000000E+00;  0.0000000E+00;  0.0000000E+00;0;  1.6070803E-04;  1.0006805E+02;  0.0000000E+00; -3.3933655E-04;  1.0000000E+02;  0.0000000E+00;  9.9996887E+01;  1.6949086E-04;  0.0000000E+00; -8.7828239E-06;  0.0000000E+00;
  3.9943042E-01;  9.9999998E-03;  6.0000288E-01;195; -3.0190541E-04;  0.0000000E+00; -2.6134190E-05;  1.0000147E+01;  3.9989570E-01;  1.5775274E-02;3; -1.1234581E-01;  0.0000000E+00;  7.1547560E-02;  0.0000000E+00;  0.0000000E+00;  0.0000000E+00;0;  2.0643065E-04;  1.0005715E+02;  0.0000000E+00; -9.4742363E-04;  1.0000000E+02;  0.0000000E+00;  9.9997925E+01;  2.1223682E-04;  0.0000000E+00; -5.8061660E-06;  0.0000000E+00;
  3.9949980E-01;  9.9999998E-03;  7.9999876E-01;196; -2.8057810E-04;  0.0000000E+00; -3.4579498E-05;  1.0000055E+01;  3.9991191E-01;  5.8996957E-03;3; -1.0136785E-01;  0.0000000E+00;  1.0874214E-01;  0.0000000E+00;  0.0000000E+00;  0.0000000E+00;0;  2.2600027E-04;  1.0004604E+02;  0.0000000E+00; -1.7459590E-03;  1.0000000E+02;  0.0000000E+00;  9.9999763E+01;  2.2807563E-04;  0.0000000E+00; -2.0753705E-06;  0.0000000E+00;
  3.9959589E-01;  9.9999998E-03;  1.0000094E+00;197; -2.4704629E-04;  0.0000000E+00; -3.1814092E-05;  1.0000018E+01;  3.9992771E-01;  1.9238137E-03;3; -8.9604728E-02;  0.0000000E+00;  1.3931577E-01;  0.0000000E+00;  0.0000000E+00;  0.0000000E+00;0;  2.0644405E-04;  1.0003597E+02;  0.0000000E+00; -2.2825494E-03;  1.0000000E+02;  0.0000000E+00;  1.0000108E+02;  2.0493571E-04;  0.0000000E+00;  1.5083406E-06;  0.0000000E+00;
  5.9925532E-01;  9.9999998E-03;  9.0794337E-13;203; -3.5116510E-04;  0.0000000E+00; -9.9985444E-11;  9.9997349E+00;  3.9990821E-01; -2.8534155E-02;3; -7.1841717E-02;  0.0000000E+00;  9.8759259E-09;  0.0000000E+00;  0.0000000E+00;  0.0000000E+00;0;  4.6482659E-04;  1.0004411E+02;  0.0000000E+00;  1.1185227E-17;  1.0000000E+02;  0.0000000E+00;  9.9996849E+01;  4.7597432E-04;  0.0000000E+00; -1.1147724E-05;  0.0000000E+00;
  5.9926730E-01;  9.9999998E-03;  1.9999471E-01;204; -3.4762139E-04;  0.0000000E+00; -1.1146733E-05;  9.9996939E+00;  3.9991283E-01; -3.2958552E-02;3; -7.1859919E-02;  0.0000000E+00;  1.8565999E-02;  0.0000000E+00;  0.0000000E+00;  0.0000000E+00;0;  4.9047737E-04;  1.0004118E+02;  0.0000000E+00; -1.6860676E-04;  1.0000000E+02;  0.0000000E+00;  9.9996727E+01;  5.0087430E-04;  0.0000000E+00; -1.0396924E-05;  0.0000000E+00;
  5.9930557E-01;  9.9999998E-03;  3.9998993E-01;205; -3.3298199E-04;  0.0000000E+00; -2.0993128E-05;  9.9995918E+00;  3.9992371E-01; -4.3923363E-02;3; -7.2141178E-02;  0.0000000E+00;  4.3592568E-02;  0.0000000E+00;  0.0000000E+00;  0.0000000E+00;0;  5.5084453E-04;  1.0003353E+02;  0.0000000E+00; -8.3007262E-04;  1.0000000E+02;  0.0000000E+00;  9.9996727E+01;  5.5957877E-04;  0.0000000E+00; -8.7342487E-06;  0.0000000E+00;
  5.9937328E-01;  9.9999998E-03;  5.9998614E-01;206; -3.0453983E-04;  0.0000000E+00; -2.9279290E-05;  9.9994907E+00;  3.9993590E-01; -5.4759931E-02;3; -7.4469075E-02;  0.0000000E+00;  7.9178520E-02;  0.0000000E+00;  0.0000000E+00;  0.0000000E+00;0;  6.0519448E-04;  1.0002480E+02;  0.0000000E+00; -2.1392440E-03;  1.0000000E+02;  0.0000000E+00;  9.9997139E+01;  6.1213004E-04;  0.0000000E+00; -6.9355547E-06;  0.0000000E+00;
  5.9947145E-01;  9.9999998E-03;  7.9998744E-01;207; -2.6262694E-04;  0.0000000E+00; -3.6029400E-05;  9.9994516E+00;  3.9994445E-01; -5.8991954E-02;3; -8.1558630E-02;  0.0000000E+00;  1.2277853E-01;  0.0000000E+00;  0.0000000E+00;  0.0000000E+00;0;  6.1224779E-04;  1.0001810E+02;  0.0000000E+00; -3.7474870E-03;  1.0000000E+02;  0.0000000E+00;  9.9999290E+01;  6.1707920E-04;  0.0000000E+00; -4.8314159E-06;  0.0000000E+00;
  5.9962708E-01;  9.9999998E-03;  1.0000271E+00;208; -1.8505529E-04;  0.0000000E+00; -1.6623473E-05;  9.9994688E+00;  3.9995390E-01; -5.7132427E-02;3; -9.0356775E-02;  0.0000000E+00;  1.5698358E-01;  0.0000000E+00;  0.0000000E+00;  0.0000000E+00;0;  5.6101213E-04;  1.0001241E+02;  0.0000000E+00; -4.8802923E-03;  1.0000000E+02;  0.0000000E+00;  1.0000097E+02;  5.5981899E-04;  0.0000000E+00;  1.1931288E-06;  0.0000000E+00;
  7.9919451E-01;  9.9999998E-03; -1.5003238E-11;214; -3.5968289E-04;  0.0000000E+00; -1.5504747E-10;  9.9990511E+00;  3.9998153E-01; -1.0206254E-01;3; -3.2174006E-02;  0.0000000E+00; -2.7615570E-08;  0.0000000E+00;  0.0000000E+00;  0.0000000E+00;0;  1.0117483E-03;  9.9994751E+01;  0.0000000E+00; -1.7438296E-17;  1.0000000E+02;  0.0000000E+00;  9.9996216E+01;  1.0237547E-03;  0.0000000E+00; -1.2006424E-05;  0.0000000E+00;
  7.9920983E-01;  9.9999998E-03;  1.9999053E-01;215; -3.5123446E-04;  0.0000000E+00; -9.6206250E-06;  9.9990015E+00;  3.9998603E-01; -1.0738362E-01;3; -3.3612449E-02;  0.0000000E+00;  1.7612550E-02;  0.0000000E+00;  0.0000000E+00;  0.0000000E+00;0;  1.0471715E-03;  9.9991547E+01;  0.0000000E+00; -3.2499604E-04;  1.0000000E+02;  0.0000000E+00;  9.9996033E+01;  1.0577736E-03;  0.0000000E+00; -1.0602113E-05;  0.0000000E+00;
  7.9926097E-01;  9.9999998E-03;  3.9998382E-01;216; -3.1979941E-04;  0.0000000E+00; -1.6640621E-05;  9.9988880E+00;  3.9999652E-01; -1.1962856E-01;3; -3.8878176E-02;  0.0000000E+00;  4.1959416E-02;  0.0000000E+00;  0.0000000E+00;  0.0000000E+00;0;  1.1299305E-03;  9.9984146E+01;  0.0000000E+00; -1.5007127E-03;  1.0000000E+02;  0.0000000E+00;  9.9995453E+01;  1.1379168E-03;  0.0000000E+00; -7.9862812E-06;  0.0000000E+00;
  7.9936045E-01;  9.9999998E-03;  5.9998804E-01;217; -2.3672778E-04;  0.0000000E+00; -7.8152862E-06;  9.9987774E+00;  4.0000543E-01; -1.3148881E-01;3; -5.1233742E-02;  0.0000000E+00;  7.8119271E-02;  0.0000000E+00;  0.0000000E+00;  0.0000000E+00;0;  1.2079456E-03;  9.9976738E+01;  0.0000000E+00; -3.6508373E-03;  1.0000000E+02;  0.0000000E+00;  9.9995934E+01;  1.2127943E-03;  0.0000000E+00; -4.8487295E-06;  0.0000000E+00;
  7.9953325E-01;  9.9999998E-03;  8.0002195E-01;218; -8.3636805E-05;  0.0000000E+00;  1.4131570E-05;  9.9986982E+00;  4.0001127E-01; -1.4001536E-01;3; -7.4799366E-02;  0.0000000E+00;  1.2182352E-01;  0.0000000E+00;  0.0000000E+00;  0.0000000E+00;0;  1.2401049E-03;  9.9971542E+01;  0.0000000E+00; -6.2667676E-03;  1.0000000E+02;  0.0000000E+00;  9.9996735E+01;  1.2377333E-03;  0.0000000E+00;  2.3716093E-06;  0.0000000E+00;
  7.9973596E-01;  9.9999998E-03;  1.0000713E+00;219; -4.3263233E-05;  0.0000000E+00;  1.1092831E-06;  9.9987516E+00;  4.0002173E-01; -1.3424547E-01;3; -1.1204229E-01;  0.0000000E+00;  1.5806392E-01;  0.0000000E+00;  0.0000000E+00;  0.0000000E+00;0;  1.1514085E-03;  9.9967270E+01;  0.0000000E+00; -8.2798693E-03;  1.0000000E+02;  0.0000000E+00;  9.9997093E+01;  1.1472000E-03;  0.0000000E+00;  4.2085730E-06;  0.0000000E+00;
  9.9915278E-01;  9.9999998E-03; -9.7939296E-12;225; -3.5550160E-04;  0.0000000E+00;  1.8281840E-11;  9.9983025E+00;  4.0009829E-01; -1.8250801E-01;3; -1.1024798E-02;  0.0000000E+00; -7.0177748E-09;  0.0000000E+00;  0.0000000E+00;  0.0000000E+00;0;  1.8007208E-03;  9.9922356E+01;  0.0000000E+00;  4.5285032E-17;  1.0000000E+02;  0.0000000E+00;  9.9994659E+01;  1.8170895E-03;  0.0000000E+00; -1.6368720E-05;  0.0000000E+00;
  9.9917293E-01;  9.9999998E-03;  1.9998862E-01;226; -3.3869132E-04;  0.0000000E+00; -1.0906674E-05;  9.9982491E+00;  4.0010357E-01; -1.8827546E-01;3; -1.3263620E-02;  0.0000000E+00;  1.4473666E-02;  0.0000000E+00;  0.0000000E+00;  0.0000000E+00;0;  1.8434230E-03;  9.9919250E+01;  0.0000000E+00; -4.7522213E-04;  1.0000000E+02;  0.0000000E+00;  9.9994316E+01;  1.8568406E-03;  0.0000000E+00; -1.3417513E-05;  0.0000000E+00;
  9.9924672E-01;  9.9999998E-03;  3.9998427E-01;227; -2.4667068E-04;  0.0000000E+00; -6.2920658E-06;  9.9981251E+00;  4.0011400E-01; -2.0160462E-01;3; -2.0869184E-02;  0.0000000E+00;  3.5118468E-02;  0.0000000E+00;  0.0000000E+00;  0.0000000E+00;0;  1.9455726E-03;  9.9911842E+01;  0.0000000E+00; -2.1070859E-03;  1.0000000E+02;  0.0000000E+00;  9.9994011E+01;  1.9521349E-03;  0.0000000E+00; -6.5623099E-06;  0.0000000E+00;
  9.9944729E-01;  9.9999998E-03;  6.0002065E-01;228;  2.6156430E-04;  0.0000000E+00;  7.8352030E-05;  9.9979525E+00;  4.0012592E-01; -2.2012444E-01;3; -3.4550261E-02;  0.0000000E+00;  6.4494610E-02;  0.0000000E+00;  0.0000000E+00;  0.0000000E+00;0;  2.1090612E-03;  9.9903534E+01;  0.0000000E+00; -5.0370158E-03;  1.0000000E+02;  0.0000000E+00;  9.9992813E+01;  2.0912704E-03;  0.0000000E+00;  1.7790933E-05;  0.0000000E+00;
  9.9964505E-01;  9.9999998E-03;  8.0004919E-01;229;  3.1406584E-04;  0.0000000E+00;  1.2784032E-05;  9.9978886E+00;  4.0013188E-01; -2.2698118E-01;3; -7.6852441E-02;  0.0000000E+00;  1.0754086E-01;  0.0000000E+00;  0.0000000E+00;  0.0000000E+00;0;  2.1473200E-03;  9.9898537E+01;  0.0000000E+00; -8.2926946E-03;  1.0000000E+02;  0.0000000E+00;  9.9993385E+01;  2.1403339E-03;  0.0000000E+00;  6.9861221E-06;  0.0000000E+00;
  9.9975830E-01;  9.9999998E-03;  1.0000519E+00;230; -6.3441468E-05;  0.0000000E+00; -6.9198191E-05;  9.9981318E+00;  4.0012419E-01; -2.0083533E-01;3; -1.3017263E-01;  0.0000000E+00;  1.6308360E-01;  0.0000000E+00;  0.0000000E+00;  0.0000000E+00;0;  1.8518475E-03;  9.9904312E+01;  0.0000000E+00; -9.4256960E-03;  1.0000000E+02;  0.0000000E+00;  9.9997147E+01;  1.8808054E-03;  0.0000000E+00; -2.8957878E-05;  0.0000000E+00;
  1.1991291E+00;  9.9999998E-03; -2.4512105E-12;236; -3.3268967E-04;  0.0000000E+00; -6.0756920E-11;  9.9974918E+00;  4.0028718E-01; -2.6941198E-01;3; -2.8001931E-03;  0.0000000E+00; -2.4449236E-08;  0.0000000E+00;  0.0000000E+00;  0.0000000E+00;0;  2.9069881E-03;  9.9813698E+01;  0.0000000E+00;  3.5161221E-17;  1.0000000E+02;  0.0000000E+00;  9.9992889E+01;  2.9307914E-03;  0.0000000E+00; -2.3803317E-05;  0.0000000E+00;
  1.1991575E+00;  9.9999998E-03;  1.9998385E-01;237; -2.8439471E-04;  0.0000000E+00; -2.7815902E-05;  9.9974508E+00;  4.0029216E-01; -2.7382961E-01;3; -4.7888132E-03;  0.0000000E+00;  9.9238493E-03;  0.0000000E+00;  0.0000000E+00;  0.0000000E+00;0;  2.9442431E-03;  9.9811119E+01;  0.0000000E+00; -5.3841155E-04;  1.0000000E+02;  0.0000000E+00;  9.9991928E+01;  2.9636649E-03;  0.0000000E+00; -1.9421863E-05;  0.0000000E+00;
  1.1993052E+00;  9.9999998E-03;  3.9999616E-01;238;  2.7754455E-04;  0.0000000E+00;  9.5247284E-05;  9.9973125E+00;  4.0030262E-01; -2.8868282E-01;3; -8.7140733E-03;  0.0000000E+00;  2.3684293E-02;  0.0000000E+00;  0.0000000E+00;  0.0000000E+00;0;  3.0781731E-03;  9.9804893E+01;  0.0000000E+00; -2.3744286E-03;  1.0000000E+02;  0.0000000E+00;  9.9990440E+01;  3.0635295E-03;  0.0000000E+00;  1.4643659E-05;  0.0000000E+00;
  1.1996650E+00;  9.9999998E-03;  6.0006696E-01;239;  1.3576766E-03;  0.0000000E+00;  1.9300901E-04;  9.9970617E+00;  4.0032226E-01; -3.1563604E-01;3; -2.9006699E-02;  0.0000000E+00;  4.3010056E-02;  0.0000000E+00;  0.0000000E+00;  0.0000000E+00;0;  3.3542300E-03;  9.9795021E+01;  0.0000000E+00; -5.9548840E-03;  1.0000000E+02;  0.0000000E+00;  9.9986038E+01;  3.2755223E-03;  0.0000000E+00;  7.8707628E-05;  0.0000000E+00;
  1.1998297E+00;  9.9999998E-03;  8.0007225E-01;240;  1.1525998E-03;  0.0000000E+00;  6.4250088E-07;  9.9970484E+00;  4.0032488E-01; -3.1704420E-01;3; -7.1769238E-02;  0.0000000E+00;  8.3055563E-02;  0.0000000E+00;  0.0000000E+00;  0.0000000E+00;0;  3.3583932E-03;  9.9791962E+01;  0.0000000E+00; -9.0531232E-03;  1.0000000E+02;  0.0000000E+00;  9.9986961E+01;  3.3443661E-03;  0.0000000E+00;  1.4027210E-05;  0.0000000E+00;
  1.1997852E+00;  9.9999998E-03;  1.0000650E+00;241;  1.5262445E-04;  0.0000000E+00;  3.3517128E-05;  9.9974699E+00;  4.0028378E-01; -2.7177969E-01;3; -1.0365006E-01;  0.0000000E+00;  1.2765256E-01;  0.0000000E+00;  0.0000000E+00;  0.0000000E+00;0;  2.9112422E-03;  9.9815163E+01;  0.0000000E+00; -6.8611391E-03;  1.0000000E+02;  0.0000000E+00;  9.9993340E+01;  2.8700174E-03;  0.0000000E+00;  4.1224805E-05;  0.0000000E+00;
  1.3991379E+00;  9.9999998E-03;  5.2596805E-11;247; -1.2127847E-04;  0.0000000E+00;  9.6327453E-11;  9.9966459E+00;  4.0057650E-01; -3.5953405E-01;3;  1.7075348E-03;  0.0000000E+00;  1.5532422E-08;  0.0000000E+00;  0.0000000E+00;  0.0000000E+00;0;  4.3793079E-03;  9.9657051E+01;  0.0000000E+00; -5.1055549E-17;  1.0000000E+02;  0.0000000E+00;  9.9988503E+01;  4.4034962E-03;  0.0000000E+00; -2.4188535E-05;  0.0000000E+00;
  1.3991927E+00;  9.9999998E-03;  1.9997454E-01;248;  9.2064634E-05;  0.0000000E+00; -6.0813112E-05;  9.9966269E+00;  4.0057841E-01; -3.6157840E-01;3;  9.1708545E-04;  0.0000000E+00;  5.1176762E-03;  0.0000000E+00;  0.0000000E+00;  0.0000000E+00;0;  4.3963525E-03;  9.9656097E+01;  0.0000000E+00; -4.6907863E-04;  1.0000000E+02;  0.0000000E+00;  9.9987732E+01;  4.4167060E-03;  0.0000000E+00; -2.0353757E-05;  0.0000000E+00;
  1.3994428E+00;  9.9999998E-03;  3.9999077E-01;249;  1.0449955E-03;  0.0000000E+00; -1.0658823E-05;  9.9965496E+00;  4.0058571E-01; -3.6988333E-01;3; -2.7988805E-03;  0.0000000E+00;  1.3716363E-02;  0.0000000E+00;  0.0000000E+00;  0.0000000E+00;0;  4.4817915E-03;  9.9653831E+01;  0.0000000E+00; -2.1378160E-03;  1.0000000E+02;  0.0000000E+00;  9.9985703E+01;  4.4759428E-03;  0.0000000E+00;  5.8488645E-06;  0.0000000E+00;
  1.3998959E+00;  9.9999998E-03;  6.0006899E-01;250;  1.9759997E-03;  0.0000000E+00; -1.0870000E-05;  9.9964132E+00;  4.0060180E-01; -3.8451254E-01;3; -2.0775503E-02;  0.0000000E+00;  2.6008904E-02;  0.0000000E+00;  0.0000000E+00;  0.0000000E+00;0;  4.6262494E-03;  9.9648735E+01;  0.0000000E+00; -5.6030820E-03;  1.0000000E+02;  0.0000000E+00;  9.9979149E+01;  4.6022474E-03;  0.0000000E+00;  2.4002118E-05;  0.0000000E+00;
  1.4000438E+00;  9.9999998E-03;  8.0006498E-01;251;  1.6251924E-03;  0.0000000E+00; -1.4834256E-04;  9.9965000E+00;  4.0059114E-01; -3.7518325E-01;3; -5.0384369E-02;  0.0000000E+00;  5.5383921E-02;  0.0000000E+00;  0.0000000E+00;  0.0000000E+00;0;  4.4936761E-03;  9.9652435E+01;  0.0000000E+00; -7.7818069E-03;  1.0000000E+02;  0.0000000E+00;  9.9982796E+01;  4.5795920E-03;  0.0000000E+00; -8.5915934E-05;  0.0000000E+00;
  1.4000273E+00;  9.9999998E-03;  1.0000842E+00;252;  1.9340547E-03;  0.0000000E+00; -5.5973604E-05;  9.9966030E+00;  4.0053138E-01; -3.6412972E-01;3; -6.8799324E-02;  0.0000000E+00;  7.8004822E-02;  0.0000000E+00;  0.0000000E+00;  0.0000000E+00;0;  4.5449943E-03;  9.9679634E+01;  0.0000000E+00; -4.4317483E-03;  1.0000000E+02;  0.0000000E+00;  9.9987717E+01;  4.5829718E-03;  0.0000000E+00; -3.7977592E-05;  0.0000000E+00;
  1.5992714E+00;  9.9999998E-03;  1.2336321E-10;258;  7.8576553E-04;  0.0000000E+00; -3.2700856E-11;  9.9958820E+00;  4.0097728E-01; -4.3952987E-01;3;  5.4310039E-03;  0.0000000E+00; -2.1183549E-08;  0.0000000E+00;  0.0000000E+00;  0.0000000E+00;0;  6.2031099E-03;  9.9451149E+01;  0.0000000E+00;  3.7020750E-17;  1.0000000E+02;  0.0000000E+00;  9.9979675E+01;  6.1956453E-03;  0.0000000E+00;  7.4643599E-06;  0.0000000E+00;
  1.5993489E+00;  9.9999998E-03;  1.9996682E-01;259;  9.8263682E-04;  0.0000000E+00; -7.3304058E-05;  9.9958849E+00;  4.0097585E-01; -4.3921065E-01;3;  4.2968360E-03;  0.0000000E+00;  2.3090532E-03;  0.0000000E+00;  0.0000000E+00;  0.0000000E+00;0;  6.1924718E-03;  9.9452682E+01;  0.0000000E+00; -3.0585763E-04;  1.0000000E+02;  0.0000000E+00;  9.9978966E+01;  6.1805574E-03;  0.0000000E+00;  1.1914321E-05;  0.0000000E+00;
  1.5996431E+00;  9.9999998E-03;  3.9997470E-01;260;  1.7626027E-03;  0.0000000E+00; -7.3041258E-05;  9.9958811E+00;  4.0096900E-01; -4.3958840E-01;3;  2.6479052E-04;  0.0000000E+00;  6.4885775E-03;  0.0000000E+00;  0.0000000E+00;  0.0000000E+00;0;  6.1821104E-03;  9.9457489E+01;  0.0000000E+00; -1.4609625E-03;  1.0000000E+02;  0.0000000E+00;  9.9977463E+01;  6.1524487E-03;  0.0000000E+00;  2.9661738E-05;  0.0000000E+00;
  1.6001009E+00;  9.9999998E-03;  6.0003382E-01;261;  2.6208800E-03;  0.0000000E+00; -8.4289895E-05;  9.9958763E+00;  4.0096256E-01; -4.4009107E-01;3; -1.0144360E-02;  0.0000000E+00;  1.3792438E-02;  0.0000000E+00;  0.0000000E+00;  0.0000000E+00;0;  6.1691287E-03;  9.9463997E+01;  0.0000000E+00; -3.8266808E-03;  1.0000000E+02;  0.0000000E+00;  9.9974121E+01;  6.1431848E-03;  0.0000000E+00;  2.5943977E-05;  0.0000000E+00;
  1.6004498E+00;  9.9999998E-03;  8.0006117E-01;262;  2.6530600E-03;  0.0000000E+00; -1.3154146E-04;  9.9959688E+00;  4.0093648E-01; -4.3022609E-01;3; -2.9576832E-02;  0.0000000E+00;  3.0006547E-02;  0.0000000E+00;  0.0000000E+00;  0.0000000E+00;0;  5.9993793E-03;  9.9474480E+01;  0.0000000E+00; -6.3038310E-03;  1.0000000E+02;  0.0000000E+00;  9.9978432E+01;  6.0664178E-03;  0.0000000E+00; -6.7038491E-05;  0.0000000E+00;
  1.6005383E+00;  9.9999998E-03;  1.0001101E+00;263;  2.5951932E-03;  0.0000000E+00;  1.6525435E-05;  9.9960699E+00;  4.0087581E-01; -4.1947404E-01;3; -4.7622595E-02;  0.0000000E+00;  4.3386683E-02;  0.0000000E+00;  0.0000000E+00;  0.0000000E+00;0;  5.8860756E-03;  9.9503311E+01;  0.0000000E+00; -4.6177316E-03;  1.0000000E+02;  0.0000000E+00;  9.9981682E+01;  5.8511784E-03;  0.0000000E+00;  3.4897072E-05;  0.0000000E+00;
  1.7995820E+00;  9.9999998E-03;  8.0757706E-11;269;  1.7821121E-03;  0.0000000E+00; -3.4340453E-10;  9.9952765E+00;  4.0147391E-01; -4.9964356E-01;3;  5.6363582E-03;  0.0000000E+00; -3.5838024E-08;  0.0000000E+00;  0.0000000E+00;  0.0000000E+00;0;  8.2794633E-03;  9.9210876E+01;  0.0000000E+00;  8.9314330E-16;  1.0000000E+02;  0.0000000E+00;  9.9962181E+01;  8.1724478E-03;  0.0000000E+00;  1.0701574E-04;  0.0000000E+00;
  1.7996645E+00;  9.9999998E-03;  1.9995905E-01;270;  1.9222321E-03;  0.0000000E+00; -8.5634572E-05;  9.9952984E+00;  4.0146625E-01; -4.9730825E-01;3;  4.9242177E-03;  0.0000000E+00;  7.5172080E-04;  0.0000000E+00;  0.0000000E+00;  0.0000000E+00;0;  8.2375985E-03;  9.9215385E+01;  0.0000000E+00; -1.3554005E-04;  1.0000000E+02;  0.0000000E+00;  9.9962082E+01;  8.1266547E-03;  0.0000000E+00;  1.1094425E-04;  0.0000000E+00;
  1.7999519E+00;  9.9999998E-03;  3.9994526E-01;271;  2.4879389E-03;  0.0000000E+00; -1.4331391E-04;  9.9953671E+00;  4.0143958E-01; -4.9004924E-01;3;  2.6240228E-03;  0.0000000E+00;  2.4643110E-03;  0.0000000E+00;  0.0000000E+00;  0.0000000E+00;0;  8.1127109E-03;  9.9228310E+01;  0.0000000E+00; -7.0206239E-04;  1.0000000E+02;  0.0000000E+00;  9.9963425E+01;  8.0059562E-03;  0.0000000E+00;  1.0675460E-04;  0.0000000E+00;
  1.8004390E+00;  9.9999998E-03;  5.9999681E-01;272;  3.4834840E-03;  0.0000000E+00; -1.4113421E-04;  9.9954691E+00;  4.0139881E-01; -4.7925401E-01;3; -8.9703605E-04;  0.0000000E+00;  6.3114227E-03;  0.0000000E+00;  0.0000000E+00;  0.0000000E+00;0;  7.9286657E-03;  9.9247849E+01;  0.0000000E+00; -1.9196142E-03;  1.0000000E+02;  0.0000000E+00;  9.9966225E+01;  7.8604016E-03;  0.0000000E+00;  6.8264184E-05;  0.0000000E+00;
  1.8011435E+00;  9.9999998E-03;  8.0008578E-01;273;  4.4379262E-03;  0.0000000E+00; -5.2292653E-05;  9.9955473E+00;  4.0135765E-01; -4.7091159E-01;3; -1.2131633E-02;  0.0000000E+00;  1.2882455E-02;  0.0000000E+00;  0.0000000E+00;  0.0000000E+00;0;  7.7717784E-03;  9.9267654E+01;  0.0000000E+00; -4.9298899E-03;  1.0000000E+02;  0.0000000E+00;  9.9968422E+01;  7.7335229E-03;  0.0000000E+00;  3.8255610E-05;  0.0000000E+00;
  1.8014301E+00;  9.9999998E-03;  1.0001725E+00;274;  3.0583837E-03;  0.0000000E+00;  1.1200754E-04;  9.9957428E+00;  4.0130058E-01; -4.5022631E-01;3; -3.1927735E-02;  0.0000000E+00;  1.9361302E-02;  0.0000000E+00;  0.0000000E+00;  0.0000000E+00;0;  7.3920609E-03;  9.9297668E+01;  0.0000000E+00; -6.5309182E-03;  1.0000000E+02;  0.0000000E+00;  9.9970047E+01;  7.2673121E-03;  0.0000000E+00;  1.2474897E-04;  0.0000000E+00;
  2.0003343E+00;  9.9999998E-03; -1.2991826E-10;280;  3.2784091E-03;  0.0000000E+00; -1.4194239E-09;  9.9948902E+00;  4.0201250E-01; -5.3126019E-01;3;  6.0771252E-03;  0.0000000E+00; -8.2830475E-08;  0.0000000E+00;  0.0000000E+00;  0.0000000E+00;0;  1.0441517E-02;  9.8967453E+01;  0.0000000E+00; -7.4256798E-17;  1.0000000E+02;  0.0000000E+00;  9.9932014E+01;  1.0128367E-02;  0.0000000E+00;  3.1315084E-04;  0.0000000E+00;
  2.0004036E+00;  9.9999998E-03;  1.9996096E-01;281;  3.4068841E-03;  0.0000000E+00; -1.0161143E-04;  9.9949245E+00;  4.0199921E-01; -5.2766186E-01;3;  5.9391432E-03;  0.0000000E+00;  1.1270166E-04;  0.0000000E+00;  0.0000000E+00;  0.0000000E+00;0;  1.0369526E-02;  9.8974457E+01;  0.0000000E+00; -3.5466532E-05;  1.0000000E+02;  0.0000000E+00;  9.9932365E+01;  1.0056334E-02;  0.0000000E+00;  3.1319287E-04;  0.0000000E+00;
  2.0007899E+00;  9.9999998E-03;  3.9993656E-01;282;  4.0631080E-03;  0.0000000E+00; -1.8776165E-04;  9.9950342E+00;  4.0195307E-01; -5.1623720E-01;3;  4.5085019E-03;  0.0000000E+00;  6.0894061E-04;  0.0000000E+00;  0.0000000E+00;  0.0000000E+00;0;  1.0143073E-02;  9.8994171E+01;  0.0000000E+00; -2.6248669E-04;  1.0000000E+02;  0.0000000E+00;  9.9937218E+01;  9.8618502E-03;  0.0000000E+00;  2.8122333E-04;  0.0000000E+00;
  2.0013978E+00;  9.9999998E-03;  5.9999621E-01;283;  5.2637318E-03;  0.0000000E+00; -1.3684413E-04;  9.9951963E+00;  4.0188095E-01; -4.9934828E-01;3;  4.0713740E-03;  0.0000000E+00;  2.2050636E-03;  0.0000000E+00;  0.0000000E+00;  0.0000000E+00;0;  9.8089101E-03;  9.9023193E+01;  0.0000000E+00; -9.8526548E-04;  1.0000000E+02;  0.0000000E+00;  9.9947777E+01;  9.6025011E-03;  0.0000000E+00;  2.0640928E-04;  0.0000000E+00;
  2.0022111E+00;  9.9999998E-03;  8.0015367E-01;284;  7.0714271E-03;  0.0000000E+00;  1.1338332E-04;  9.9953032E+00;  4.0181658E-01; -4.8821232E-01;3;  7.8287459E-04;  0.0000000E+00;  5.0955811E-03;  0.0000000E+00;  0.0000000E+00;  0.0000000E+00;0;  9.6312854E-03;  9.9054932E+01;  0.0000000E+00; -3.1614644E-03;  1.0000000E+02;  0.0000000E+00;  9.9948967E+01;  9.3704229E-03;  0.0000000E+00;  2.6086220E-04;  0.0000000E+00;
  2.0030396E+00;  9.9999998E-03;  1.0002933E+00;285;  7.6426170E-03;  0.0000000E+00;  2.9959169E-04;  9.9953871E+00;  4.0176454E-01; -4.7943160E-01;3; -1.2427917E-02;  0.0000000E+00;  6.1309212E-03;  0.0000000E+00;  0.0000000E+00;  0.0000000E+00;0;  9.4500780E-03;  9.9083931E+01;  0.0000000E+00; -7.7546258E-03;  1.0000000E+02;  0.0000000E+00;  9.9947800E+01;  9.1467910E-03;  0.0000000E+00;  3.0328688E-04;  0.0000000E+00;
  2.2023897E+00;  9.9999998E-03;  1.3207665E-11;291;  7.1133645E-03;  0.0000000E+00; -1.2188950E-09;  9.9947300E+00;  4.0252855E-01; -5.3248996E-01;3;  8.5025374E-03;  0.0000000E+00; -1.7271162E-07;  0.0000000E+00;  0.0000000E+00;  0.0000000E+00;0;  1.2491627E-02;  9.8756073E+01;  0.0000000E+00;  1.6454043E-15;  1.0000000E+02;  0.0000000E+00;  9.9885765E+01;  1.1831393E-02;  0.0000000E+00;  6.6023396E-04;  0.0000000E+00;
  2.2024195E+00;  9.9999998E-03;  1.9998872E-01;292;  7.1392278E-03;  0.0000000E+00; -8.8544082E-05;  9.9947681E+00;  4.0251195E-01; -5.2863300E-01;3;  8.2754539E-03;  0.0000000E+00; -7.1916817E-05;  0.0000000E+00;  0.0000000E+00;  0.0000000E+00;0;  1.2401833E-02;  9.8764290E+01;  0.0000000E+00; -1.3306329E-06;  1.0000000E+02;  0.0000000E+00;  9.9886414E+01;  1.1746940E-02;  0.0000000E+00;  6.5489329E-04;  0.0000000E+00;
  2.2025244E+00;  9.9999998E-03;  3.9999169E-01;293;  7.2540874E-03;  0.0000000E+00; -1.7526207E-04;  9.9948902E+00;  4.0245754E-01; -5.1627827E-01;3;  7.5985868E-03;  0.0000000E+00; -8.5363368E-05;  0.0000000E+00;  0.0000000E+00;  0.0000000E+00;0;  1.2104002E-02;  9.8787186E+01;  0.0000000E+00; -5.9740134E-05;  1.0000000E+02;  0.0000000E+00;  9.9893097E+01;  1.1514670E-02;  0.0000000E+00;  5.8933179E-04;  0.0000000E+00;
  2.2027662E+00;  9.9999998E-03;  6.0009187E-01;294;  7.6915808E-03;  0.0000000E+00;  3.2514999E-05;  9.9950523E+00;  4.0236640E-01; -4.9987769E-01;3;  6.4793886E-03;  0.0000000E+00; -4.0281393E-05;  0.0000000E+00;  0.0000000E+00;  0.0000000E+00;0;  1.1724392E-02;  9.8820595E+01;  0.0000000E+00; -3.0735618E-04;  1.0000000E+02;  0.0000000E+00;  9.9907341E+01;  1.1190729E-02;  0.0000000E+00;  5.3366274E-04;  0.0000000E+00;
  2.2031667E+00;  9.9999998E-03;  8.0031693E-01;295;  8.4527032E-03;  0.0000000E+00;  2.8069428E-04;  9.9952478E+00;  4.0229726E-01; -4.8009345E-01;3;  4.8452979E-03;  0.0000000E+00;  4.9286131E-03;  0.0000000E+00;  0.0000000E+00;  0.0000000E+00;0;  1.1314651E-02;  9.8858986E+01;  0.0000000E+00; -9.0351590E-04;  1.0000000E+02;  0.0000000E+00;  9.9907234E+01;  1.0846137E-02;  0.0000000E+00;  4.6851439E-04;  0.0000000E+00;
  2.2036822E+00;  9.9999998E-03;  1.0005072E+00;296;  9.4812298E-03;  0.0000000E+00;  6.0139981E-04;  9.9953279E+00;  4.0222523E-01; -4.7192335E-01;3;  2.3005779E-03;  0.0000000E+00;  1.8144932E-03;  0.0000000E+00;  0.0000000E+00;  0.0000000E+00;0;  1.1125097E-02;  9.8897423E+01;  0.0000000E+00; -2.0013133E-03;  1.0000000E+02;  0.0000000E+00;  9.9905785E+01;  1.0544959E-02;  0.0000000E+00;  5.8013800E-04;  0.0000000E+00;
  2.4045677E+00;  9.9999998E-03;  2.0664201E-11;302;  1.1430691E-02;  0.0000000E+00;  8.9020408E-10;  9.9947224E+00;  4.0299693E-01; -5.1374656E-01;3;  1.1979226E-02;  0.0000000E+00; -2.3815346E-07;  0.0000000E+00;  0.0000000E+00;  0.0000000E+00;0;  1.4374968E-02;  9.8589935E+01;  0.0000000E+00;  3.8043437E-16;  1.0000000E+02;  0.0000000E+00;  9.9822090E+01;  1.3211341E-02;  0.0000000E+00;  1.1636274E-03;  0.0000000E+00;
  2.4045105E+00;  9.9999998E-03;  2.0003282E-01;303;  1.1242608E-02;  0.0000000E+00; -4.8511640E-05;  9.9947519E+00;  4.0298080E-01; -5.1090890E-01;3;  1.1484017E-02;  0.0000000E+00; -1.0094715E-04;  0.0000000E+00;  0.0000000E+00;  0.0000000E+00;0;  1.4290770E-02;  9.8596748E+01;  0.0000000E+00;  3.1904412E-06;  1.0000000E+02;  0.0000000E+00;  9.9823479E+01;  1.3142120E-02;  0.0000000E+00;  1.1486494E-03;  0.0000000E+00;
  2.4043729E+00;  9.9999998E-03;  4.0008923E-01;304;  1.0746993E-02;  0.0000000E+00; -6.9887028E-05;  9.9948559E+00;  4.0292832E-01; -5.0076765E-01;3;  1.0120011E-02;  0.0000000E+00; -1.3874378E-04;  0.0000000E+00;  0.0000000E+00;  0.0000000E+00;0;  1.4002665E-02;  9.8615631E+01;  0.0000000E+00;  8.6822911E-06;  1.0000000E+02;  0.0000000E+00;  9.9832375E+01;  1.2951772E-02;  0.0000000E+00;  1.0508935E-03;  0.0000000E+00;
  2.4042189E+00;  9.9999998E-03;  6.0033590E-01;305;  1.0138175E-02;  0.0000000E+00;  4.1107563E-04;  9.9949398E+00;  4.0286705E-01; -4.9265844E-01;3;  8.2550561E-03;  0.0000000E+00; -1.1632366E-03;  0.0000000E+00;  0.0000000E+00;  0.0000000E+00;0;  1.3765785E-02;  9.8642937E+01;  0.0000000E+00; -1.4775709E-05;  1.0000000E+02;  0.0000000E+00;  9.9836884E+01;  1.2683091E-02;  0.0000000E+00;  1.0826944E-03;  0.0000000E+00;
  2.4041336E+00;  9.9999998E-03;  8.0060303E-01;306;  9.7969109E-03;  0.0000000E+00;  5.7557039E-04;  9.9951267E+00;  4.0281090E-01; -4.7444531E-01;3;  6.4582056E-03;  0.0000000E+00;  1.7136413E-03;  0.0000000E+00;  0.0000000E+00;  0.0000000E+00;0;  1.3206962E-02;  9.8674339E+01;  0.0000000E+00; -8.4687483E-05;  1.0000000E+02;  0.0000000E+00;  9.9836517E+01;  1.2389622E-02;  0.0000000E+00;  8.1733952E-04;  0.0000000E+00;
  2.4041154E+00;  9.9999998E-03;  1.0008426E+00;307;  9.6465861E-03;  0.0000000E+00;  1.1603086E-03;  9.9951344E+00;  4.0274984E-01; -4.7369254E-01;3;  4.9322071E-03;  0.0000000E+00; -1.6867140E-03;  0.0000000E+00;  0.0000000E+00;  0.0000000E+00;0;  1.3306895E-02;  9.8705215E+01;  0.0000000E+00; -1.3269519E-04;  1.0000000E+02;  0.0000000E+00;  9.9835869E+01;  1.2122945E-02;  0.0000000E+00;  1.1839505E-03;  0.0000000E+00;
  2.6061208E+00;  9.9999998E-03; -1.0121495E-09;313;  1.4081087E-02;  0.0000000E+00; -5.5880212E-10;  9.9947147E+00;  4.0345830E-01; -4.9644601E-01;3;  1.3050416E-02;  0.0000000E+00; -2.6374659E-07;  0.0000000E+00;  0.0000000E+00;  0.0000000E+00;0;  1.6343111E-02;  9.8441849E+01;  0.0000000E+00;  4.0900852E-16;  1.0000000E+02;  0.0000000E+00;  9.9743149E+01;  1.4531672E-02;  0.0000000E+00;  1.8114392E-03;  0.0000000E+00;
  2.6060405E+00;  9.9999998E-03;  2.0011452E-01;314;  1.3840773E-02;  0.0000000E+00; -1.5092422E-05;  9.9947338E+00;  4.0344921E-01; -4.9466062E-01;3;  1.2522857E-02;  0.0000000E+00; -1.0951615E-04;  0.0000000E+00;  0.0000000E+00;  0.0000000E+00;0;  1.6281467E-02;  9.8444710E+01;  0.0000000E+00;  2.2178449E-06;  1.0000000E+02;  0.0000000E+00;  9.9745071E+01;  1.4504596E-02;  0.0000000E+00;  1.7768722E-03;  0.0000000E+00;
  2.6058288E+00;  9.9999998E-03;  4.0033948E-01;315;  1.3209262E-02;  0.0000000E+00;  4.4820007E-04;  9.9947605E+00;  4.0342548E-01; -4.9215743E-01;3;  1.1159734E-02;  0.0000000E+00;  2.0528870E-04;  0.0000000E+00;  0.0000000E+00;  0.0000000E+00;0;  1.6198086E-02;  9.8453117E+01;  0.0000000E+00;  8.5647353E-06;  1.0000000E+02;  0.0000000E+00;  9.9748871E+01;  1.4428270E-02;  0.0000000E+00;  1.7698150E-03;  0.0000000E+00;
  2.6055727E+00;  9.9999998E-03;  6.0068679E-01;316;  1.2439186E-02;  0.0000000E+00;  8.8291412E-04;  9.9947929E+00;  4.0341121E-01; -4.8915356E-01;3;  9.4623901E-03;  0.0000000E+00; -1.1457023E-03;  0.0000000E+00;  0.0000000E+00;  0.0000000E+00;0;  1.6067550E-02;  9.8465698E+01;  0.0000000E+00;  1.4699955E-05;  1.0000000E+02;  0.0000000E+00;  9.9743980E+01;  1.4316525E-02;  0.0000000E+00;  1.7510237E-03;  0.0000000E+00;
  2.6053817E+00;  9.9999998E-03;  8.0099189E-01;317;  1.1843079E-02;  0.0000000E+00;  1.2585416E-03;  9.9948273E+00;  4.0338761E-01; -4.8592049E-01;3;  7.9377666E-03;  0.0000000E+00; -3.8949428E-03;  0.0000000E+00;  0.0000000E+00;  0.0000000E+00;0;  1.5838271E-02;  9.8480377E+01;  0.0000000E+00;  9.5251971E-06;  1.0000000E+02;  0.0000000E+00;  9.9741684E+01;  1.4191402E-02;  0.0000000E+00;  1.6468697E-03;  0.0000000E+00;
  2.6050806E+00;  9.9999998E-03;  1.0012707E+00;318;  1.1252745E-02;  0.0000000E+00;  1.8570599E-03;  9.9949169E+00;  4.0335095E-01; -4.7754386E-01;3;  6.7275735E-03;  0.0000000E+00;  5.5335676E-03;  0.0000000E+00;  0.0000000E+00;  0.0000000E+00;0;  1.5963312E-02;  9.8495155E+01;  0.0000000E+00; -7.4767271E-08;  1.0000000E+02;  0.0000000E+00;  9.9746155E+01;  1.4077055E-02;  0.0000000E+00;  1.8862579E-03;  0.0000000E+00;
  2.8073082E+00;  9.9999998E-03; -1.1925634E-09;324;  1.6023917E-02;  0.0000000E+00; -7.0767964E-10;  9.9945993E+00;  4.0399468E-01; -4.9441847E-01;3;  1.3432498E-02;  0.0000000E+00; -2.6113244E-07;  0.0000000E+00;  0.0000000E+00;  0.0000000E+00;0;  1.8719431E-02;  9.8266060E+01;  0.0000000E+00; -2.1295509E-16;  1.0000000E+02;  0.0000000E+00;  9.9654198E+01;  1.6154310E-02;  0.0000000E+00;  2.5651213E-03;  0.0000000E+00;
  2.8072643E+00;  9.9999998E-03;  2.0042491E-01;325;  1.5859606E-02;  0.0000000E+00;  5.9003400E-04;  9.9945879E+00;  4.0400413E-01; -4.9545741E-01;3;  1.3027850E-02;  0.0000000E+00; -1.2647027E-04;  0.0000000E+00;  0.0000000E+00;  0.0000000E+00;0;  1.8755142E-02;  9.8264496E+01;  0.0000000E+00;  3.0387775E-06;  1.0000000E+02;  0.0000000E+00;  9.9650955E+01;  1.6174527E-02;  0.0000000E+00;  2.5806152E-03;  0.0000000E+00;
  2.8071492E+00;  9.9999998E-03;  4.0069893E-01;326;  1.5445422E-02;  0.0000000E+00;  9.5994514E-04;  9.9945774E+00;  4.0401411E-01; -4.9644524E-01;3;  1.2050785E-02;  0.0000000E+00;  3.6112577E-04;  0.0000000E+00;  0.0000000E+00;  0.0000000E+00;0;  1.8788660E-02;  9.8260719E+01;  0.0000000E+00;  1.1645611E-05;  1.0000000E+02;  0.0000000E+00;  9.9649673E+01;  1.6227158E-02;  0.0000000E+00;  2.5615026E-03;  0.0000000E+00;
  2.8070164E+00;  9.9999998E-03;  6.0104221E-01;327;  1.4983069E-02;  0.0000000E+00;  1.5335494E-03;  9.9945469E+00;  4.0403000E-01; -4.9923474E-01;3;  1.0919414E-02;  0.0000000E+00; -6.2117374E-06;  0.0000000E+00;  0.0000000E+00;  0.0000000E+00;0;  1.8889204E-02;  9.8256157E+01;  0.0000000E+00;  2.0400439E-05;  1.0000000E+02;  0.0000000E+00;  9.9646049E+01;  1.6295277E-02;  0.0000000E+00;  2.5939276E-03;  0.0000000E+00;
  2.8068991E+00;  9.9999998E-03;  8.0140811E-01;328;  1.4614809E-02;  0.0000000E+00;  2.0878133E-03;  9.9944706E+00;  4.0404552E-01; -5.0622517E-01;3;  9.8775225E-03;  0.0000000E+00; -5.7174433E-03;  0.0000000E+00;  0.0000000E+00;  0.0000000E+00;0;  1.9000039E-02;  9.8252190E+01;  0.0000000E+00;  1.5788295E-05;  1.0000000E+02;  0.0000000E+00;  9.9640884E+01;  1.6363839E-02;  0.0000000E+00;  2.6361989E-03;  0.0000000E+00;
  2.8066378E+00;  9.9999998E-03;  1.0017513E+00;329;  1.4155247E-02;  0.0000000E+00;  2.4853582E-03;  9.9946070E+00;  4.0404537E-01; -4.9374196E-01;3;  8.9790775E-03;  0.0000000E+00;  6.5690442E-03;  0.0000000E+00;  0.0000000E+00;  0.0000000E+00;0;  1.8817535E-02;  9.8249657E+01;  0.0000000E+00;  1.1577509E-06;  1.0000000E+02;  0.0000000E+00;  9.9646034E+01;  1.6421467E-02;  0.0000000E+00;  2.3960678E-03;  0.0000000E+00;
  3.0085261E+00;  9.9999998E-03; -9.2979141E-10;335;  1.8384367E-02;  0.0000000E+00;  1.4541179E-09;  9.9943638E+00;  4.0466231E-01; -5.0830626E-01;3;  1.4961144E-02;  0.0000000E+00; -2.3484927E-07;  0.0000000E+00;  0.0000000E+00;  0.0000000E+00;0;  2.1602537E-02;  9.8028755E+01;  0.0000000E+00;  5.3521386E-16;  1.0000000E+02;  0.0000000E+00;  9.9561569E+01;  1.8235829E-02;  0.0000000E+00;  3.3667090E-03;  0.0000000E+00;
  3.0085406E+00;  9.9999998E-03;  2.0061047E-01;336;  1.8349349E-02;  0.0000000E+00;  1.0170814E-03;  9.9943390E+00;  4.0468079E-01; -5.1056361E-01;3;  1.4707704E-02;  0.0000000E+00;  3.0878148E-04;  0.0000000E+00;  0.0000000E+00;  0.0000000E+00;0;  2.1693960E-02;  9.8024139E+01;  0.0000000E+00;  4.9566534E-06;  1.0000000E+02;  0.0000000E+00;  9.9556511E+01;  1.8288093E-02;  0.0000000E+00;  3.4058674E-03;  0.0000000E+00;
  3.0085719E+00;  9.9999998E-03;  4.0095565E-01;337;  1.8261362E-02;  0.0000000E+00;  1.2146492E-03;  9.9943285E+00;  4.0471083E-01; -5.1147658E-01;3;  1.4082250E-02;  0.0000000E+00;  5.5205083E-04;  0.0000000E+00;  0.0000000E+00;  0.0000000E+00;0;  2.1727266E-02;  9.8011536E+01;  0.0000000E+00;  1.8331561E-05;  1.0000000E+02;  0.0000000E+00;  9.9554008E+01;  1.8429354E-02;  0.0000000E+00;  3.2979113E-03;  0.0000000E+00;
  3.0086052E+00;  9.9999998E-03;  6.0135561E-01;338;  1.8180046E-02;  0.0000000E+00;  2.1417749E-03;  9.9942436E+00;  4.0474829E-01; -5.1916260E-01;3;  1.3346177E-02;  0.0000000E+00;  7.2344975E-04;  0.0000000E+00;  0.0000000E+00;  0.0000000E+00;0;  2.2050353E-02;  9.7994728E+01;  0.0000000E+00;  3.1477655E-05;  1.0000000E+02;  0.0000000E+00;  9.9551216E+01;  1.8623944E-02;  0.0000000E+00;  3.4264084E-03;  0.0000000E+00;
  3.0086701E+00;  9.9999998E-03;  8.0180466E-01;339;  1.8187836E-02;  0.0000000E+00;  2.9418706E-03;  9.9940987E+00;  4.0479299E-01; -5.3222317E-01;3;  1.2629624E-02;  0.0000000E+00; -5.6451820E-03;  0.0000000E+00;  0.0000000E+00;  0.0000000E+00;0;  2.2477407E-02;  9.7977127E+01;  0.0000000E+00;  2.8148330E-05;  1.0000000E+02;  0.0000000E+00;  9.9544266E+01;  1.8832153E-02;  0.0000000E+00;  3.6452548E-03;  0.0000000E+00;
  3.0086064E+00;  9.9999998E-03;  1.0022371E+00;340;  1.8078702E-02;  0.0000000E+00;  3.1557442E-03;  9.9942532E+00;  4.0482667E-01; -5.1830250E-01;3;  1.1920252E-02;  0.0000000E+00;  3.7310594E-03;  0.0000000E+00;  0.0000000E+00;  0.0000000E+00;0;  2.1963108E-02;  9.7961571E+01;  0.0000000E+00;  4.8642287E-06;  1.0000000E+02;  0.0000000E+00;  9.9546600E+01;  1.9018643E-02;  0.0000000E+00;  2.9444648E-03;  0.0000000E+00;
  3.2101896E+00;  9.9999998E-03; -5.8946920E-10;346;  2.1817153E-02;  0.0000000E+00;  3.1772380E-09;  9.9940624E+00;  4.0546355E-01; -5.3142881E-01;3;  1.8219585E-02;  0.0000000E+00; -1.8374963E-07;  0.0000000E+00;  0.0000000E+00;  0.0000000E+00;0;  2.4813702E-02;  9.7725189E+01;  0.0000000E+00;  1.2659575E-15;  1.0000000E+02;  0.0000000E+00;  9.9470230E+01;  2.0648662E-02;  0.0000000E+00;  4.1650399E-03;  0.0000000E+00;
  3.2102635E+00;  9.9999998E-03;  2.0067340E-01;347;  2.1907818E-02;  0.0000000E+00;  1.1842999E-03;  9.9940386E+00;  4.0548313E-01; -5.3356159E-01;3;  1.8048942E-02;  0.0000000E+00;  7.4809644E-04;  0.0000000E+00;  0.0000000E+00;  0.0000000E+00;0;  2.4906948E-02;  9.7719543E+01;  0.0000000E+00;  7.0551337E-06;  1.0000000E+02;  0.0000000E+00;  9.9465950E+01;  2.0710098E-02;  0.0000000E+00;  4.1968497E-03;  0.0000000E+00;
  3.2104387E+00;  9.9999998E-03;  4.0113816E-01;348;  2.2125345E-02;  0.0000000E+00;  1.5754893E-03;  9.9940243E+00;  4.0552098E-01; -5.3483951E-01;3;  1.7575501E-02;  0.0000000E+00;  1.0055001E-03;  0.0000000E+00;  0.0000000E+00;  0.0000000E+00;0;  2.4958029E-02;  9.7703911E+01;  0.0000000E+00;  2.6171760E-05;  1.0000000E+02;  0.0000000E+00;  9.9462677E+01;  2.0877838E-02;  0.0000000E+00;  4.0801903E-03;  0.0000000E+00;
  3.2106452E+00;  9.9999998E-03;  6.0163915E-01;349;  2.2396017E-02;  0.0000000E+00;  2.6905460E-03;  9.9939308E+00;  4.0556908E-01; -5.4315847E-01;3;  1.6951768E-02;  0.0000000E+00;  2.5701904E-04;  0.0000000E+00;  0.0000000E+00;  0.0000000E+00;0;  2.5330931E-02;  9.7682663E+01;  0.0000000E+00;  4.7349818E-05;  1.0000000E+02;  0.0000000E+00;  9.9458893E+01;  2.1111295E-02;  0.0000000E+00;  4.2196363E-03;  0.0000000E+00;
  3.2108886E+00;  9.9999998E-03;  8.0216599E-01;350;  2.2736752E-02;  0.0000000E+00;  3.7196572E-03;  9.9937906E+00;  4.0561861E-01; -5.5574441E-01;3;  1.6307803E-02;  0.0000000E+00; -2.1858572E-03;  0.0000000E+00;  0.0000000E+00;  0.0000000E+00;0;  2.5915306E-02;  9.7659874E+01;  0.0000000E+00;  5.2020376E-05;  1.0000000E+02;  0.0000000E+00;  9.9454964E+01;  2.1363115E-02;  0.0000000E+00;  4.5521916E-03;  0.0000000E+00;
  3.2110288E+00;  9.9999998E-03;  1.0027072E+00;351;  2.2964843E-02;  0.0000000E+00;  3.8027652E-03;  9.9939480E+00;  4.0567401E-01; -5.4165953E-01;3;  1.5608997E-02;  0.0000000E+00; -3.0682480E-04;  0.0000000E+00;  0.0000000E+00;  0.0000000E+00;0;  2.5045756E-02;  9.7639450E+01;  0.0000000E+00;  2.4768511E-05;  1.0000000E+02;  0.0000000E+00;  9.9452049E+01;  2.1591375E-02;  0.0000000E+00;  3.4543818E-03;  0.0000000E+00;
  3.4125097E+00;  9.9999998E-03; -8.0448026E-10;357;  2.6326604E-02;  0.0000000E+00;  2.9176583E-09;  9.9937582E+00;  4.0635526E-01; -5.5660653E-01;3;  2.2802431E-02;  0.0000000E+00; -1.3138931E-07;  0.0000000E+00;  0.0000000E+00;  0.0000000E+00;0;  2.8036172E-02;  9.7377411E+01;  0.0000000E+00;  1.0768158E-15;  1.0000000E+02;  0.0000000E+00;  9.9381630E+01;  2.3110218E-02;  0.0000000E+00;  4.9259532E-03;  0.0000000E+00;
  3.4126246E+00;  9.9999998E-03;  2.0066418E-01;358;  2.6509533E-02;  0.0000000E+00;  1.2327917E-03;  9.9937391E+00;  4.0637100E-01; -5.5830657E-01;3;  2.2679370E-02;  0.0000000E+00;  1.3971096E-03;  0.0000000E+00;  0.0000000E+00;  0.0000000E+00;0;  2.8104898E-02;  9.7371933E+01;  0.0000000E+00;  7.8978774E-06;  1.0000000E+02;  0.0000000E+00;  9.9379379E+01;  2.3163680E-02;  0.0000000E+00;  4.9412171E-03;  0.0000000E+00;
  3.4129028E+00;  9.9999998E-03;  4.0128741E-01;359;  2.6951158E-02;  0.0000000E+00;  2.0450181E-03;  9.9937181E+00;  4.0641260E-01; -5.6016505E-01;3;  2.2272058E-02;  0.0000000E+00;  1.6653159E-03;  0.0000000E+00;  0.0000000E+00;  0.0000000E+00;0;  2.8192051E-02;  9.7356949E+01;  0.0000000E+00;  3.0565738E-05;  1.0000000E+02;  0.0000000E+00;  9.9374252E+01;  2.3308858E-02;  0.0000000E+00;  4.8831929E-03;  0.0000000E+00;
  3.4132314E+00;  9.9999998E-03;  6.0190976E-01;360;  2.7470021E-02;  0.0000000E+00;  3.0908303E-03;  9.9936590E+00;  4.0646589E-01; -5.6542486E-01;3;  2.1633124E-02;  0.0000000E+00; -1.2342904E-03;  0.0000000E+00;  0.0000000E+00;  0.0000000E+00;0;  2.8399441E-02;  9.7336555E+01;  0.0000000E+00;  6.0423739E-05;  1.0000000E+02;  0.0000000E+00;  9.9367729E+01;  2.3509024E-02;  0.0000000E+00;  4.8904177E-03;  0.0000000E+00;
  3.4135971E+00;  9.9999998E-03;  8.0251175E-01;361;  2.8033655E-02;  0.0000000E+00;  4.3731197E-03;  9.9935360E+00;  4.0650421E-01; -5.7642466E-01;3;  2.0923615E-02;  0.0000000E+00; -9.8019977E-05;  0.0000000E+00;  0.0000000E+00;  0.0000000E+00;0;  2.9031293E-02;  9.7315025E+01;  0.0000000E+00;  7.6664510E-05;  1.0000000E+02;  0.0000000E+00;  9.9368286E+01;  2.3722660E-02;  0.0000000E+00;  5.3086337E-03;  0.0000000E+00;
  3.4138710E+00;  9.9999998E-03;  1.0031621E+00;362;  2.8481986E-02;  0.0000000E+00;  4.4325301E-03;  9.9936981E+00;  4.0656546E-01; -5.6196570E-01;3;  2.0147106E-02;  0.0000000E+00; -5.4947864E-03;  0.0000000E+00;  0.0000000E+00;  0.0000000E+00;0;  2.7878799E-02;  9.7296074E+01;  0.0000000E+00;  4.7824160E-05;  1.0000000E+02;  0.0000000E+00;  9.9361023E+01;  2.3913940E-02;  0.0000000E+00;  3.9648577E-03;  0.0000000E+00;
  3.6154866E+00;  9.9999998E-03; -6.1254307E-10;368;  3.1588752E-02;  0.0000000E+00;  2.4655400E-09;  9.9934683E+00;  4.0728191E-01; -5.8146656E-01;3;  2.7987940E-02;  0.0000000E+00; -9.1052101E-08;  0.0000000E+00;  0.0000000E+00;  0.0000000E+00;0;  3.1041749E-02;  9.7013748E+01;  0.0000000E+00;  2.4183642E-15;  1.0000000E+02;  0.0000000E+00;  9.9294846E+01;  2.5413465E-02;  0.0000000E+00;  5.6282831E-03;  0.0000000E+00;
  3.6156230E+00;  9.9999998E-03;  2.0058723E-01;369;  3.1824607E-02;  0.0000000E+00;  1.1014984E-03;  9.9934616E+00;  4.0729216E-01; -5.8210284E-01;3;  2.7932748E-02;  0.0000000E+00;  2.0357994E-03;  0.0000000E+00;  0.0000000E+00;  0.0000000E+00;0;  3.1065241E-02;  9.7007751E+01;  0.0000000E+00;  5.5722430E-06;  1.0000000E+02;  0.0000000E+00;  9.9295845E+01;  2.5454670E-02;  0.0000000E+00;  5.6105703E-03;  0.0000000E+00;
  3.6159365E+00;  9.9999998E-03;  4.0138853E-01;370;  3.2375652E-02;  0.0000000E+00;  2.5555624E-03;  9.9934216E+00;  4.0733656E-01; -5.8565712E-01;3;  2.7653547E-02;  0.0000000E+00;  2.9666945E-03;  0.0000000E+00;  0.0000000E+00;  0.0000000E+00;0;  3.1228121E-02;  9.6992081E+01;  0.0000000E+00;  2.4573699E-05;  1.0000000E+02;  0.0000000E+00;  9.9289680E+01;  2.5562169E-02;  0.0000000E+00;  5.6659528E-03;  0.0000000E+00;
  3.6162934E+00;  9.9999998E-03;  6.0216624E-01;371;  3.2994296E-02;  0.0000000E+00;  3.4580668E-03;  9.9934063E+00;  4.0740231E-01; -5.8698255E-01;3;  2.7079463E-02;  0.0000000E+00; -2.0903731E-03;  0.0000000E+00;  0.0000000E+00;  0.0000000E+00;0;  3.1223090E-02;  9.6971680E+01;  0.0000000E+00;  5.5397981E-05;  1.0000000E+02;  0.0000000E+00;  9.9278526E+01;  2.5703022E-02;  0.0000000E+00;  5.5200686E-03;  0.0000000E+00;
  3.6166911E+00;  9.9999998E-03;  8.0285484E-01;372;  3.3641532E-02;  0.0000000E+00;  4.8938799E-03;  9.9933176E+00;  4.0743443E-01; -5.9488767E-01;3;  2.6377911E-02;  0.0000000E+00;  1.3509870E-03;  0.0000000E+00;  0.0000000E+00;  0.0000000E+00;0;  3.1752631E-02;  9.6950966E+01;  0.0000000E+00;  7.7611148E-05;  1.0000000E+02;  0.0000000E+00;  9.9282028E+01;  2.5847163E-02;  0.0000000E+00;  5.9054676E-03;  0.0000000E+00;
  3.6170094E+00;  9.9999998E-03;  1.0036131E+00;373;  3.4173410E-02;  0.0000000E+00;  5.0178817E-03;  9.9934731E+00;  4.0750170E-01; -5.8103722E-01;3;  2.5606254E-02;  0.0000000E+00; -1.0861623E-02;  0.0000000E+00;  0.0000000E+00;  0.0000000E+00;0;  3.0416030E-02;  9.6932953E+01;  0.0000000E+00;  5.1684769E-05;  1.0000000E+02;  0.0000000E+00;  9.9270935E+01;  2.5973657E-02;  0.0000000E+00;  4.4423724E-03;  0.0000000E+00;
  3.8190033E+00;  9.9999998E-03; -3.8247394E-10;379;  3.7328452E-02;  0.0000000E+00;  1.7056774E-09;  9.9931602E+00;  4.0822569E-01; -6.0844225E-01;3;  3.3215798E-02;  0.0000000E+00; -6.6518140E-08;  0.0000000E+00;  0.0000000E+00;  0.0000000E+00;0;  3.3826411E-02;  9.6645035E+01;  0.0000000E+00;  9.7377470E-16;  1.0000000E+02;  0.0000000E+00;  9.9207611E+01;  2.7567871E-02;  0.0000000E+00;  6.2585403E-03;  0.0000000E+00;
  3.8191409E+00;  9.9999998E-03;  2.0046768E-01;380;  3.7561078E-02;  0.0000000E+00;  7.7673828E-04;  9.9931679E+00;  4.0823072E-01; -6.0775280E-01;3;  3.3225548E-02;  0.0000000E+00;  2.4459776E-03;  0.0000000E+00;  0.0000000E+00;  0.0000000E+00;0;  3.3786234E-02;  9.6637230E+01;  0.0000000E+00;  1.3524588E-06;  1.0000000E+02;  0.0000000E+00;  9.9213234E+01;  2.7598130E-02;  0.0000000E+00;  6.1881030E-03;  0.0000000E+00;
  3.8194096E+00;  9.9999998E-03;  4.0144476E-01;381;  3.8060173E-02;  0.0000000E+00;  2.9907720E-03;  9.9931116E+00;  4.0828040E-01; -6.1278963E-01;3;  3.3122245E-02;  0.0000000E+00;  5.2143699E-03;  0.0000000E+00;  0.0000000E+00;  0.0000000E+00;0;  3.4046967E-02;  9.6616615E+01;  0.0000000E+00;  1.1628152E-05;  1.0000000E+02;  0.0000000E+00;  9.9209129E+01;  2.7674839E-02;  0.0000000E+00;  6.3721277E-03;  0.0000000E+00;
  3.8196986E+00;  9.9999998E-03;  6.0242784E-01;382;  3.8605504E-02;  0.0000000E+00;  3.8228419E-03;  9.9931192E+00;  4.0837619E-01; -6.1209983E-01;3;  3.2763708E-02;  0.0000000E+00; -1.9309828E-03;  0.0000000E+00;  0.0000000E+00;  0.0000000E+00;0;  3.3896297E-02;  9.6589882E+01;  0.0000000E+00;  3.6964360E-05;  1.0000000E+02;  0.0000000E+00;  9.9190269E+01;  2.7770510E-02;  0.0000000E+00;  6.1257859E-03;  0.0000000E+00;
  3.8200223E+00;  9.9999998E-03;  8.0321580E-01;383;  3.9171163E-02;  0.0000000E+00;  5.4439730E-03;  9.9930363E+00;  4.0842322E-01; -6.1946958E-01;3;  3.2265320E-02;  0.0000000E+00;  2.0122428E-03;  0.0000000E+00;  0.0000000E+00;  0.0000000E+00;0;  3.4424346E-02;  9.6563057E+01;  0.0000000E+00;  6.0667404E-05;  1.0000000E+02;  0.0000000E+00;  9.9193001E+01;  2.7865924E-02;  0.0000000E+00;  6.5584215E-03;  0.0000000E+00;
  3.8203008E+00;  9.9999998E-03;  1.0040758E+00;384;  3.9650578E-02;  0.0000000E+00;  5.5591236E-03;  9.9932070E+00;  4.0851322E-01; -6.0430455E-01;3;  3.1713255E-02;  0.0000000E+00; -1.4442457E-02;  0.0000000E+00;  0.0000000E+00;  0.0000000E+00;0;  3.2849129E-02;  9.6538559E+01;  0.0000000E+00;  4.7914742E-05;  1.0000000E+02;  0.0000000E+00;  9.9178101E+01;  2.7956428E-02;  0.0000000E+00;  4.8927022E-03;  0.0000000E+00;
  4.0228744E+00;  9.9999998E-03; -8.5195212E-11;390;  4.3424278E-02;  0.0000000E+00;  9.7530650E-10;  9.9927855E+00;  4.0919533E-01; -6.4157856E-01;3;  3.8232740E-02;  0.0000000E+00; -6.1406702E-08;  0.0000000E+00;  0.0000000E+00;  0.0000000E+00;0;  3.6478922E-02;  9.6265701E+01;  0.0000000E+00;  1.0145777E-16;  1.0000000E+02;  0.0000000E+00;  9.9119339E+01;  2.9677330E-02;  0.0000000E+00;  6.8015931E-03;  0.0000000E+00;
  4.0229926E+00;  9.9999998E-03;  2.0040315E-01;391;  4.3577708E-02;  0.0000000E+00;  4.8300147E-04;  9.9928045E+00;  4.0919998E-01; -6.3988233E-01;3;  3.8225137E-02;  0.0000000E+00;  2.7283183E-03;  0.0000000E+00;  0.0000000E+00;  0.0000000E+00;0;  3.6384881E-02;  9.6254318E+01;  0.0000000E+00;  6.5072172E-08;  1.0000000E+02;  0.0000000E+00;  9.9129341E+01;  2.9701898E-02;  0.0000000E+00;  6.6829808E-03;  0.0000000E+00;
  4.0231533E+00;  9.9999998E-03;  4.0155759E-01;392;  4.3830622E-02;  0.0000000E+00;  3.2493512E-03;  9.9927397E+00;  4.0926582E-01; -6.4565980E-01;3;  3.8197566E-02;  0.0000000E+00;  7.4318848E-03;  0.0000000E+00;  0.0000000E+00;  0.0000000E+00;0;  3.6705997E-02;  9.6224190E+01;  0.0000000E+00;  7.8261182E-06;  1.0000000E+02;  0.0000000E+00;  9.9126930E+01;  2.9766260E-02;  0.0000000E+00;  6.9397371E-03;  0.0000000E+00;
  4.0232983E+00;  9.9999998E-03;  6.0272712E-01;393;  4.4102862E-02;  0.0000000E+00;  4.2817621E-03;  9.9927330E+00;  4.0940547E-01; -6.4624268E-01;3;  3.8104448E-02;  0.0000000E+00; -5.9500203E-04;  0.0000000E+00;  0.0000000E+00;  0.0000000E+00;0;  3.6617760E-02;  9.6184196E+01;  0.0000000E+00;  3.1362542E-05;  1.0000000E+02;  0.0000000E+00;  9.9100449E+01;  2.9851217E-02;  0.0000000E+00;  6.7665442E-03;  0.0000000E+00;
  4.0234685E+00;  9.9999998E-03;  8.0361176E-01;394;  4.4410840E-02;  0.0000000E+00;  6.0499506E-03;  9.9926243E+00;  4.0949348E-01; -6.5588957E-01;3;  3.7919927E-02;  0.0000000E+00;  2.2544605E-03;  0.0000000E+00;  0.0000000E+00;  0.0000000E+00;0;  3.7245784E-02;  9.6142448E+01;  0.0000000E+00;  5.1695100E-05;  1.0000000E+02;  0.0000000E+00;  9.9098747E+01;  2.9943684E-02;  0.0000000E+00;  7.3021008E-03;  0.0000000E+00;
  4.0236464E+00;  9.9999998E-03;  1.0045568E+00;395;  4.4698574E-02;  0.0000000E+00;  6.0912236E-03;  9.9928303E+00;  4.0962529E-01; -6.3760263E-01;3;  3.7716325E-02;  0.0000000E+00; -1.4508493E-02;  0.0000000E+00;  0.0000000E+00;  0.0000000E+00;0;  3.5436794E-02;  9.6102570E+01;  0.0000000E+00;  4.3061616E-05;  1.0000000E+02;  0.0000000E+00;  9.9080032E+01;  3.0047465E-02;  0.0000000E+00;  5.3893304E-03;  0.0000000E+00;
  4.2269020E+00;  9.9999998E-03;  3.0309152E-10;401;  4.9749874E-02;  0.0000000E+00;  7.2829374E-11;  9.9923277E+00;  4.1018274E-01; -6.8218517E-01;3;  4.2846650E-02;  0.0000000E+00; -6.4681991E-08;  0.0000000E+00;  0.0000000E+00;  0.0000000E+00;0;  3.8908139E-02;  9.5876534E+01;  0.0000000E+00;  1.8986449E-16;  1.0000000E+02;  0.0000000E+00;  9.9034157E+01;  3.1683654E-02;  0.0000000E+00;  7.2244834E-03;  0.0000000E+00;
  4.2269368E+00;  9.9999998E-03;  2.0054442E-01;402;  4.9709000E-02;  0.0000000E+00;  6.0656038E-04;  9.9923449E+00;  4.1019449E-01; -6.8064827E-01;3;  4.2734385E-02;  0.0000000E+00;  3.0948375E-03;  0.0000000E+00;  0.0000000E+00;  0.0000000E+00;0;  3.8815092E-02;  9.5861427E+01;  0.0000000E+00;  4.4790308E-06;  1.0000000E+02;  0.0000000E+00;  9.9044487E+01;  3.1708244E-02;  0.0000000E+00;  7.1068476E-03;  0.0000000E+00;
  4.2270231E+00;  9.9999998E-03;  4.0184253E-01;403;  4.9656190E-02;  0.0000000E+00;  3.3182043E-03;  9.9922886E+00;  4.1028920E-01; -6.8568301E-01;3;  4.2649224E-02;  0.0000000E+00;  8.4804082E-03;  0.0000000E+00;  0.0000000E+00;  0.0000000E+00;0;  3.9099302E-02;  9.5820221E+01;  0.0000000E+00; -1.8764292E-06;  1.0000000E+02;  0.0000000E+00;  9.9039978E+01;  3.1780094E-02;  0.0000000E+00;  7.3192073E-03;  0.0000000E+00;
  4.2270403E+00;  9.9999998E-03;  6.0307950E-01;404;  4.9580179E-02;  0.0000000E+00;  4.8588170E-03;  9.9922209E+00;  4.1046804E-01; -6.9167173E-01;3;  4.2771772E-02;  0.0000000E+00;  1.9988385E-03;  0.0000000E+00;  0.0000000E+00;  0.0000000E+00;0;  3.9320230E-02;  9.5763718E+01;  0.0000000E+00; -1.4448937E-05;  1.0000000E+02;  0.0000000E+00;  9.9010773E+01;  3.1887349E-02;  0.0000000E+00;  7.4328813E-03;  0.0000000E+00;
  4.2270432E+00;  9.9999998E-03;  8.0403048E-01;405;  4.9542475E-02;  0.0000000E+00;  6.6658775E-03;  9.9920807E+00;  4.1060925E-01; -7.0412618E-01;3;  4.2875201E-02;  0.0000000E+00;  2.1039420E-03;  0.0000000E+00;  0.0000000E+00;  0.0000000E+00;0;  4.0097035E-02;  9.5702965E+01;  0.0000000E+00;  1.1859794E-06;  1.0000000E+02;  0.0000000E+00;  9.9002495E+01;  3.2014500E-02;  0.0000000E+00;  8.0825342E-03;  0.0000000E+00;
  4.2271409E+00;  9.9999998E-03;  1.0050308E+00;406;  4.9602613E-02;  0.0000000E+00;  6.6161500E-03;  9.9923325E+00;  4.1078913E-01; -6.8176109E-01;3;  4.2993538E-02;  0.0000000E+00; -7.6659047E-03;  0.0000000E+00;  0.0000000E+00;  0.0000000E+00;0;  3.8117766E-02;  9.5644775E+01;  0.0000000E+00; -1.9209418E-05;  1.0000000E+02;  0.0000000E+00;  9.8981552E+01;  3.2153752E-02;  0.0000000E+00;  5.9640137E-03;  0.0000000E+00;
  4.4308405E+00;  9.9999998E-03; -1.0554930E-10;412;  5.5961307E-02;  0.0000000E+00; -2.0424413E-09;  9.9918308E+00;  4.1109306E-01; -7.2633725E-01;3;  4.6838403E-02;  0.0000000E+00; -7.7582435E-08;  0.0000000E+00;  0.0000000E+00;  0.0000000E+00;0;  4.0664513E-02;  9.5511673E+01;  0.0000000E+00;  9.3067560E-17;  1.0000000E+02;  0.0000000E+00;  9.8962463E+01;  3.3199567E-02;  0.0000000E+00;  7.4649449E-03;  0.0000000E+00;
  4.4308958E+00;  9.9999998E-03;  2.0098710E-01;413;  5.5894982E-02;  0.0000000E+00;  1.3939136E-03;  9.9918318E+00;  4.1112265E-01; -7.2623128E-01;3;  4.6703558E-02;  0.0000000E+00;  3.6021320E-03;  0.0000000E+00;  0.0000000E+00;  0.0000000E+00;0;  4.0658776E-02;  9.5494446E+01;  0.0000000E+00; -5.6683395E-05;  1.0000000E+02;  0.0000000E+00;  9.8966194E+01;  3.3227082E-02;  0.0000000E+00;  7.4316943E-03;  0.0000000E+00;
  4.4309921E+00;  9.9999998E-03;  4.0232247E-01;414;  5.5737313E-02;  0.0000000E+00;  3.1172547E-03;  9.9918118E+00;  4.1124991E-01; -7.2803307E-01;3;  4.6657551E-02;  0.0000000E+00;  7.5615048E-03;  0.0000000E+00;  0.0000000E+00;  0.0000000E+00;0;  4.0735371E-02;  9.5446770E+01;  0.0000000E+00; -2.3544661E-04;  1.0000000E+02;  0.0000000E+00;  9.8953972E+01;  3.3308905E-02;  0.0000000E+00;  7.4264649E-03;  0.0000000E+00;
  4.4310875E+00;  9.9999998E-03;  6.0342938E-01;415;  5.5600375E-02;  0.0000000E+00;  5.4247691E-03;  9.9916601E+00;  4.1143489E-01; -7.4149358E-01;3;  4.6949003E-02;  0.0000000E+00;  6.9639231E-03;  0.0000000E+00;  0.0000000E+00;  0.0000000E+00;0;  4.1436233E-02;  9.5378708E+01;  0.0000000E+00; -2.9947044E-04;  1.0000000E+02;  0.0000000E+00;  9.8932571E+01;  3.3439778E-02;  0.0000000E+00;  7.9964567E-03;  0.0000000E+00;
  4.4312463E+00;  9.9999998E-03;  8.0441070E-01;416;  5.5627100E-02;  0.0000000E+00;  7.0441742E-03;  9.9915161E+00;  4.1162357E-01; -7.5431812E-01;3;  4.7297943E-02;  0.0000000E+00;  7.2440626E-03;  0.0000000E+00;  0.0000000E+00;  0.0000000E+00;0;  4.2178009E-02;  9.5303902E+01;  0.0000000E+00; -8.1301769E-05;  1.0000000E+02;  0.0000000E+00;  9.8917061E+01;  3.3597831E-02;  0.0000000E+00;  8.5801771E-03;  0.0000000E+00;
  4.4315724E+00;  9.9999998E-03;  1.0054289E+00;417;  5.5844303E-02;  0.0000000E+00;  7.0925695E-03;  9.9917841E+00;  4.1182557E-01; -7.3047078E-01;3;  4.7703754E-02;  0.0000000E+00;  3.0397521E-03;  0.0000000E+00;  0.0000000E+00;  0.0000000E+00;0;  4.0353853E-02;  9.5234268E+01;  0.0000000E+00; -9.5607931E-05;  1.0000000E+02;  0.0000000E+00;  9.8897629E+01;  3.3743180E-02;  0.0000000E+00;  6.6106725E-03;  0.0000000E+00;
  4.6346030E+00;  9.9999998E-03; -7.4453627E-10;423;  6.1934553E-02;  0.0000000E+00; -4.2209440E-09;  9.9913931E+00;  4.1173190E-01; -7.6521266E-01;3;  5.0371174E-02;  0.0000000E+00; -8.9434252E-08;  0.0000000E+00;  0.0000000E+00;  0.0000000E+00;0;  4.1025639E-02;  9.5248672E+01;  0.0000000E+00;  5.0376146E-16;  1.0000000E+02;  0.0000000E+00;  9.8919388E+01;  3.3575032E-02;  0.0000000E+00;  7.4506067E-03;  0.0000000E+00;
  4.6348386E+00;  9.9999998E-03;  2.0163274E-01;424;  6.2135488E-02;  0.0000000E+00;  2.6064583E-03;  9.9913616E+00;  4.1178629E-01; -7.6802129E-01;3;  5.0389234E-02;  0.0000000E+00;  3.9216261E-03;  0.0000000E+00;  0.0000000E+00;  0.0000000E+00;0;  4.1172165E-02;  9.5232697E+01;  0.0000000E+00; -3.0747949E-04;  1.0000000E+02;  0.0000000E+00;  9.8909386E+01;  3.3601031E-02;  0.0000000E+00;  7.5711347E-03;  0.0000000E+00;
  4.6354451E+00;  9.9999998E-03;  4.0276125E-01;425;  6.2733859E-02;  0.0000000E+00;  2.8841996E-03;  9.9913921E+00;  4.1192120E-01; -7.6531863E-01;3;  5.0642040E-02;  0.0000000E+00;  6.4562554E-03;  0.0000000E+00;  0.0000000E+00;  0.0000000E+00;0;  4.0984258E-02;  9.5186951E+01;  0.0000000E+00; -8.9460623E-04;  1.0000000E+02;  0.0000000E+00;  9.8892830E+01;  3.3675928E-02;  0.0000000E+00;  7.3083285E-03;  0.0000000E+00;
  4.6362333E+00;  9.9999998E-03;  6.0365731E-01;426;  6.3445255E-02;  0.0000000E+00;  5.5828020E-03;  9.9912033E+00;  4.1207832E-01; -7.8206414E-01;3;  5.0948359E-02;  0.0000000E+00;  1.3887413E-02;  0.0000000E+00;  0.0000000E+00;  0.0000000E+00;0;  4.1929659E-02;  9.5119072E+01;  0.0000000E+00; -1.0798017E-03;  1.0000000E+02;  0.0000000E+00;  9.8884201E+01;  3.3789918E-02;  0.0000000E+00;  8.1397416E-03;  0.0000000E+00;
  4.6373477E+00;  9.9999998E-03;  8.0465925E-01;427;  6.4707659E-02;  0.0000000E+00;  6.9845300E-03;  9.9910603E+00;  4.1229501E-01; -7.9478228E-01;3;  5.1868062E-02;  0.0000000E+00;  1.0423065E-02;  0.0000000E+00;  0.0000000E+00;  0.0000000E+00;0;  4.2513717E-02;  9.5039970E+01;  0.0000000E+00; -7.0370926E-04;  1.0000000E+02;  0.0000000E+00;  9.8860100E+01;  3.3943970E-02;  0.0000000E+00;  8.5697481E-03;  0.0000000E+00;
  4.6384683E+00;  9.9999998E-03;  1.0056638E+00;428;  6.5960929E-02;  0.0000000E+00;  7.5530615E-03;  9.9912596E+00;  4.1249040E-01; -7.7708268E-01;3;  5.2552063E-02;  0.0000000E+00;  1.9357806E-02;  0.0000000E+00;  0.0000000E+00;  0.0000000E+00;0;  4.1512195E-02;  9.4965851E+01;  0.0000000E+00;  7.8050554E-04;  1.0000000E+02;  0.0000000E+00;  9.8847237E+01;  3.4076840E-02;  0.0000000E+00;  7.4353558E-03;  0.0000000E+00;
  4.8390608E+00;  9.9999998E-03; -1.8315505E-09;434;  6.8936281E-02;  0.0000000E+00; -5.8859602E-09;  9.9911051E+00;  4.1187778E-01; -7.9079789E-01;3;  5.4050799E-02;  0.0000000E+00; -1.0018994E-07;  0.0000000E+00;  0.0000000E+00;  0.0000000E+00;0;  3.9413497E-02;  9.5178238E+01;  0.0000000E+00;  1.0600617E-15;  1.0000000E+02;  0.0000000E+00;  9.8916786E+01;  3.2271512E-02;  0.0000000E+00;  7.1419845E-03;  0.0000000E+00;
  4.8395815E+00;  9.9999998E-03;  2.0208229E-01;435;  6.9642521E-02;  0.0000000E+00;  2.9525179E-03;  9.9910545E+00;  4.1195077E-01; -7.9530209E-01;3;  5.4571051E-02;  0.0000000E+00;  3.4231998E-03;  0.0000000E+00;  0.0000000E+00;  0.0000000E+00;0;  3.9620623E-02;  9.5166580E+01;  0.0000000E+00; -4.3901402E-04;  1.0000000E+02;  0.0000000E+00;  9.8892960E+01;  3.2285135E-02;  0.0000000E+00;  7.3354882E-03;  0.0000000E+00;
  4.8410878E+00;  9.9999998E-03;  4.0292957E-01;436;  7.1666323E-02;  0.0000000E+00;  2.9473554E-03;  9.9910831E+00;  4.1206980E-01; -7.9275846E-01;3;  5.5197980E-02;  0.0000000E+00;  4.3355399E-03;  0.0000000E+00;  0.0000000E+00;  0.0000000E+00;0;  3.9443854E-02;  9.5128387E+01;  0.0000000E+00; -1.7388015E-03;  1.0000000E+02;  0.0000000E+00;  9.8876175E+01;  3.2354228E-02;  0.0000000E+00;  7.0896251E-03;  0.0000000E+00;
  4.8433151E+00;  9.9999998E-03;  6.0367459E-01;437;  7.4245028E-02;  0.0000000E+00;  5.0592180E-03;  9.9909382E+00;  4.1221124E-01; -8.0563545E-01;3;  5.4568406E-02;  0.0000000E+00;  1.8269036E-02;  0.0000000E+00;  0.0000000E+00;  0.0000000E+00;0;  4.0154699E-02;  9.5059784E+01;  0.0000000E+00; -4.3789069E-03;  1.0000000E+02;  0.0000000E+00;  9.8876938E+01;  3.2502562E-02;  0.0000000E+00;  7.6521384E-03;  0.0000000E+00;
  4.8463335E+00;  9.9999998E-03;  8.0470383E-01;438;  7.8362495E-02;  0.0000000E+00;  6.3868873E-03;  9.9907455E+00;  4.1249955E-01; -8.2275170E-01;3;  5.6893360E-02;  0.0000000E+00;  1.4988224E-02;  0.0000000E+00;  0.0000000E+00;  0.0000000E+00;0;  4.0800430E-02;  9.4955124E+01;  0.0000000E+00; -5.6961877E-03;  1.0000000E+02;  0.0000000E+00;  9.8843887E+01;  3.2879435E-02;  0.0000000E+00;  7.9209954E-03;  0.0000000E+00;
  4.8488536E+00;  9.9999998E-03;  1.0057187E+00;439;  8.1399649E-02;  0.0000000E+00;  7.8793149E-03;  9.9906540E+00;  4.1279271E-01; -8.3091241E-01;3;  5.6192704E-02;  0.0000000E+00;  3.3486456E-02;  0.0000000E+00;  0.0000000E+00;  0.0000000E+00;0;  4.1631795E-02;  9.4835686E+01;  0.0000000E+00;  1.2393356E-02;  1.0000000E+02;  0.0000000E+00;  9.8826660E+01;  3.3356920E-02;  0.0000000E+00;  8.2748746E-03;  0.0000000E+00;
  5.0455537E+00;  9.9999998E-03; -9.3157038E-10;445;  7.8722082E-02;  0.0000000E+00; -2.2004090E-09;  9.9909477E+00;  4.1143775E-01; -8.0478311E-01;3;  5.7603497E-02;  0.0000000E+00; -9.4616553E-08;  0.0000000E+00;  0.0000000E+00;  0.0000000E+00;0;  3.5945892E-02;  9.5338661E+01;  0.0000000E+00;  9.3398226E-16;  1.0000000E+02;  0.0000000E+00;  9.8958603E+01;  2.9387018E-02;  0.0000000E+00;  6.5588728E-03;  0.0000000E+00;
  5.0464211E+00;  9.9999998E-03;  2.0197500E-01;446;  8.0216780E-02;  0.0000000E+00;  2.5655655E-03;  9.9908638E+00;  4.1152903E-01; -8.1225491E-01;3;  5.9509955E-02;  0.0000000E+00;  2.2518921E-03;  0.0000000E+00;  0.0000000E+00;  0.0000000E+00;0;  3.6257483E-02;  9.5322800E+01;  0.0000000E+00; -5.4228172E-04;  1.0000000E+02;  0.0000000E+00;  9.8929939E+01;  2.9497445E-02;  0.0000000E+00;  6.7600398E-03;  0.0000000E+00;
  5.0487337E+00;  9.9999998E-03;  4.0262872E-01;447;  8.3170436E-02;  0.0000000E+00;  2.6807729E-03;  9.9908142E+00;  4.1167000E-01; -8.1665307E-01;3;  5.8541499E-02;  0.0000000E+00;  6.7417994E-03;  0.0000000E+00;  0.0000000E+00;  0.0000000E+00;0;  3.6388256E-02;  9.5265182E+01;  0.0000000E+00; -4.4773920E-03;  1.0000000E+02;  0.0000000E+00;  9.8920967E+01;  2.9822432E-02;  0.0000000E+00;  6.5658223E-03;  0.0000000E+00;
  5.0518637E+00;  9.9999998E-03;  6.0347360E-01;448;  8.4517591E-02;  0.0000000E+00;  4.2697950E-03;  9.9906950E+00;  4.1193837E-01; -8.2725143E-01;3;  5.3077176E-02;  0.0000000E+00;  2.6394498E-02;  0.0000000E+00;  0.0000000E+00;  0.0000000E+00;0;  3.6928631E-02;  9.5148346E+01;  0.0000000E+00; -1.5149258E-02;  1.0000000E+02;  0.0000000E+00;  9.8911400E+01;  3.0076586E-02;  0.0000000E+00;  6.8520466E-03;  0.0000000E+00;
  5.0531235E+00;  9.9999998E-03;  8.0446398E-01;449;  8.2691103E-02;  0.0000000E+00;  5.6069652E-03;  9.9907427E+00;  4.1218749E-01; -8.2301205E-01;3;  4.5707397E-02;  0.0000000E+00;  3.0365245E-02;  0.0000000E+00;  0.0000000E+00;  0.0000000E+00;0;  3.6786959E-02;  9.5056923E+01;  0.0000000E+00; -8.6901486E-03;  1.0000000E+02;  0.0000000E+00;  9.8888115E+01;  2.9727085E-02;  0.0000000E+00;  7.0598754E-03;  0.0000000E+00;
  5.0534444E+00;  9.9999998E-03;  1.0055057E+00;450;  8.1930153E-02;  0.0000000E+00;  7.4902801E-03;  9.9906778E+00;  4.1240862E-01; -8.2878816E-01;3;  4.1576441E-02;  0.0000000E+00;  4.6729758E-02;  0.0000000E+00;  0.0000000E+00;  0.0000000E+00;0;  3.7675027E-02;  9.4977440E+01;  0.0000000E+00;  3.5899356E-02;  1.0000000E+02;  0.0000000E+00;  9.8863586E+01;  2.9599041E-02;  0.0000000E+00;  8.0759861E-03;  0.0000000E+00;
  5.2543874E+00;  9.9999998E-03;  3.9674508E-09;456;  8.9904167E-02;  0.0000000E+00;  1.2851601E-08;  9.9905081E+00;  4.1073430E-01; -8.4388876E-01;3;  5.2798960E-02;  0.0000000E+00; -8.9145033E-08;  0.0000000E+00;  0.0000000E+00;  0.0000000E+00;0;  3.2149024E-02;  9.5580063E+01;  0.0000000E+00;  8.3569091E-16;  1.0000000E+02;  0.0000000E+00;  9.9038971E+01;  2.6378075E-02;  0.0000000E+00;  5.7709506E-03;  0.0000000E+00;
  5.2548156E+00;  9.9999998E-03;  2.0105454E-01;457;  8.9263186E-02;  0.0000000E+00;  1.4944881E-03;  9.9904947E+00;  4.1079912E-01; -8.4505457E-01;3;  4.9400248E-02;  0.0000000E+00;  6.1031072E-03;  0.0000000E+00;  0.0000000E+00;  0.0000000E+00;0;  3.2172423E-02;  9.5556190E+01;  0.0000000E+00; -1.7160045E-03;  1.0000000E+02;  0.0000000E+00;  9.9032509E+01;  2.6303137E-02;  0.0000000E+00;  5.8692875E-03;  0.0000000E+00;
  5.2554340E+00;  9.9999998E-03;  4.0208772E-01;458;  8.7919883E-02;  0.0000000E+00;  2.6951332E-03;  9.9905090E+00;  4.1093358E-01; -8.4378272E-01;3;  5.0541099E-02;  0.0000000E+00;  1.6591372E-02;  0.0000000E+00;  0.0000000E+00;  0.0000000E+00;0;  3.2168303E-02;  9.5513008E+01;  0.0000000E+00; -8.3909174E-03;  1.0000000E+02;  0.0000000E+00;  9.9012657E+01;  2.6098484E-02;  0.0000000E+00;  6.0698185E-03;  0.0000000E+00;
  5.2559156E+00;  9.9999998E-03;  6.0306972E-01;459;  8.6855136E-02;  0.0000000E+00;  3.0881541E-03;  9.9907465E+00;  4.1107899E-01; -8.2269216E-01;3;  5.3368442E-02;  0.0000000E+00;  2.6142202E-02;  0.0000000E+00;  0.0000000E+00;  0.0000000E+00;0;  3.1463847E-02;  9.5473358E+01;  0.0000000E+00; -1.4900696E-02;  1.0000000E+02;  0.0000000E+00;  9.8988716E+01;  2.5853861E-02;  0.0000000E+00;  5.6099868E-03;  0.0000000E+00;
  5.2562757E+00;  9.9999998E-03;  8.0403692E-01;460;  8.5786037E-02;  0.0000000E+00;  4.5660404E-03;  9.9907007E+00;  4.1120628E-01; -8.2677245E-01;3;  4.5859154E-02;  0.0000000E+00;  2.1350930E-02;  0.0000000E+00;  0.0000000E+00;  0.0000000E+00;0;  3.1344436E-02;  9.5428482E+01;  0.0000000E+00;  2.8156715E-03;  1.0000000E+02;  0.0000000E+00;  9.8972893E+01;  2.5464803E-02;  0.0000000E+00;  5.8796322E-03;  0.0000000E+00;
  5.2548623E+00;  9.9999998E-03;  1.0049844E+00;461;  8.1758060E-02;  0.0000000E+00;  5.6621088E-03;  9.9914751E+00;  4.1103411E-01; -7.5788361E-01;3;  3.9892148E-02;  0.0000000E+00;  3.6392596E-02;  0.0000000E+00;  0.0000000E+00;  0.0000000E+00;0;  2.9001927E-02;  9.5522278E+01;  0.0000000E+00;  5.0862055E-02;  1.0000000E+02;  0.0000000E+00;  9.8974037E+01;  2.3395525E-02;  0.0000000E+00;  5.6064022E-03;  0.0000000E+00;
  5.4575534E+00;  9.9999998E-03; -2.3461795E-09;467;  9.1006175E-02;  0.0000000E+00;  1.4239047E-09;  9.9901876E+00;  4.0946606E-01; -8.7234420E-01;3;  4.2464022E-02;  0.0000000E+00; -1.2993114E-06;  0.0000000E+00;  0.0000000E+00;  0.0000000E+00;0;  2.6719127E-02;  9.6066269E+01;  0.0000000E+00; -1.2970418E-15;  1.0000000E+02;  0.0000000E+00;  9.9143120E+01;  2.1809883E-02;  0.0000000E+00;  4.9092430E-03;  0.0000000E+00;
  5.4577084E+00;  9.9999998E-03;  2.0050694E-01;468;  9.0303995E-02;  0.0000000E+00;  1.3308461E-04;  9.9903164E+00;  4.0947482E-01; -8.6089802E-01;3;  3.4685083E-02;  0.0000000E+00;  2.6340540E-03;  0.0000000E+00;  0.0000000E+00;  0.0000000E+00;0;  2.6289094E-02;  9.6055824E+01;  0.0000000E+00; -9.1256707E-06;  1.0000000E+02;  0.0000000E+00;  9.9152031E+01;  2.1526480E-02;  0.0000000E+00;  4.7626141E-03;  0.0000000E+00;
  5.4581747E+00;  9.9999998E-03;  4.0146017E-01;469;  8.9097477E-02;  0.0000000E+00;  1.5845463E-03;  9.9905100E+00;  4.0957478E-01; -8.4372884E-01;3;  3.7374105E-02;  0.0000000E+00;  2.0171311E-02;  0.0000000E+00;  0.0000000E+00;  0.0000000E+00;0;  2.5883980E-02;  9.6022026E+01;  0.0000000E+00; -3.9296504E-03;  1.0000000E+02;  0.0000000E+00;  9.9142548E+01;  2.0967387E-02;  0.0000000E+00;  4.9165925E-03;  0.0000000E+00;
  5.4589787E+00;  9.9999998E-03;  6.0249472E-01;470;  8.8817030E-02;  0.0000000E+00;  2.6597201E-03;  9.9905605E+00;  4.0980628E-01; -8.3922458E-01;3;  3.5871003E-02;  0.0000000E+00;  2.6085760E-02;  0.0000000E+00;  0.0000000E+00;  0.0000000E+00;0;  2.5844153E-02;  9.5943169E+01;  0.0000000E+00; -6.6756406E-03;  1.0000000E+02;  0.0000000E+00;  9.9113029E+01;  2.0873053E-02;  0.0000000E+00;  4.9710996E-03;  0.0000000E+00;
  5.4596725E+00;  9.9999998E-03;  8.0349463E-01;471;  8.9284942E-02;  0.0000000E+00;  3.4256813E-03;  9.9905291E+00;  4.1013613E-01; -8.4203309E-01;3;  8.0210427E-03;  0.0000000E+00;  5.1460262E-02;  0.0000000E+00;  0.0000000E+00;  0.0000000E+00;0;  2.6042424E-02;  9.5817055E+01;  0.0000000E+00;  3.4573954E-02;  1.0000000E+02;  0.0000000E+00;  9.9083694E+01;  2.1578360E-02;  0.0000000E+00;  4.4640638E-03;  0.0000000E+00;
  5.4559560E+00;  9.9999998E-03;  1.0040206E+00;472;  8.4342986E-02;  0.0000000E+00;  4.5556119E-03;  9.9920654E+00;  4.0869001E-01; -7.0542133E-01;3;  8.4478585E-03;  0.0000000E+00;  6.0371663E-02;  0.0000000E+00;  0.0000000E+00;  0.0000000E+00;0;  2.1936417E-02;  9.6408409E+01;  0.0000000E+00;  3.4062609E-02;  1.0000000E+02;  0.0000000E+00;  9.9203918E+01;  1.7528597E-02;  0.0000000E+00;  4.4078198E-03;  0.0000000E+00;
  5.6598454E+00;  9.9999998E-03; -6.0949281E-09;477;  9.2065565E-02;  0.0000000E+00; -3.6278603E-08;  9.9892921E+00;  4.0788278E-01; -9.5198983E-01;3;  4.5806826E-03;  0.0000000E+00;  2.9476359E-07;  0.0000000E+00;  0.0000000E+00;  0.0000000E+00;0;  2.1112250E-02;  9.6682251E+01;  0.0000000E+00; -3.5809715E-15;  1.0000000E+02;  0.0000000E+00;  9.9260544E+01;  1.7062213E-02;  0.0000000E+00;  4.0500364E-03;  0.0000000E+00;
  5.6598492E+00;  9.9999998E-03;  2.0023572E-01;478;  9.1517583E-02;  0.0000000E+00; -1.3207832E-04;  9.9896135E+00;  4.0782261E-01; -9.2342752E-01;3;  1.1408083E-02;  0.0000000E+00;  3.5379548E-04;  0.0000000E+00;  0.0000000E+00;  0.0000000E+00;0;  2.0450832E-02;  9.6698769E+01;  0.0000000E+00;  7.6110859E-04;  1.0000000E+02;  0.0000000E+00;  9.9278877E+01;  1.6601924E-02;  0.0000000E+00;  3.8489080E-03;  0.0000000E+00;
  5.6599650E+00;  9.9999998E-03;  4.0080115E-01;479;  8.9559190E-02;  0.0000000E+00;  6.9973659E-04;  9.9905777E+00;  4.0774474E-01; -8.3768749E-01;3;  1.8229919E-02;  0.0000000E+00;  1.8221913E-02;  0.0000000E+00;  0.0000000E+00;  0.0000000E+00;0;  1.8456709E-02;  9.6725357E+01;  0.0000000E+00;  3.5609771E-04;  1.0000000E+02;  0.0000000E+00;  9.9308922E+01;  1.4730405E-02;  0.0000000E+00;  3.7263045E-03;  0.0000000E+00;
  5.6607866E+00;  9.9999998E-03;  6.0179073E-01;480;  9.0885468E-02;  0.0000000E+00;  1.1730129E-03;  9.9899435E+00;  4.0803605E-01; -8.9407027E-01;3; -4.4052280E-03;  0.0000000E+00;  3.5187207E-02;  0.0000000E+00;  0.0000000E+00;  0.0000000E+00;0;  1.9465029E-02;  9.6599091E+01;  0.0000000E+00;  9.3916524E-03;  1.0000000E+02;  0.0000000E+00;  9.9284302E+01;  1.6373876E-02;  0.0000000E+00;  3.0911523E-03;  0.0000000E+00;
  5.6594243E+00;  9.9999998E-03;  8.0238706E-01;481;  8.8517539E-02;  0.0000000E+00;  2.3432237E-03;  9.9916325E+00;  4.0731189E-01; -7.4389273E-01;3;  7.1691801E-03;  0.0000000E+00;  5.6845218E-02;  0.0000000E+00;  0.0000000E+00;  0.0000000E+00;0;  1.7125133E-02;  9.6903030E+01;  0.0000000E+00;  2.9186543E-02;  1.0000000E+02;  0.0000000E+00;  9.9358322E+01;  1.4009676E-02;  0.0000000E+00;  3.1154577E-03;  0.0000000E+00;
  5.8612409E+00;  9.9999998E-03; -6.9384204E-10;485;  9.2745833E-02;  0.0000000E+00; -7.2162525E-09;  9.9865637E+00;  4.0593758E-01; -1.1945311E+00;3; -4.9877558E-03;  0.0000000E+00; -2.5518239E-07;  0.0000000E+00;  0.0000000E+00;  0.0000000E+00;0;  1.5560475E-02;  9.7438889E+01;  0.0000000E+00;  6.2196833E-15;  1.0000000E+02;  0.0000000E+00;  9.9382004E+01;  1.2307236E-02;  0.0000000E+00;  3.2532392E-03;  0.0000000E+00;
  5.8612056E+00;  9.9999998E-03;  1.9998409E-01;486;  9.2324033E-02;  0.0000000E+00; -3.1166169E-04;  9.9870577E+00;  4.0582979E-01; -1.1506542E+00;3; -5.3110626E-03;  0.0000000E+00;  5.6037586E-04;  0.0000000E+00;  0.0000000E+00;  0.0000000E+00;0;  1.4783137E-02;  9.7468178E+01;  0.0000000E+00; -1.2266588E-03;  1.0000000E+02;  0.0000000E+00;  9.9414909E+01;  1.1793622E-02;  0.0000000E+00;  2.9895157E-03;  0.0000000E+00;
  5.8608227E+00;  9.9999998E-03;  4.0017948E-01;487;  9.0839140E-02;  0.0000000E+00;  1.0911026E-04;  9.9892273E+00;  4.0543002E-01; -9.5776570E-01;3;  6.9554425E-03;  0.0000000E+00;  5.1531424E-03;  0.0000000E+00;  0.0000000E+00;  0.0000000E+00;0;  1.2538470E-02;  9.7620270E+01;  0.0000000E+00; -7.1365512E-03;  1.0000000E+02;  0.0000000E+00;  9.9498589E+01;  9.8801516E-03;  0.0000000E+00;  2.6583192E-03;  0.0000000E+00;
  5.8606372E+00;  9.9999998E-03;  6.0084319E-01;488;  9.0582743E-02;  0.0000000E+00;  1.2931442E-03;  9.9893513E+00;  4.0519598E-01; -9.4674349E-01;3; -1.0605976E-03;  0.0000000E+00;  2.9091356E-02;  0.0000000E+00;  0.0000000E+00;  0.0000000E+00;0;  1.3013981E-02;  9.7695862E+01;  0.0000000E+00; -7.8186514E-03;  1.0000000E+02;  0.0000000E+00;  9.9538719E+01;  9.9793244E-03;  0.0000000E+00;  3.0346569E-03;  0.0000000E+00;
  6.0616837E+00;  9.9999998E-03;  1.7949611E-09;491;  9.2933379E-02;  0.0000000E+00;  1.5780566E-08;  9.9743395E+00;  4.0335697E-01; -2.2813303E+00;3; -1.9556379E-02;  0.0000000E+00; -1.3783574E-07;  0.0000000E+00;  0.0000000E+00;  0.0000000E+00;0;  1.0415058E-02;  9.8333954E+01;  0.0000000E+00; -1.2620856E-15;  1.0000000E+02;  0.0000000E+00;  9.9498627E+01;  7.8593325E-03;  0.0000000E+00;  2.5557249E-03;  0.0000000E+00;
  6.0614328E+00;  9.9999998E-03;  1.9954988E-01;492;  9.2211746E-02;  0.0000000E+00; -7.5795886E-04;  9.9776545E+00;  4.0316901E-01; -1.9866456E+00;3; -4.3387008E-03;  0.0000000E+00;  8.4005110E-04;  0.0000000E+00;  0.0000000E+00;  0.0000000E+00;0;  8.8341888E-03;  9.8417648E+01;  0.0000000E+00; -1.3686757E-02;  1.0000000E+02;  0.0000000E+00;  9.9572067E+01;  6.7736725E-03;  0.0000000E+00;  2.0605158E-03;  0.0000000E+00;
  6.0609703E+00;  9.9999998E-03;  3.9977458E-01;493;  9.1127977E-02;  0.0000000E+00;  1.8754856E-04;  9.9805622E+00;  4.0279996E-01; -1.7281008E+00;3; -5.0938237E-03;  0.0000000E+00;  7.2556343E-03;  0.0000000E+00;  0.0000000E+00;  0.0000000E+00;0;  7.6409327E-03;  9.8559555E+01;  0.0000000E+00; -4.0874105E-02;  1.0000000E+02;  0.0000000E+00;  9.9668686E+01;  5.4226113E-03;  0.0000000E+00;  2.2183212E-03;  0.0000000E+00;
