TimeStep;Np;Nbound;Nfixed;Nmoving;Nfloat;Nfluid
0;494;165;165;0;0;329

Pos.x;Pos.y;Pos.z;Idp;Vel.x;Vel.y;Vel.z;Rhop;Mass;Press;Type;Acec.x;Acec.y;Acec.z;AceVisc.x;AceVisc.y;AceVisc.z;CellOffSpring;GradVel;Qfxx;Qfxy;Qfxz;Qfyy;Qfyz;Qfzz;StrainDot.x;StrainDot.y;StrainDot.z;VonMises3D;
 -1.0000000E+00;  9.9999998E-03; -2.0000000E+00;0;  0.0000000E+00;  0.0000000E+00;  0.0000000E+00;  1.0000000E+01;  4.0000001E-01;  0.0000000E+00;0;  0.0000000E+00;  0.0000000E+00;  0.0000000E+00;  0.0000000E+00;  0.0000000E+00;  0.0000000E+00;0;  0.0000000E+00;  1.0000000E+02;  0.0000000E+00;  0.0000000E+00;  1.0000000E+02;  0.0000000E+00;  1.0000000E+02;  0.0000000E+00;  0.0000000E+00;  0.0000000E+00;  0.0000000E+00;
 -8.0000001E-01;  9.9999998E-03; -2.0000000E+00;21;  0.0000000E+00;  0.0000000E+00;  0.0000000E+00;  1.0000000E+01;  4.0000001E-01;  0.0000000E+00;0;  0.0000000E+00;  0.0000000E+00;  0.0000000E+00;  0.0000000E+00;  0.0000000E+00;  0.0000000E+00;0;  0.0000000E+00;  1.0000000E+02;  0.0000000E+00;  0.0000000E+00;  1.0000000E+02;  0.0000000E+00;  1.0000000E+02;  0.0000000E+00;  0.0000000E+00;  0.0000000E+00;  0.0000000E+00;
 -6.0000002E-01;  9.9999998E-03; -2.0000000E+00;42;  0.0000000E+00;  0.0000000E+00;  0.0000000E+00;  1.0000000E+01;  4.0000001E-01;  0.0000000E+00;0;  0.0000000E+00;  0.0000000E+00;  0.0000000E+00;  0.0000000E+00;  0.0000000E+00;  0.0000000E+00;0;  0.0000000E+00;  1.0000000E+02;  0.0000000E+00;  0.0000000E+00;  1.0000000E+02;  0.0000000E+00;  1.0000000E+02;  0.0000000E+00;  0.0000000E+00;  0.0000000E+00;  0.0000000E+00;
 -4.0000001E-01;  9.9999998E-03; -2.0000000E+00;63;  0.0000000E+00;  0.0000000E+00;  0.0000000E+00;  1.0000000E+01;  4.0000001E-01;  0.0000000E+00;0;  0.0000000E+00;  0.0000000E+00;  0.0000000E+00;  0.0000000E+00;  0.0000000E+00;  0.0000000E+00;0;  0.0000000E+00;  1.0000000E+02;  0.0000000E+00;  0.0000000E+00;  1.0000000E+02;  0.0000000E+00;  1.0000000E+02;  0.0000000E+00;  0.0000000E+00;  0.0000000E+00;  0.0000000E+00;
 -2.0000000E-01;  9.9999998E-03; -2.0000000E+00;84;  0.0000000E+00;  0.0000000E+00;  0.0000000E+00;  1.0000000E+01;  4.0000001E-01;  0.0000000E+00;0;  0.0000000E+00;  0.0000000E+00;  0.0000000E+00;  0.0000000E+00;  0.0000000E+00;  0.0000000E+00;0;  0.0000000E+00;  1.0000000E+02;  0.0000000E+00;  0.0000000E+00;  1.0000000E+02;  0.0000000E+00;  1.0000000E+02;  0.0000000E+00;  0.0000000E+00;  0.0000000E+00;  0.0000000E+00;
  0.0000000E+00;  9.9999998E-03; -2.0000000E+00;105;  0.0000000E+00;  0.0000000E+00;  0.0000000E+00;  1.0000000E+01;  4.0000001E-01;  0.0000000E+00;0;  0.0000000E+00;  0.0000000E+00;  0.0000000E+00;  0.0000000E+00;  0.0000000E+00;  0.0000000E+00;0;  0.0000000E+00;  1.0000000E+02;  0.0000000E+00;  0.0000000E+00;  1.0000000E+02;  0.0000000E+00;  1.0000000E+02;  0.0000000E+00;  0.0000000E+00;  0.0000000E+00;  0.0000000E+00;
  2.0000000E-01;  9.9999998E-03; -2.0000000E+00;115;  0.0000000E+00;  0.0000000E+00;  0.0000000E+00;  1.0000000E+01;  4.0000001E-01;  0.0000000E+00;0;  0.0000000E+00;  0.0000000E+00;  0.0000000E+00;  0.0000000E+00;  0.0000000E+00;  0.0000000E+00;0;  0.0000000E+00;  1.0000000E+02;  0.0000000E+00;  0.0000000E+00;  1.0000000E+02;  0.0000000E+00;  1.0000000E+02;  0.0000000E+00;  0.0000000E+00;  0.0000000E+00;  0.0000000E+00;
  4.0000001E-01;  9.9999998E-03; -2.0000000E+00;125;  0.0000000E+00;  0.0000000E+00;  0.0000000E+00;  1.0000000E+01;  4.0000001E-01;  0.0000000E+00;0;  0.0000000E+00;  0.0000000E+00;  0.0000000E+00;  0.0000000E+00;  0.0000000E+00;  0.0000000E+00;0;  0.0000000E+00;  1.0000000E+02;  0.0000000E+00;  0.0000000E+00;  1.0000000E+02;  0.0000000E+00;  1.0000000E+02;  0.0000000E+00;  0.0000000E+00;  0.0000000E+00;  0.0000000E+00;
  6.0000002E-01;  9.9999998E-03; -2.0000000E+00;135;  0.0000000E+00;  0.0000000E+00;  0.0000000E+00;  1.0000000E+01;  4.0000001E-01;  0.0000000E+00;0;  0.0000000E+00;  0.0000000E+00;  0.0000000E+00;  0.0000000E+00;  0.0000000E+00;  0.0000000E+00;0;  0.0000000E+00;  1.0000000E+02;  0.0000000E+00;  0.0000000E+00;  1.0000000E+02;  0.0000000E+00;  1.0000000E+02;  0.0000000E+00;  0.0000000E+00;  0.0000000E+00;  0.0000000E+00;
  8.0000001E-01;  9.9999998E-03; -2.0000000E+00;145;  0.0000000E+00;  0.0000000E+00;  0.0000000E+00;  1.0000000E+01;  4.0000001E-01;  0.0000000E+00;0;  0.0000000E+00;  0.0000000E+00;  0.0000000E+00;  0.0000000E+00;  0.0000000E+00;  0.0000000E+00;0;  0.0000000E+00;  1.0000000E+02;  0.0000000E+00;  0.0000000E+00;  1.0000000E+02;  0.0000000E+00;  1.0000000E+02;  0.0000000E+00;  0.0000000E+00;  0.0000000E+00;  0.0000000E+00;
  1.0000000E+00;  9.9999998E-03; -2.0000000E+00;155;  0.0000000E+00;  0.0000000E+00;  0.0000000E+00;  1.0000000E+01;  4.0000001E-01;  0.0000000E+00;0;  0.0000000E+00;  0.0000000E+00;  0.0000000E+00;  0.0000000E+00;  0.0000000E+00;  0.0000000E+00;0;  0.0000000E+00;  1.0000000E+02;  0.0000000E+00;  0.0000000E+00;  1.0000000E+02;  0.0000000E+00;  1.0000000E+02;  0.0000000E+00;  0.0000000E+00;  0.0000000E+00;  0.0000000E+00;
 -1.0000000E+00;  9.9999998E-03; -1.8000000E+00;1;  0.0000000E+00;  0.0000000E+00;  0.0000000E+00;  1.0000000E+01;  4.0000001E-01;  0.0000000E+00;0;  0.0000000E+00;  0.0000000E+00;  0.0000000E+00;  0.0000000E+00;  0.0000000E+00;  0.0000000E+00;0;  0.0000000E+00;  1.0000000E+02;  0.0000000E+00;  0.0000000E+00;  1.0000000E+02;  0.0000000E+00;  1.0000000E+02;  0.0000000E+00;  0.0000000E+00;  0.0000000E+00;  0.0000000E+00;
 -1.0000000E+00;  9.9999998E-03; -1.6000000E+00;2;  0.0000000E+00;  0.0000000E+00;  0.0000000E+00;  1.0000000E+01;  4.0000001E-01;  0.0000000E+00;0;  0.0000000E+00;  0.0000000E+00;  0.0000000E+00;  0.0000000E+00;  0.0000000E+00;  0.0000000E+00;0;  0.0000000E+00;  1.0000000E+02;  0.0000000E+00;  0.0000000E+00;  1.0000000E+02;  0.0000000E+00;  1.0000000E+02;  0.0000000E+00;  0.0000000E+00;  0.0000000E+00;  0.0000000E+00;
 -1.0000000E+00;  9.9999998E-03; -1.4000000E+00;3;  0.0000000E+00;  0.0000000E+00;  0.0000000E+00;  1.0000000E+01;  4.0000001E-01;  0.0000000E+00;0;  0.0000000E+00;  0.0000000E+00;  0.0000000E+00;  0.0000000E+00;  0.0000000E+00;  0.0000000E+00;0;  0.0000000E+00;  1.0000000E+02;  0.0000000E+00;  0.0000000E+00;  1.0000000E+02;  0.0000000E+00;  1.0000000E+02;  0.0000000E+00;  0.0000000E+00;  0.0000000E+00;  0.0000000E+00;
 -1.0000000E+00;  9.9999998E-03; -1.2000000E+00;4;  0.0000000E+00;  0.0000000E+00;  0.0000000E+00;  1.0000000E+01;  4.0000001E-01;  0.0000000E+00;0;  0.0000000E+00;  0.0000000E+00;  0.0000000E+00;  0.0000000E+00;  0.0000000E+00;  0.0000000E+00;0;  0.0000000E+00;  1.0000000E+02;  0.0000000E+00;  0.0000000E+00;  1.0000000E+02;  0.0000000E+00;  1.0000000E+02;  0.0000000E+00;  0.0000000E+00;  0.0000000E+00;  0.0000000E+00;
 -1.0000000E+00;  9.9999998E-03; -1.0000000E+00;5;  0.0000000E+00;  0.0000000E+00;  0.0000000E+00;  1.0000000E+01;  4.0000001E-01;  0.0000000E+00;0;  0.0000000E+00;  0.0000000E+00;  0.0000000E+00;  0.0000000E+00;  0.0000000E+00;  0.0000000E+00;0;  0.0000000E+00;  1.0000000E+02;  0.0000000E+00;  0.0000000E+00;  1.0000000E+02;  0.0000000E+00;  1.0000000E+02;  0.0000000E+00;  0.0000000E+00;  0.0000000E+00;  0.0000000E+00;
 -1.0000000E+00;  9.9999998E-03; -8.0000001E-01;6;  0.0000000E+00;  0.0000000E+00;  0.0000000E+00;  1.0000000E+01;  4.0000001E-01;  0.0000000E+00;0;  0.0000000E+00;  0.0000000E+00;  0.0000000E+00;  0.0000000E+00;  0.0000000E+00;  0.0000000E+00;0;  0.0000000E+00;  1.0000000E+02;  0.0000000E+00;  0.0000000E+00;  1.0000000E+02;  0.0000000E+00;  1.0000000E+02;  0.0000000E+00;  0.0000000E+00;  0.0000000E+00;  0.0000000E+00;
 -1.0000000E+00;  9.9999998E-03; -6.0000002E-01;7;  0.0000000E+00;  0.0000000E+00;  0.0000000E+00;  1.0000000E+01;  4.0000001E-01;  0.0000000E+00;0;  0.0000000E+00;  0.0000000E+00;  0.0000000E+00;  0.0000000E+00;  0.0000000E+00;  0.0000000E+00;0;  0.0000000E+00;  1.0000000E+02;  0.0000000E+00;  0.0000000E+00;  1.0000000E+02;  0.0000000E+00;  1.0000000E+02;  0.0000000E+00;  0.0000000E+00;  0.0000000E+00;  0.0000000E+00;
 -1.0000000E+00;  9.9999998E-03; -4.0000001E-01;8;  0.0000000E+00;  0.0000000E+00;  0.0000000E+00;  1.0000000E+01;  4.0000001E-01;  0.0000000E+00;0;  0.0000000E+00;  0.0000000E+00;  0.0000000E+00;  0.0000000E+00;  0.0000000E+00;  0.0000000E+00;0;  0.0000000E+00;  1.0000000E+02;  0.0000000E+00;  0.0000000E+00;  1.0000000E+02;  0.0000000E+00;  1.0000000E+02;  0.0000000E+00;  0.0000000E+00;  0.0000000E+00;  0.0000000E+00;
 -1.0000000E+00;  9.9999998E-03; -2.0000000E-01;9;  0.0000000E+00;  0.0000000E+00;  0.0000000E+00;  1.0000000E+01;  4.0000001E-01;  0.0000000E+00;0;  0.0000000E+00;  0.0000000E+00;  0.0000000E+00;  0.0000000E+00;  0.0000000E+00;  0.0000000E+00;0;  0.0000000E+00;  1.0000000E+02;  0.0000000E+00;  0.0000000E+00;  1.0000000E+02;  0.0000000E+00;  1.0000000E+02;  0.0000000E+00;  0.0000000E+00;  0.0000000E+00;  0.0000000E+00;
 -8.0000001E-01;  9.9999998E-03; -1.8000000E+00;22;  0.0000000E+00;  0.0000000E+00;  0.0000000E+00;  1.0000000E+01;  4.0000001E-01;  0.0000000E+00;0;  0.0000000E+00;  0.0000000E+00;  0.0000000E+00;  0.0000000E+00;  0.0000000E+00;  0.0000000E+00;0;  0.0000000E+00;  1.0000000E+02;  0.0000000E+00;  0.0000000E+00;  1.0000000E+02;  0.0000000E+00;  1.0000000E+02;  0.0000000E+00;  0.0000000E+00;  0.0000000E+00;  0.0000000E+00;
 -8.0000001E-01;  9.9999998E-03; -1.6000000E+00;23;  0.0000000E+00;  0.0000000E+00;  0.0000000E+00;  1.0000000E+01;  4.0000001E-01;  0.0000000E+00;0;  0.0000000E+00;  0.0000000E+00;  0.0000000E+00;  0.0000000E+00;  0.0000000E+00;  0.0000000E+00;0;  0.0000000E+00;  1.0000000E+02;  0.0000000E+00;  0.0000000E+00;  1.0000000E+02;  0.0000000E+00;  1.0000000E+02;  0.0000000E+00;  0.0000000E+00;  0.0000000E+00;  0.0000000E+00;
 -8.0000001E-01;  9.9999998E-03; -1.4000000E+00;24;  0.0000000E+00;  0.0000000E+00;  0.0000000E+00;  1.0000000E+01;  4.0000001E-01;  0.0000000E+00;0;  0.0000000E+00;  0.0000000E+00;  0.0000000E+00;  0.0000000E+00;  0.0000000E+00;  0.0000000E+00;0;  0.0000000E+00;  1.0000000E+02;  0.0000000E+00;  0.0000000E+00;  1.0000000E+02;  0.0000000E+00;  1.0000000E+02;  0.0000000E+00;  0.0000000E+00;  0.0000000E+00;  0.0000000E+00;
 -8.0000001E-01;  9.9999998E-03; -1.2000000E+00;25;  0.0000000E+00;  0.0000000E+00;  0.0000000E+00;  1.0000000E+01;  4.0000001E-01;  0.0000000E+00;0;  0.0000000E+00;  0.0000000E+00;  0.0000000E+00;  0.0000000E+00;  0.0000000E+00;  0.0000000E+00;0;  0.0000000E+00;  1.0000000E+02;  0.0000000E+00;  0.0000000E+00;  1.0000000E+02;  0.0000000E+00;  1.0000000E+02;  0.0000000E+00;  0.0000000E+00;  0.0000000E+00;  0.0000000E+00;
 -8.0000001E-01;  9.9999998E-03; -1.0000000E+00;26;  0.0000000E+00;  0.0000000E+00;  0.0000000E+00;  1.0000000E+01;  4.0000001E-01;  0.0000000E+00;0;  0.0000000E+00;  0.0000000E+00;  0.0000000E+00;  0.0000000E+00;  0.0000000E+00;  0.0000000E+00;0;  0.0000000E+00;  1.0000000E+02;  0.0000000E+00;  0.0000000E+00;  1.0000000E+02;  0.0000000E+00;  1.0000000E+02;  0.0000000E+00;  0.0000000E+00;  0.0000000E+00;  0.0000000E+00;
 -8.0000001E-01;  9.9999998E-03; -8.0000001E-01;27;  0.0000000E+00;  0.0000000E+00;  0.0000000E+00;  1.0000000E+01;  4.0000001E-01;  0.0000000E+00;0;  0.0000000E+00;  0.0000000E+00;  0.0000000E+00;  0.0000000E+00;  0.0000000E+00;  0.0000000E+00;0;  0.0000000E+00;  1.0000000E+02;  0.0000000E+00;  0.0000000E+00;  1.0000000E+02;  0.0000000E+00;  1.0000000E+02;  0.0000000E+00;  0.0000000E+00;  0.0000000E+00;  0.0000000E+00;
 -8.0000001E-01;  9.9999998E-03; -6.0000002E-01;28;  0.0000000E+00;  0.0000000E+00;  0.0000000E+00;  1.0000000E+01;  4.0000001E-01;  0.0000000E+00;0;  0.0000000E+00;  0.0000000E+00;  0.0000000E+00;  0.0000000E+00;  0.0000000E+00;  0.0000000E+00;0;  0.0000000E+00;  1.0000000E+02;  0.0000000E+00;  0.0000000E+00;  1.0000000E+02;  0.0000000E+00;  1.0000000E+02;  0.0000000E+00;  0.0000000E+00;  0.0000000E+00;  0.0000000E+00;
 -8.0000001E-01;  9.9999998E-03; -4.0000001E-01;29;  0.0000000E+00;  0.0000000E+00;  0.0000000E+00;  1.0000000E+01;  4.0000001E-01;  0.0000000E+00;0;  0.0000000E+00;  0.0000000E+00;  0.0000000E+00;  0.0000000E+00;  0.0000000E+00;  0.0000000E+00;0;  0.0000000E+00;  1.0000000E+02;  0.0000000E+00;  0.0000000E+00;  1.0000000E+02;  0.0000000E+00;  1.0000000E+02;  0.0000000E+00;  0.0000000E+00;  0.0000000E+00;  0.0000000E+00;
 -8.0000001E-01;  9.9999998E-03; -2.0000000E-01;30;  0.0000000E+00;  0.0000000E+00;  0.0000000E+00;  1.0000000E+01;  4.0000001E-01;  0.0000000E+00;0;  0.0000000E+00;  0.0000000E+00;  0.0000000E+00;  0.0000000E+00;  0.0000000E+00;  0.0000000E+00;0;  0.0000000E+00;  1.0000000E+02;  0.0000000E+00;  0.0000000E+00;  1.0000000E+02;  0.0000000E+00;  1.0000000E+02;  0.0000000E+00;  0.0000000E+00;  0.0000000E+00;  0.0000000E+00;
 -6.0000002E-01;  9.9999998E-03; -1.8000000E+00;43;  0.0000000E+00;  0.0000000E+00;  0.0000000E+00;  1.0000000E+01;  4.0000001E-01;  0.0000000E+00;0;  0.0000000E+00;  0.0000000E+00;  0.0000000E+00;  0.0000000E+00;  0.0000000E+00;  0.0000000E+00;0;  0.0000000E+00;  1.0000000E+02;  0.0000000E+00;  0.0000000E+00;  1.0000000E+02;  0.0000000E+00;  1.0000000E+02;  0.0000000E+00;  0.0000000E+00;  0.0000000E+00;  0.0000000E+00;
 -6.0000002E-01;  9.9999998E-03; -1.6000000E+00;44;  0.0000000E+00;  0.0000000E+00;  0.0000000E+00;  1.0000000E+01;  4.0000001E-01;  0.0000000E+00;0;  0.0000000E+00;  0.0000000E+00;  0.0000000E+00;  0.0000000E+00;  0.0000000E+00;  0.0000000E+00;0;  0.0000000E+00;  1.0000000E+02;  0.0000000E+00;  0.0000000E+00;  1.0000000E+02;  0.0000000E+00;  1.0000000E+02;  0.0000000E+00;  0.0000000E+00;  0.0000000E+00;  0.0000000E+00;
 -6.0000002E-01;  9.9999998E-03; -1.4000000E+00;45;  0.0000000E+00;  0.0000000E+00;  0.0000000E+00;  1.0000000E+01;  4.0000001E-01;  0.0000000E+00;0;  0.0000000E+00;  0.0000000E+00;  0.0000000E+00;  0.0000000E+00;  0.0000000E+00;  0.0000000E+00;0;  0.0000000E+00;  1.0000000E+02;  0.0000000E+00;  0.0000000E+00;  1.0000000E+02;  0.0000000E+00;  1.0000000E+02;  0.0000000E+00;  0.0000000E+00;  0.0000000E+00;  0.0000000E+00;
 -6.0000002E-01;  9.9999998E-03; -1.2000000E+00;46;  0.0000000E+00;  0.0000000E+00;  0.0000000E+00;  1.0000000E+01;  4.0000001E-01;  0.0000000E+00;0;  0.0000000E+00;  0.0000000E+00;  0.0000000E+00;  0.0000000E+00;  0.0000000E+00;  0.0000000E+00;0;  0.0000000E+00;  1.0000000E+02;  0.0000000E+00;  0.0000000E+00;  1.0000000E+02;  0.0000000E+00;  1.0000000E+02;  0.0000000E+00;  0.0000000E+00;  0.0000000E+00;  0.0000000E+00;
 -6.0000002E-01;  9.9999998E-03; -1.0000000E+00;47;  0.0000000E+00;  0.0000000E+00;  0.0000000E+00;  1.0000000E+01;  4.0000001E-01;  0.0000000E+00;0;  0.0000000E+00;  0.0000000E+00;  0.0000000E+00;  0.0000000E+00;  0.0000000E+00;  0.0000000E+00;0;  0.0000000E+00;  1.0000000E+02;  0.0000000E+00;  0.0000000E+00;  1.0000000E+02;  0.0000000E+00;  1.0000000E+02;  0.0000000E+00;  0.0000000E+00;  0.0000000E+00;  0.0000000E+00;
 -6.0000002E-01;  9.9999998E-03; -8.0000001E-01;48;  0.0000000E+00;  0.0000000E+00;  0.0000000E+00;  1.0000000E+01;  4.0000001E-01;  0.0000000E+00;0;  0.0000000E+00;  0.0000000E+00;  0.0000000E+00;  0.0000000E+00;  0.0000000E+00;  0.0000000E+00;0;  0.0000000E+00;  1.0000000E+02;  0.0000000E+00;  0.0000000E+00;  1.0000000E+02;  0.0000000E+00;  1.0000000E+02;  0.0000000E+00;  0.0000000E+00;  0.0000000E+00;  0.0000000E+00;
 -6.0000002E-01;  9.9999998E-03; -6.0000002E-01;49;  0.0000000E+00;  0.0000000E+00;  0.0000000E+00;  1.0000000E+01;  4.0000001E-01;  0.0000000E+00;0;  0.0000000E+00;  0.0000000E+00;  0.0000000E+00;  0.0000000E+00;  0.0000000E+00;  0.0000000E+00;0;  0.0000000E+00;  1.0000000E+02;  0.0000000E+00;  0.0000000E+00;  1.0000000E+02;  0.0000000E+00;  1.0000000E+02;  0.0000000E+00;  0.0000000E+00;  0.0000000E+00;  0.0000000E+00;
 -6.0000002E-01;  9.9999998E-03; -4.0000001E-01;50;  0.0000000E+00;  0.0000000E+00;  0.0000000E+00;  1.0000000E+01;  4.0000001E-01;  0.0000000E+00;0;  0.0000000E+00;  0.0000000E+00;  0.0000000E+00;  0.0000000E+00;  0.0000000E+00;  0.0000000E+00;0;  0.0000000E+00;  1.0000000E+02;  0.0000000E+00;  0.0000000E+00;  1.0000000E+02;  0.0000000E+00;  1.0000000E+02;  0.0000000E+00;  0.0000000E+00;  0.0000000E+00;  0.0000000E+00;
 -6.0000002E-01;  9.9999998E-03; -2.0000000E-01;51;  0.0000000E+00;  0.0000000E+00;  0.0000000E+00;  1.0000000E+01;  4.0000001E-01;  0.0000000E+00;0;  0.0000000E+00;  0.0000000E+00;  0.0000000E+00;  0.0000000E+00;  0.0000000E+00;  0.0000000E+00;0;  0.0000000E+00;  1.0000000E+02;  0.0000000E+00;  0.0000000E+00;  1.0000000E+02;  0.0000000E+00;  1.0000000E+02;  0.0000000E+00;  0.0000000E+00;  0.0000000E+00;  0.0000000E+00;
 -4.0000001E-01;  9.9999998E-03; -1.8000000E+00;64;  0.0000000E+00;  0.0000000E+00;  0.0000000E+00;  1.0000000E+01;  4.0000001E-01;  0.0000000E+00;0;  0.0000000E+00;  0.0000000E+00;  0.0000000E+00;  0.0000000E+00;  0.0000000E+00;  0.0000000E+00;0;  0.0000000E+00;  1.0000000E+02;  0.0000000E+00;  0.0000000E+00;  1.0000000E+02;  0.0000000E+00;  1.0000000E+02;  0.0000000E+00;  0.0000000E+00;  0.0000000E+00;  0.0000000E+00;
 -4.0000001E-01;  9.9999998E-03; -1.6000000E+00;65;  0.0000000E+00;  0.0000000E+00;  0.0000000E+00;  1.0000000E+01;  4.0000001E-01;  0.0000000E+00;0;  0.0000000E+00;  0.0000000E+00;  0.0000000E+00;  0.0000000E+00;  0.0000000E+00;  0.0000000E+00;0;  0.0000000E+00;  1.0000000E+02;  0.0000000E+00;  0.0000000E+00;  1.0000000E+02;  0.0000000E+00;  1.0000000E+02;  0.0000000E+00;  0.0000000E+00;  0.0000000E+00;  0.0000000E+00;
 -4.0000001E-01;  9.9999998E-03; -1.4000000E+00;66;  0.0000000E+00;  0.0000000E+00;  0.0000000E+00;  1.0000000E+01;  4.0000001E-01;  0.0000000E+00;0;  0.0000000E+00;  0.0000000E+00;  0.0000000E+00;  0.0000000E+00;  0.0000000E+00;  0.0000000E+00;0;  0.0000000E+00;  1.0000000E+02;  0.0000000E+00;  0.0000000E+00;  1.0000000E+02;  0.0000000E+00;  1.0000000E+02;  0.0000000E+00;  0.0000000E+00;  0.0000000E+00;  0.0000000E+00;
 -4.0000001E-01;  9.9999998E-03; -1.2000000E+00;67;  0.0000000E+00;  0.0000000E+00;  0.0000000E+00;  1.0000000E+01;  4.0000001E-01;  0.0000000E+00;0;  0.0000000E+00;  0.0000000E+00;  0.0000000E+00;  0.0000000E+00;  0.0000000E+00;  0.0000000E+00;0;  0.0000000E+00;  1.0000000E+02;  0.0000000E+00;  0.0000000E+00;  1.0000000E+02;  0.0000000E+00;  1.0000000E+02;  0.0000000E+00;  0.0000000E+00;  0.0000000E+00;  0.0000000E+00;
 -4.0000001E-01;  9.9999998E-03; -1.0000000E+00;68;  0.0000000E+00;  0.0000000E+00;  0.0000000E+00;  1.0000000E+01;  4.0000001E-01;  0.0000000E+00;0;  0.0000000E+00;  0.0000000E+00;  0.0000000E+00;  0.0000000E+00;  0.0000000E+00;  0.0000000E+00;0;  0.0000000E+00;  1.0000000E+02;  0.0000000E+00;  0.0000000E+00;  1.0000000E+02;  0.0000000E+00;  1.0000000E+02;  0.0000000E+00;  0.0000000E+00;  0.0000000E+00;  0.0000000E+00;
 -4.0000001E-01;  9.9999998E-03; -8.0000001E-01;69;  0.0000000E+00;  0.0000000E+00;  0.0000000E+00;  1.0000000E+01;  4.0000001E-01;  0.0000000E+00;0;  0.0000000E+00;  0.0000000E+00;  0.0000000E+00;  0.0000000E+00;  0.0000000E+00;  0.0000000E+00;0;  0.0000000E+00;  1.0000000E+02;  0.0000000E+00;  0.0000000E+00;  1.0000000E+02;  0.0000000E+00;  1.0000000E+02;  0.0000000E+00;  0.0000000E+00;  0.0000000E+00;  0.0000000E+00;
 -4.0000001E-01;  9.9999998E-03; -6.0000002E-01;70;  0.0000000E+00;  0.0000000E+00;  0.0000000E+00;  1.0000000E+01;  4.0000001E-01;  0.0000000E+00;0;  0.0000000E+00;  0.0000000E+00;  0.0000000E+00;  0.0000000E+00;  0.0000000E+00;  0.0000000E+00;0;  0.0000000E+00;  1.0000000E+02;  0.0000000E+00;  0.0000000E+00;  1.0000000E+02;  0.0000000E+00;  1.0000000E+02;  0.0000000E+00;  0.0000000E+00;  0.0000000E+00;  0.0000000E+00;
 -4.0000001E-01;  9.9999998E-03; -4.0000001E-01;71;  0.0000000E+00;  0.0000000E+00;  0.0000000E+00;  1.0000000E+01;  4.0000001E-01;  0.0000000E+00;0;  0.0000000E+00;  0.0000000E+00;  0.0000000E+00;  0.0000000E+00;  0.0000000E+00;  0.0000000E+00;0;  0.0000000E+00;  1.0000000E+02;  0.0000000E+00;  0.0000000E+00;  1.0000000E+02;  0.0000000E+00;  1.0000000E+02;  0.0000000E+00;  0.0000000E+00;  0.0000000E+00;  0.0000000E+00;
 -4.0000001E-01;  9.9999998E-03; -2.0000000E-01;72;  0.0000000E+00;  0.0000000E+00;  0.0000000E+00;  1.0000000E+01;  4.0000001E-01;  0.0000000E+00;0;  0.0000000E+00;  0.0000000E+00;  0.0000000E+00;  0.0000000E+00;  0.0000000E+00;  0.0000000E+00;0;  0.0000000E+00;  1.0000000E+02;  0.0000000E+00;  0.0000000E+00;  1.0000000E+02;  0.0000000E+00;  1.0000000E+02;  0.0000000E+00;  0.0000000E+00;  0.0000000E+00;  0.0000000E+00;
 -2.0000000E-01;  9.9999998E-03; -1.8000000E+00;85;  0.0000000E+00;  0.0000000E+00;  0.0000000E+00;  1.0000000E+01;  4.0000001E-01;  0.0000000E+00;0;  0.0000000E+00;  0.0000000E+00;  0.0000000E+00;  0.0000000E+00;  0.0000000E+00;  0.0000000E+00;0;  0.0000000E+00;  1.0000000E+02;  0.0000000E+00;  0.0000000E+00;  1.0000000E+02;  0.0000000E+00;  1.0000000E+02;  0.0000000E+00;  0.0000000E+00;  0.0000000E+00;  0.0000000E+00;
 -2.0000000E-01;  9.9999998E-03; -1.6000000E+00;86;  0.0000000E+00;  0.0000000E+00;  0.0000000E+00;  1.0000000E+01;  4.0000001E-01;  0.0000000E+00;0;  0.0000000E+00;  0.0000000E+00;  0.0000000E+00;  0.0000000E+00;  0.0000000E+00;  0.0000000E+00;0;  0.0000000E+00;  1.0000000E+02;  0.0000000E+00;  0.0000000E+00;  1.0000000E+02;  0.0000000E+00;  1.0000000E+02;  0.0000000E+00;  0.0000000E+00;  0.0000000E+00;  0.0000000E+00;
 -2.0000000E-01;  9.9999998E-03; -1.4000000E+00;87;  0.0000000E+00;  0.0000000E+00;  0.0000000E+00;  1.0000000E+01;  4.0000001E-01;  0.0000000E+00;0;  0.0000000E+00;  0.0000000E+00;  0.0000000E+00;  0.0000000E+00;  0.0000000E+00;  0.0000000E+00;0;  0.0000000E+00;  1.0000000E+02;  0.0000000E+00;  0.0000000E+00;  1.0000000E+02;  0.0000000E+00;  1.0000000E+02;  0.0000000E+00;  0.0000000E+00;  0.0000000E+00;  0.0000000E+00;
 -2.0000000E-01;  9.9999998E-03; -1.2000000E+00;88;  0.0000000E+00;  0.0000000E+00;  0.0000000E+00;  1.0000000E+01;  4.0000001E-01;  0.0000000E+00;0;  0.0000000E+00;  0.0000000E+00;  0.0000000E+00;  0.0000000E+00;  0.0000000E+00;  0.0000000E+00;0;  0.0000000E+00;  1.0000000E+02;  0.0000000E+00;  0.0000000E+00;  1.0000000E+02;  0.0000000E+00;  1.0000000E+02;  0.0000000E+00;  0.0000000E+00;  0.0000000E+00;  0.0000000E+00;
 -2.0000000E-01;  9.9999998E-03; -1.0000000E+00;89;  0.0000000E+00;  0.0000000E+00;  0.0000000E+00;  1.0000000E+01;  4.0000001E-01;  0.0000000E+00;0;  0.0000000E+00;  0.0000000E+00;  0.0000000E+00;  0.0000000E+00;  0.0000000E+00;  0.0000000E+00;0;  0.0000000E+00;  1.0000000E+02;  0.0000000E+00;  0.0000000E+00;  1.0000000E+02;  0.0000000E+00;  1.0000000E+02;  0.0000000E+00;  0.0000000E+00;  0.0000000E+00;  0.0000000E+00;
 -2.0000000E-01;  9.9999998E-03; -8.0000001E-01;90;  0.0000000E+00;  0.0000000E+00;  0.0000000E+00;  1.0000000E+01;  4.0000001E-01;  0.0000000E+00;0;  0.0000000E+00;  0.0000000E+00;  0.0000000E+00;  0.0000000E+00;  0.0000000E+00;  0.0000000E+00;0;  0.0000000E+00;  1.0000000E+02;  0.0000000E+00;  0.0000000E+00;  1.0000000E+02;  0.0000000E+00;  1.0000000E+02;  0.0000000E+00;  0.0000000E+00;  0.0000000E+00;  0.0000000E+00;
 -2.0000000E-01;  9.9999998E-03; -6.0000002E-01;91;  0.0000000E+00;  0.0000000E+00;  0.0000000E+00;  1.0000000E+01;  4.0000001E-01;  0.0000000E+00;0;  0.0000000E+00;  0.0000000E+00;  0.0000000E+00;  0.0000000E+00;  0.0000000E+00;  0.0000000E+00;0;  0.0000000E+00;  1.0000000E+02;  0.0000000E+00;  0.0000000E+00;  1.0000000E+02;  0.0000000E+00;  1.0000000E+02;  0.0000000E+00;  0.0000000E+00;  0.0000000E+00;  0.0000000E+00;
 -2.0000000E-01;  9.9999998E-03; -4.0000001E-01;92;  0.0000000E+00;  0.0000000E+00;  0.0000000E+00;  1.0000000E+01;  4.0000001E-01;  0.0000000E+00;0;  0.0000000E+00;  0.0000000E+00;  0.0000000E+00;  0.0000000E+00;  0.0000000E+00;  0.0000000E+00;0;  0.0000000E+00;  1.0000000E+02;  0.0000000E+00;  0.0000000E+00;  1.0000000E+02;  0.0000000E+00;  1.0000000E+02;  0.0000000E+00;  0.0000000E+00;  0.0000000E+00;  0.0000000E+00;
 -2.0000000E-01;  9.9999998E-03; -2.0000000E-01;93;  0.0000000E+00;  0.0000000E+00;  0.0000000E+00;  1.0000000E+01;  4.0000001E-01;  0.0000000E+00;0;  0.0000000E+00;  0.0000000E+00;  0.0000000E+00;  0.0000000E+00;  0.0000000E+00;  0.0000000E+00;0;  0.0000000E+00;  1.0000000E+02;  0.0000000E+00;  0.0000000E+00;  1.0000000E+02;  0.0000000E+00;  1.0000000E+02;  0.0000000E+00;  0.0000000E+00;  0.0000000E+00;  0.0000000E+00;
  0.0000000E+00;  9.9999998E-03; -1.8000000E+00;106;  0.0000000E+00;  0.0000000E+00;  0.0000000E+00;  1.0000000E+01;  4.0000001E-01;  0.0000000E+00;0;  0.0000000E+00;  0.0000000E+00;  0.0000000E+00;  0.0000000E+00;  0.0000000E+00;  0.0000000E+00;0;  0.0000000E+00;  1.0000000E+02;  0.0000000E+00;  0.0000000E+00;  1.0000000E+02;  0.0000000E+00;  1.0000000E+02;  0.0000000E+00;  0.0000000E+00;  0.0000000E+00;  0.0000000E+00;
  0.0000000E+00;  9.9999998E-03; -1.6000000E+00;107;  0.0000000E+00;  0.0000000E+00;  0.0000000E+00;  1.0000000E+01;  4.0000001E-01;  0.0000000E+00;0;  0.0000000E+00;  0.0000000E+00;  0.0000000E+00;  0.0000000E+00;  0.0000000E+00;  0.0000000E+00;0;  0.0000000E+00;  1.0000000E+02;  0.0000000E+00;  0.0000000E+00;  1.0000000E+02;  0.0000000E+00;  1.0000000E+02;  0.0000000E+00;  0.0000000E+00;  0.0000000E+00;  0.0000000E+00;
  0.0000000E+00;  9.9999998E-03; -1.4000000E+00;108;  0.0000000E+00;  0.0000000E+00;  0.0000000E+00;  1.0000000E+01;  4.0000001E-01;  0.0000000E+00;0;  0.0000000E+00;  0.0000000E+00;  0.0000000E+00;  0.0000000E+00;  0.0000000E+00;  0.0000000E+00;0;  0.0000000E+00;  1.0000000E+02;  0.0000000E+00;  0.0000000E+00;  1.0000000E+02;  0.0000000E+00;  1.0000000E+02;  0.0000000E+00;  0.0000000E+00;  0.0000000E+00;  0.0000000E+00;
  0.0000000E+00;  9.9999998E-03; -1.2000000E+00;109;  0.0000000E+00;  0.0000000E+00;  0.0000000E+00;  1.0000000E+01;  4.0000001E-01;  0.0000000E+00;0;  0.0000000E+00;  0.0000000E+00;  0.0000000E+00;  0.0000000E+00;  0.0000000E+00;  0.0000000E+00;0;  0.0000000E+00;  1.0000000E+02;  0.0000000E+00;  0.0000000E+00;  1.0000000E+02;  0.0000000E+00;  1.0000000E+02;  0.0000000E+00;  0.0000000E+00;  0.0000000E+00;  0.0000000E+00;
  2.0000000E-01;  9.9999998E-03; -1.8000000E+00;116;  0.0000000E+00;  0.0000000E+00;  0.0000000E+00;  1.0000000E+01;  4.0000001E-01;  0.0000000E+00;0;  0.0000000E+00;  0.0000000E+00;  0.0000000E+00;  0.0000000E+00;  0.0000000E+00;  0.0000000E+00;0;  0.0000000E+00;  1.0000000E+02;  0.0000000E+00;  0.0000000E+00;  1.0000000E+02;  0.0000000E+00;  1.0000000E+02;  0.0000000E+00;  0.0000000E+00;  0.0000000E+00;  0.0000000E+00;
  2.0000000E-01;  9.9999998E-03; -1.6000000E+00;117;  0.0000000E+00;  0.0000000E+00;  0.0000000E+00;  1.0000000E+01;  4.0000001E-01;  0.0000000E+00;0;  0.0000000E+00;  0.0000000E+00;  0.0000000E+00;  0.0000000E+00;  0.0000000E+00;  0.0000000E+00;0;  0.0000000E+00;  1.0000000E+02;  0.0000000E+00;  0.0000000E+00;  1.0000000E+02;  0.0000000E+00;  1.0000000E+02;  0.0000000E+00;  0.0000000E+00;  0.0000000E+00;  0.0000000E+00;
  2.0000000E-01;  9.9999998E-03; -1.4000000E+00;118;  0.0000000E+00;  0.0000000E+00;  0.0000000E+00;  1.0000000E+01;  4.0000001E-01;  0.0000000E+00;0;  0.0000000E+00;  0.0000000E+00;  0.0000000E+00;  0.0000000E+00;  0.0000000E+00;  0.0000000E+00;0;  0.0000000E+00;  1.0000000E+02;  0.0000000E+00;  0.0000000E+00;  1.0000000E+02;  0.0000000E+00;  1.0000000E+02;  0.0000000E+00;  0.0000000E+00;  0.0000000E+00;  0.0000000E+00;
  2.0000000E-01;  9.9999998E-03; -1.2000000E+00;119;  0.0000000E+00;  0.0000000E+00;  0.0000000E+00;  1.0000000E+01;  4.0000001E-01;  0.0000000E+00;0;  0.0000000E+00;  0.0000000E+00;  0.0000000E+00;  0.0000000E+00;  0.0000000E+00;  0.0000000E+00;0;  0.0000000E+00;  1.0000000E+02;  0.0000000E+00;  0.0000000E+00;  1.0000000E+02;  0.0000000E+00;  1.0000000E+02;  0.0000000E+00;  0.0000000E+00;  0.0000000E+00;  0.0000000E+00;
  4.0000001E-01;  9.9999998E-03; -1.8000000E+00;126;  0.0000000E+00;  0.0000000E+00;  0.0000000E+00;  1.0000000E+01;  4.0000001E-01;  0.0000000E+00;0;  0.0000000E+00;  0.0000000E+00;  0.0000000E+00;  0.0000000E+00;  0.0000000E+00;  0.0000000E+00;0;  0.0000000E+00;  1.0000000E+02;  0.0000000E+00;  0.0000000E+00;  1.0000000E+02;  0.0000000E+00;  1.0000000E+02;  0.0000000E+00;  0.0000000E+00;  0.0000000E+00;  0.0000000E+00;
  4.0000001E-01;  9.9999998E-03; -1.6000000E+00;127;  0.0000000E+00;  0.0000000E+00;  0.0000000E+00;  1.0000000E+01;  4.0000001E-01;  0.0000000E+00;0;  0.0000000E+00;  0.0000000E+00;  0.0000000E+00;  0.0000000E+00;  0.0000000E+00;  0.0000000E+00;0;  0.0000000E+00;  1.0000000E+02;  0.0000000E+00;  0.0000000E+00;  1.0000000E+02;  0.0000000E+00;  1.0000000E+02;  0.0000000E+00;  0.0000000E+00;  0.0000000E+00;  0.0000000E+00;
  4.0000001E-01;  9.9999998E-03; -1.4000000E+00;128;  0.0000000E+00;  0.0000000E+00;  0.0000000E+00;  1.0000000E+01;  4.0000001E-01;  0.0000000E+00;0;  0.0000000E+00;  0.0000000E+00;  0.0000000E+00;  0.0000000E+00;  0.0000000E+00;  0.0000000E+00;0;  0.0000000E+00;  1.0000000E+02;  0.0000000E+00;  0.0000000E+00;  1.0000000E+02;  0.0000000E+00;  1.0000000E+02;  0.0000000E+00;  0.0000000E+00;  0.0000000E+00;  0.0000000E+00;
  4.0000001E-01;  9.9999998E-03; -1.2000000E+00;129;  0.0000000E+00;  0.0000000E+00;  0.0000000E+00;  1.0000000E+01;  4.0000001E-01;  0.0000000E+00;0;  0.0000000E+00;  0.0000000E+00;  0.0000000E+00;  0.0000000E+00;  0.0000000E+00;  0.0000000E+00;0;  0.0000000E+00;  1.0000000E+02;  0.0000000E+00;  0.0000000E+00;  1.0000000E+02;  0.0000000E+00;  1.0000000E+02;  0.0000000E+00;  0.0000000E+00;  0.0000000E+00;  0.0000000E+00;
  6.0000002E-01;  9.9999998E-03; -1.8000000E+00;136;  0.0000000E+00;  0.0000000E+00;  0.0000000E+00;  1.0000000E+01;  4.0000001E-01;  0.0000000E+00;0;  0.0000000E+00;  0.0000000E+00;  0.0000000E+00;  0.0000000E+00;  0.0000000E+00;  0.0000000E+00;0;  0.0000000E+00;  1.0000000E+02;  0.0000000E+00;  0.0000000E+00;  1.0000000E+02;  0.0000000E+00;  1.0000000E+02;  0.0000000E+00;  0.0000000E+00;  0.0000000E+00;  0.0000000E+00;
  6.0000002E-01;  9.9999998E-03; -1.6000000E+00;137;  0.0000000E+00;  0.0000000E+00;  0.0000000E+00;  1.0000000E+01;  4.0000001E-01;  0.0000000E+00;0;  0.0000000E+00;  0.0000000E+00;  0.0000000E+00;  0.0000000E+00;  0.0000000E+00;  0.0000000E+00;0;  0.0000000E+00;  1.0000000E+02;  0.0000000E+00;  0.0000000E+00;  1.0000000E+02;  0.0000000E+00;  1.0000000E+02;  0.0000000E+00;  0.0000000E+00;  0.0000000E+00;  0.0000000E+00;
  6.0000002E-01;  9.9999998E-03; -1.4000000E+00;138;  0.0000000E+00;  0.0000000E+00;  0.0000000E+00;  1.0000000E+01;  4.0000001E-01;  0.0000000E+00;0;  0.0000000E+00;  0.0000000E+00;  0.0000000E+00;  0.0000000E+00;  0.0000000E+00;  0.0000000E+00;0;  0.0000000E+00;  1.0000000E+02;  0.0000000E+00;  0.0000000E+00;  1.0000000E+02;  0.0000000E+00;  1.0000000E+02;  0.0000000E+00;  0.0000000E+00;  0.0000000E+00;  0.0000000E+00;
  6.0000002E-01;  9.9999998E-03; -1.2000000E+00;139;  0.0000000E+00;  0.0000000E+00;  0.0000000E+00;  1.0000000E+01;  4.0000001E-01;  0.0000000E+00;0;  0.0000000E+00;  0.0000000E+00;  0.0000000E+00;  0.0000000E+00;  0.0000000E+00;  0.0000000E+00;0;  0.0000000E+00;  1.0000000E+02;  0.0000000E+00;  0.0000000E+00;  1.0000000E+02;  0.0000000E+00;  1.0000000E+02;  0.0000000E+00;  0.0000000E+00;  0.0000000E+00;  0.0000000E+00;
  8.0000001E-01;  9.9999998E-03; -1.8000000E+00;146;  0.0000000E+00;  0.0000000E+00;  0.0000000E+00;  1.0000000E+01;  4.0000001E-01;  0.0000000E+00;0;  0.0000000E+00;  0.0000000E+00;  0.0000000E+00;  0.0000000E+00;  0.0000000E+00;  0.0000000E+00;0;  0.0000000E+00;  1.0000000E+02;  0.0000000E+00;  0.0000000E+00;  1.0000000E+02;  0.0000000E+00;  1.0000000E+02;  0.0000000E+00;  0.0000000E+00;  0.0000000E+00;  0.0000000E+00;
  8.0000001E-01;  9.9999998E-03; -1.6000000E+00;147;  0.0000000E+00;  0.0000000E+00;  0.0000000E+00;  1.0000000E+01;  4.0000001E-01;  0.0000000E+00;0;  0.0000000E+00;  0.0000000E+00;  0.0000000E+00;  0.0000000E+00;  0.0000000E+00;  0.0000000E+00;0;  0.0000000E+00;  1.0000000E+02;  0.0000000E+00;  0.0000000E+00;  1.0000000E+02;  0.0000000E+00;  1.0000000E+02;  0.0000000E+00;  0.0000000E+00;  0.0000000E+00;  0.0000000E+00;
  8.0000001E-01;  9.9999998E-03; -1.4000000E+00;148;  0.0000000E+00;  0.0000000E+00;  0.0000000E+00;  1.0000000E+01;  4.0000001E-01;  0.0000000E+00;0;  0.0000000E+00;  0.0000000E+00;  0.0000000E+00;  0.0000000E+00;  0.0000000E+00;  0.0000000E+00;0;  0.0000000E+00;  1.0000000E+02;  0.0000000E+00;  0.0000000E+00;  1.0000000E+02;  0.0000000E+00;  1.0000000E+02;  0.0000000E+00;  0.0000000E+00;  0.0000000E+00;  0.0000000E+00;
  8.0000001E-01;  9.9999998E-03; -1.2000000E+00;149;  0.0000000E+00;  0.0000000E+00;  0.0000000E+00;  1.0000000E+01;  4.0000001E-01;  0.0000000E+00;0;  0.0000000E+00;  0.0000000E+00;  0.0000000E+00;  0.0000000E+00;  0.0000000E+00;  0.0000000E+00;0;  0.0000000E+00;  1.0000000E+02;  0.0000000E+00;  0.0000000E+00;  1.0000000E+02;  0.0000000E+00;  1.0000000E+02;  0.0000000E+00;  0.0000000E+00;  0.0000000E+00;  0.0000000E+00;
  1.0000000E+00;  9.9999998E-03; -1.8000000E+00;156;  0.0000000E+00;  0.0000000E+00;  0.0000000E+00;  1.0000000E+01;  4.0000001E-01;  0.0000000E+00;0;  0.0000000E+00;  0.0000000E+00;  0.0000000E+00;  0.0000000E+00;  0.0000000E+00;  0.0000000E+00;0;  0.0000000E+00;  1.0000000E+02;  0.0000000E+00;  0.0000000E+00;  1.0000000E+02;  0.0000000E+00;  1.0000000E+02;  0.0000000E+00;  0.0000000E+00;  0.0000000E+00;  0.0000000E+00;
  1.0000000E+00;  9.9999998E-03; -1.6000000E+00;157;  0.0000000E+00;  0.0000000E+00;  0.0000000E+00;  1.0000000E+01;  4.0000001E-01;  0.0000000E+00;0;  0.0000000E+00;  0.0000000E+00;  0.0000000E+00;  0.0000000E+00;  0.0000000E+00;  0.0000000E+00;0;  0.0000000E+00;  1.0000000E+02;  0.0000000E+00;  0.0000000E+00;  1.0000000E+02;  0.0000000E+00;  1.0000000E+02;  0.0000000E+00;  0.0000000E+00;  0.0000000E+00;  0.0000000E+00;
  1.0000000E+00;  9.9999998E-03; -1.4000000E+00;158;  0.0000000E+00;  0.0000000E+00;  0.0000000E+00;  1.0000000E+01;  4.0000001E-01;  0.0000000E+00;0;  0.0000000E+00;  0.0000000E+00;  0.0000000E+00;  0.0000000E+00;  0.0000000E+00;  0.0000000E+00;0;  0.0000000E+00;  1.0000000E+02;  0.0000000E+00;  0.0000000E+00;  1.0000000E+02;  0.0000000E+00;  1.0000000E+02;  0.0000000E+00;  0.0000000E+00;  0.0000000E+00;  0.0000000E+00;
  1.0000000E+00;  9.9999998E-03; -1.2000000E+00;159;  0.0000000E+00;  0.0000000E+00;  0.0000000E+00;  1.0000000E+01;  4.0000001E-01;  0.0000000E+00;0;  0.0000000E+00;  0.0000000E+00;  0.0000000E+00;  0.0000000E+00;  0.0000000E+00;  0.0000000E+00;0;  0.0000000E+00;  1.0000000E+02;  0.0000000E+00;  0.0000000E+00;  1.0000000E+02;  0.0000000E+00;  1.0000000E+02;  0.0000000E+00;  0.0000000E+00;  0.0000000E+00;  0.0000000E+00;
 -1.0000000E+00;  9.9999998E-03;  0.0000000E+00;10;  0.0000000E+00;  0.0000000E+00;  0.0000000E+00;  1.0000000E+01;  4.0000001E-01;  0.0000000E+00;0;  0.0000000E+00;  0.0000000E+00;  0.0000000E+00;  0.0000000E+00;  0.0000000E+00;  0.0000000E+00;0;  0.0000000E+00;  1.0000000E+02;  0.0000000E+00;  0.0000000E+00;  1.0000000E+02;  0.0000000E+00;  1.0000000E+02;  0.0000000E+00;  0.0000000E+00;  0.0000000E+00;  0.0000000E+00;
 -1.0000000E+00;  9.9999998E-03;  2.0000000E-01;11;  0.0000000E+00;  0.0000000E+00;  0.0000000E+00;  1.0000000E+01;  4.0000001E-01;  0.0000000E+00;0;  0.0000000E+00;  0.0000000E+00;  0.0000000E+00;  0.0000000E+00;  0.0000000E+00;  0.0000000E+00;0;  0.0000000E+00;  1.0000000E+02;  0.0000000E+00;  0.0000000E+00;  1.0000000E+02;  0.0000000E+00;  1.0000000E+02;  0.0000000E+00;  0.0000000E+00;  0.0000000E+00;  0.0000000E+00;
 -1.0000000E+00;  9.9999998E-03;  4.0000001E-01;12;  0.0000000E+00;  0.0000000E+00;  0.0000000E+00;  1.0000000E+01;  4.0000001E-01;  0.0000000E+00;0;  0.0000000E+00;  0.0000000E+00;  0.0000000E+00;  0.0000000E+00;  0.0000000E+00;  0.0000000E+00;0;  0.0000000E+00;  1.0000000E+02;  0.0000000E+00;  0.0000000E+00;  1.0000000E+02;  0.0000000E+00;  1.0000000E+02;  0.0000000E+00;  0.0000000E+00;  0.0000000E+00;  0.0000000E+00;
 -1.0000000E+00;  9.9999998E-03;  6.0000002E-01;13;  0.0000000E+00;  0.0000000E+00;  0.0000000E+00;  1.0000000E+01;  4.0000001E-01;  0.0000000E+00;0;  0.0000000E+00;  0.0000000E+00;  0.0000000E+00;  0.0000000E+00;  0.0000000E+00;  0.0000000E+00;0;  0.0000000E+00;  1.0000000E+02;  0.0000000E+00;  0.0000000E+00;  1.0000000E+02;  0.0000000E+00;  1.0000000E+02;  0.0000000E+00;  0.0000000E+00;  0.0000000E+00;  0.0000000E+00;
 -1.0000000E+00;  9.9999998E-03;  8.0000001E-01;14;  0.0000000E+00;  0.0000000E+00;  0.0000000E+00;  1.0000000E+01;  4.0000001E-01;  0.0000000E+00;0;  0.0000000E+00;  0.0000000E+00;  0.0000000E+00;  0.0000000E+00;  0.0000000E+00;  0.0000000E+00;0;  0.0000000E+00;  1.0000000E+02;  0.0000000E+00;  0.0000000E+00;  1.0000000E+02;  0.0000000E+00;  1.0000000E+02;  0.0000000E+00;  0.0000000E+00;  0.0000000E+00;  0.0000000E+00;
 -1.0000000E+00;  9.9999998E-03;  1.0000000E+00;15;  0.0000000E+00;  0.0000000E+00;  0.0000000E+00;  1.0000000E+01;  4.0000001E-01;  0.0000000E+00;0;  0.0000000E+00;  0.0000000E+00;  0.0000000E+00;  0.0000000E+00;  0.0000000E+00;  0.0000000E+00;0;  0.0000000E+00;  1.0000000E+02;  0.0000000E+00;  0.0000000E+00;  1.0000000E+02;  0.0000000E+00;  1.0000000E+02;  0.0000000E+00;  0.0000000E+00;  0.0000000E+00;  0.0000000E+00;
 -1.0000000E+00;  9.9999998E-03;  1.2000000E+00;16;  0.0000000E+00;  0.0000000E+00;  0.0000000E+00;  1.0000000E+01;  4.0000001E-01;  0.0000000E+00;0;  0.0000000E+00;  0.0000000E+00;  0.0000000E+00;  0.0000000E+00;  0.0000000E+00;  0.0000000E+00;0;  0.0000000E+00;  1.0000000E+02;  0.0000000E+00;  0.0000000E+00;  1.0000000E+02;  0.0000000E+00;  1.0000000E+02;  0.0000000E+00;  0.0000000E+00;  0.0000000E+00;  0.0000000E+00;
 -1.0000000E+00;  9.9999998E-03;  1.4000000E+00;17;  0.0000000E+00;  0.0000000E+00;  0.0000000E+00;  1.0000000E+01;  4.0000001E-01;  0.0000000E+00;0;  0.0000000E+00;  0.0000000E+00;  0.0000000E+00;  0.0000000E+00;  0.0000000E+00;  0.0000000E+00;0;  0.0000000E+00;  1.0000000E+02;  0.0000000E+00;  0.0000000E+00;  1.0000000E+02;  0.0000000E+00;  1.0000000E+02;  0.0000000E+00;  0.0000000E+00;  0.0000000E+00;  0.0000000E+00;
 -8.0000001E-01;  9.9999998E-03;  0.0000000E+00;31;  0.0000000E+00;  0.0000000E+00;  0.0000000E+00;  1.0000000E+01;  4.0000001E-01;  0.0000000E+00;0;  0.0000000E+00;  0.0000000E+00;  0.0000000E+00;  0.0000000E+00;  0.0000000E+00;  0.0000000E+00;0;  0.0000000E+00;  1.0000000E+02;  0.0000000E+00;  0.0000000E+00;  1.0000000E+02;  0.0000000E+00;  1.0000000E+02;  0.0000000E+00;  0.0000000E+00;  0.0000000E+00;  0.0000000E+00;
 -8.0000001E-01;  9.9999998E-03;  2.0000000E-01;32;  0.0000000E+00;  0.0000000E+00;  0.0000000E+00;  1.0000000E+01;  4.0000001E-01;  0.0000000E+00;0;  0.0000000E+00;  0.0000000E+00;  0.0000000E+00;  0.0000000E+00;  0.0000000E+00;  0.0000000E+00;0;  0.0000000E+00;  1.0000000E+02;  0.0000000E+00;  0.0000000E+00;  1.0000000E+02;  0.0000000E+00;  1.0000000E+02;  0.0000000E+00;  0.0000000E+00;  0.0000000E+00;  0.0000000E+00;
 -8.0000001E-01;  9.9999998E-03;  4.0000001E-01;33;  0.0000000E+00;  0.0000000E+00;  0.0000000E+00;  1.0000000E+01;  4.0000001E-01;  0.0000000E+00;0;  0.0000000E+00;  0.0000000E+00;  0.0000000E+00;  0.0000000E+00;  0.0000000E+00;  0.0000000E+00;0;  0.0000000E+00;  1.0000000E+02;  0.0000000E+00;  0.0000000E+00;  1.0000000E+02;  0.0000000E+00;  1.0000000E+02;  0.0000000E+00;  0.0000000E+00;  0.0000000E+00;  0.0000000E+00;
 -8.0000001E-01;  9.9999998E-03;  6.0000002E-01;34;  0.0000000E+00;  0.0000000E+00;  0.0000000E+00;  1.0000000E+01;  4.0000001E-01;  0.0000000E+00;0;  0.0000000E+00;  0.0000000E+00;  0.0000000E+00;  0.0000000E+00;  0.0000000E+00;  0.0000000E+00;0;  0.0000000E+00;  1.0000000E+02;  0.0000000E+00;  0.0000000E+00;  1.0000000E+02;  0.0000000E+00;  1.0000000E+02;  0.0000000E+00;  0.0000000E+00;  0.0000000E+00;  0.0000000E+00;
 -8.0000001E-01;  9.9999998E-03;  8.0000001E-01;35;  0.0000000E+00;  0.0000000E+00;  0.0000000E+00;  1.0000000E+01;  4.0000001E-01;  0.0000000E+00;0;  0.0000000E+00;  0.0000000E+00;  0.0000000E+00;  0.0000000E+00;  0.0000000E+00;  0.0000000E+00;0;  0.0000000E+00;  1.0000000E+02;  0.0000000E+00;  0.0000000E+00;  1.0000000E+02;  0.0000000E+00;  1.0000000E+02;  0.0000000E+00;  0.0000000E+00;  0.0000000E+00;  0.0000000E+00;
 -8.0000001E-01;  9.9999998E-03;  1.0000000E+00;36;  0.0000000E+00;  0.0000000E+00;  0.0000000E+00;  1.0000000E+01;  4.0000001E-01;  0.0000000E+00;0;  0.0000000E+00;  0.0000000E+00;  0.0000000E+00;  0.0000000E+00;  0.0000000E+00;  0.0000000E+00;0;  0.0000000E+00;  1.0000000E+02;  0.0000000E+00;  0.0000000E+00;  1.0000000E+02;  0.0000000E+00;  1.0000000E+02;  0.0000000E+00;  0.0000000E+00;  0.0000000E+00;  0.0000000E+00;
 -8.0000001E-01;  9.9999998E-03;  1.2000000E+00;37;  0.0000000E+00;  0.0000000E+00;  0.0000000E+00;  1.0000000E+01;  4.0000001E-01;  0.0000000E+00;0;  0.0000000E+00;  0.0000000E+00;  0.0000000E+00;  0.0000000E+00;  0.0000000E+00;  0.0000000E+00;0;  0.0000000E+00;  1.0000000E+02;  0.0000000E+00;  0.0000000E+00;  1.0000000E+02;  0.0000000E+00;  1.0000000E+02;  0.0000000E+00;  0.0000000E+00;  0.0000000E+00;  0.0000000E+00;
 -8.0000001E-01;  9.9999998E-03;  1.4000000E+00;38;  0.0000000E+00;  0.0000000E+00;  0.0000000E+00;  1.0000000E+01;  4.0000001E-01;  0.0000000E+00;0;  0.0000000E+00;  0.0000000E+00;  0.0000000E+00;  0.0000000E+00;  0.0000000E+00;  0.0000000E+00;0;  0.0000000E+00;  1.0000000E+02;  0.0000000E+00;  0.0000000E+00;  1.0000000E+02;  0.0000000E+00;  1.0000000E+02;  0.0000000E+00;  0.0000000E+00;  0.0000000E+00;  0.0000000E+00;
 -6.0000002E-01;  9.9999998E-03;  0.0000000E+00;52;  0.0000000E+00;  0.0000000E+00;  0.0000000E+00;  1.0000000E+01;  4.0000001E-01;  0.0000000E+00;0;  0.0000000E+00;  0.0000000E+00;  0.0000000E+00;  0.0000000E+00;  0.0000000E+00;  0.0000000E+00;0;  0.0000000E+00;  1.0000000E+02;  0.0000000E+00;  0.0000000E+00;  1.0000000E+02;  0.0000000E+00;  1.0000000E+02;  0.0000000E+00;  0.0000000E+00;  0.0000000E+00;  0.0000000E+00;
 -6.0000002E-01;  9.9999998E-03;  2.0000000E-01;53;  0.0000000E+00;  0.0000000E+00;  0.0000000E+00;  1.0000000E+01;  4.0000001E-01;  0.0000000E+00;0;  0.0000000E+00;  0.0000000E+00;  0.0000000E+00;  0.0000000E+00;  0.0000000E+00;  0.0000000E+00;0;  0.0000000E+00;  1.0000000E+02;  0.0000000E+00;  0.0000000E+00;  1.0000000E+02;  0.0000000E+00;  1.0000000E+02;  0.0000000E+00;  0.0000000E+00;  0.0000000E+00;  0.0000000E+00;
 -6.0000002E-01;  9.9999998E-03;  4.0000001E-01;54;  0.0000000E+00;  0.0000000E+00;  0.0000000E+00;  1.0000000E+01;  4.0000001E-01;  0.0000000E+00;0;  0.0000000E+00;  0.0000000E+00;  0.0000000E+00;  0.0000000E+00;  0.0000000E+00;  0.0000000E+00;0;  0.0000000E+00;  1.0000000E+02;  0.0000000E+00;  0.0000000E+00;  1.0000000E+02;  0.0000000E+00;  1.0000000E+02;  0.0000000E+00;  0.0000000E+00;  0.0000000E+00;  0.0000000E+00;
 -6.0000002E-01;  9.9999998E-03;  6.0000002E-01;55;  0.0000000E+00;  0.0000000E+00;  0.0000000E+00;  1.0000000E+01;  4.0000001E-01;  0.0000000E+00;0;  0.0000000E+00;  0.0000000E+00;  0.0000000E+00;  0.0000000E+00;  0.0000000E+00;  0.0000000E+00;0;  0.0000000E+00;  1.0000000E+02;  0.0000000E+00;  0.0000000E+00;  1.0000000E+02;  0.0000000E+00;  1.0000000E+02;  0.0000000E+00;  0.0000000E+00;  0.0000000E+00;  0.0000000E+00;
 -6.0000002E-01;  9.9999998E-03;  8.0000001E-01;56;  0.0000000E+00;  0.0000000E+00;  0.0000000E+00;  1.0000000E+01;  4.0000001E-01;  0.0000000E+00;0;  0.0000000E+00;  0.0000000E+00;  0.0000000E+00;  0.0000000E+00;  0.0000000E+00;  0.0000000E+00;0;  0.0000000E+00;  1.0000000E+02;  0.0000000E+00;  0.0000000E+00;  1.0000000E+02;  0.0000000E+00;  1.0000000E+02;  0.0000000E+00;  0.0000000E+00;  0.0000000E+00;  0.0000000E+00;
 -6.0000002E-01;  9.9999998E-03;  1.0000000E+00;57;  0.0000000E+00;  0.0000000E+00;  0.0000000E+00;  1.0000000E+01;  4.0000001E-01;  0.0000000E+00;0;  0.0000000E+00;  0.0000000E+00;  0.0000000E+00;  0.0000000E+00;  0.0000000E+00;  0.0000000E+00;0;  0.0000000E+00;  1.0000000E+02;  0.0000000E+00;  0.0000000E+00;  1.0000000E+02;  0.0000000E+00;  1.0000000E+02;  0.0000000E+00;  0.0000000E+00;  0.0000000E+00;  0.0000000E+00;
 -6.0000002E-01;  9.9999998E-03;  1.2000000E+00;58;  0.0000000E+00;  0.0000000E+00;  0.0000000E+00;  1.0000000E+01;  4.0000001E-01;  0.0000000E+00;0;  0.0000000E+00;  0.0000000E+00;  0.0000000E+00;  0.0000000E+00;  0.0000000E+00;  0.0000000E+00;0;  0.0000000E+00;  1.0000000E+02;  0.0000000E+00;  0.0000000E+00;  1.0000000E+02;  0.0000000E+00;  1.0000000E+02;  0.0000000E+00;  0.0000000E+00;  0.0000000E+00;  0.0000000E+00;
 -6.0000002E-01;  9.9999998E-03;  1.4000000E+00;59;  0.0000000E+00;  0.0000000E+00;  0.0000000E+00;  1.0000000E+01;  4.0000001E-01;  0.0000000E+00;0;  0.0000000E+00;  0.0000000E+00;  0.0000000E+00;  0.0000000E+00;  0.0000000E+00;  0.0000000E+00;0;  0.0000000E+00;  1.0000000E+02;  0.0000000E+00;  0.0000000E+00;  1.0000000E+02;  0.0000000E+00;  1.0000000E+02;  0.0000000E+00;  0.0000000E+00;  0.0000000E+00;  0.0000000E+00;
 -4.0000001E-01;  9.9999998E-03;  0.0000000E+00;73;  0.0000000E+00;  0.0000000E+00;  0.0000000E+00;  1.0000000E+01;  4.0000001E-01;  0.0000000E+00;0;  0.0000000E+00;  0.0000000E+00;  0.0000000E+00;  0.0000000E+00;  0.0000000E+00;  0.0000000E+00;0;  0.0000000E+00;  1.0000000E+02;  0.0000000E+00;  0.0000000E+00;  1.0000000E+02;  0.0000000E+00;  1.0000000E+02;  0.0000000E+00;  0.0000000E+00;  0.0000000E+00;  0.0000000E+00;
 -4.0000001E-01;  9.9999998E-03;  2.0000000E-01;74;  0.0000000E+00;  0.0000000E+00;  0.0000000E+00;  1.0000000E+01;  4.0000001E-01;  0.0000000E+00;0;  0.0000000E+00;  0.0000000E+00;  0.0000000E+00;  0.0000000E+00;  0.0000000E+00;  0.0000000E+00;0;  0.0000000E+00;  1.0000000E+02;  0.0000000E+00;  0.0000000E+00;  1.0000000E+02;  0.0000000E+00;  1.0000000E+02;  0.0000000E+00;  0.0000000E+00;  0.0000000E+00;  0.0000000E+00;
 -4.0000001E-01;  9.9999998E-03;  4.0000001E-01;75;  0.0000000E+00;  0.0000000E+00;  0.0000000E+00;  1.0000000E+01;  4.0000001E-01;  0.0000000E+00;0;  0.0000000E+00;  0.0000000E+00;  0.0000000E+00;  0.0000000E+00;  0.0000000E+00;  0.0000000E+00;0;  0.0000000E+00;  1.0000000E+02;  0.0000000E+00;  0.0000000E+00;  1.0000000E+02;  0.0000000E+00;  1.0000000E+02;  0.0000000E+00;  0.0000000E+00;  0.0000000E+00;  0.0000000E+00;
 -4.0000001E-01;  9.9999998E-03;  6.0000002E-01;76;  0.0000000E+00;  0.0000000E+00;  0.0000000E+00;  1.0000000E+01;  4.0000001E-01;  0.0000000E+00;0;  0.0000000E+00;  0.0000000E+00;  0.0000000E+00;  0.0000000E+00;  0.0000000E+00;  0.0000000E+00;0;  0.0000000E+00;  1.0000000E+02;  0.0000000E+00;  0.0000000E+00;  1.0000000E+02;  0.0000000E+00;  1.0000000E+02;  0.0000000E+00;  0.0000000E+00;  0.0000000E+00;  0.0000000E+00;
 -4.0000001E-01;  9.9999998E-03;  8.0000001E-01;77;  0.0000000E+00;  0.0000000E+00;  0.0000000E+00;  1.0000000E+01;  4.0000001E-01;  0.0000000E+00;0;  0.0000000E+00;  0.0000000E+00;  0.0000000E+00;  0.0000000E+00;  0.0000000E+00;  0.0000000E+00;0;  0.0000000E+00;  1.0000000E+02;  0.0000000E+00;  0.0000000E+00;  1.0000000E+02;  0.0000000E+00;  1.0000000E+02;  0.0000000E+00;  0.0000000E+00;  0.0000000E+00;  0.0000000E+00;
 -4.0000001E-01;  9.9999998E-03;  1.0000000E+00;78;  0.0000000E+00;  0.0000000E+00;  0.0000000E+00;  1.0000000E+01;  4.0000001E-01;  0.0000000E+00;0;  0.0000000E+00;  0.0000000E+00;  0.0000000E+00;  0.0000000E+00;  0.0000000E+00;  0.0000000E+00;0;  0.0000000E+00;  1.0000000E+02;  0.0000000E+00;  0.0000000E+00;  1.0000000E+02;  0.0000000E+00;  1.0000000E+02;  0.0000000E+00;  0.0000000E+00;  0.0000000E+00;  0.0000000E+00;
 -4.0000001E-01;  9.9999998E-03;  1.2000000E+00;79;  0.0000000E+00;  0.0000000E+00;  0.0000000E+00;  1.0000000E+01;  4.0000001E-01;  0.0000000E+00;0;  0.0000000E+00;  0.0000000E+00;  0.0000000E+00;  0.0000000E+00;  0.0000000E+00;  0.0000000E+00;0;  0.0000000E+00;  1.0000000E+02;  0.0000000E+00;  0.0000000E+00;  1.0000000E+02;  0.0000000E+00;  1.0000000E+02;  0.0000000E+00;  0.0000000E+00;  0.0000000E+00;  0.0000000E+00;
 -4.0000001E-01;  9.9999998E-03;  1.4000000E+00;80;  0.0000000E+00;  0.0000000E+00;  0.0000000E+00;  1.0000000E+01;  4.0000001E-01;  0.0000000E+00;0;  0.0000000E+00;  0.0000000E+00;  0.0000000E+00;  0.0000000E+00;  0.0000000E+00;  0.0000000E+00;0;  0.0000000E+00;  1.0000000E+02;  0.0000000E+00;  0.0000000E+00;  1.0000000E+02;  0.0000000E+00;  1.0000000E+02;  0.0000000E+00;  0.0000000E+00;  0.0000000E+00;  0.0000000E+00;
 -2.0000000E-01;  9.9999998E-03;  0.0000000E+00;94;  0.0000000E+00;  0.0000000E+00;  0.0000000E+00;  1.0000000E+01;  4.0000001E-01;  0.0000000E+00;0;  0.0000000E+00;  0.0000000E+00;  0.0000000E+00;  0.0000000E+00;  0.0000000E+00;  0.0000000E+00;0;  0.0000000E+00;  1.0000000E+02;  0.0000000E+00;  0.0000000E+00;  1.0000000E+02;  0.0000000E+00;  1.0000000E+02;  0.0000000E+00;  0.0000000E+00;  0.0000000E+00;  0.0000000E+00;
 -2.0000000E-01;  9.9999998E-03;  2.0000000E-01;95;  0.0000000E+00;  0.0000000E+00;  0.0000000E+00;  1.0000000E+01;  4.0000001E-01;  0.0000000E+00;0;  0.0000000E+00;  0.0000000E+00;  0.0000000E+00;  0.0000000E+00;  0.0000000E+00;  0.0000000E+00;0;  0.0000000E+00;  1.0000000E+02;  0.0000000E+00;  0.0000000E+00;  1.0000000E+02;  0.0000000E+00;  1.0000000E+02;  0.0000000E+00;  0.0000000E+00;  0.0000000E+00;  0.0000000E+00;
 -2.0000000E-01;  9.9999998E-03;  4.0000001E-01;96;  0.0000000E+00;  0.0000000E+00;  0.0000000E+00;  1.0000000E+01;  4.0000001E-01;  0.0000000E+00;0;  0.0000000E+00;  0.0000000E+00;  0.0000000E+00;  0.0000000E+00;  0.0000000E+00;  0.0000000E+00;0;  0.0000000E+00;  1.0000000E+02;  0.0000000E+00;  0.0000000E+00;  1.0000000E+02;  0.0000000E+00;  1.0000000E+02;  0.0000000E+00;  0.0000000E+00;  0.0000000E+00;  0.0000000E+00;
 -2.0000000E-01;  9.9999998E-03;  6.0000002E-01;97;  0.0000000E+00;  0.0000000E+00;  0.0000000E+00;  1.0000000E+01;  4.0000001E-01;  0.0000000E+00;0;  0.0000000E+00;  0.0000000E+00;  0.0000000E+00;  0.0000000E+00;  0.0000000E+00;  0.0000000E+00;0;  0.0000000E+00;  1.0000000E+02;  0.0000000E+00;  0.0000000E+00;  1.0000000E+02;  0.0000000E+00;  1.0000000E+02;  0.0000000E+00;  0.0000000E+00;  0.0000000E+00;  0.0000000E+00;
 -2.0000000E-01;  9.9999998E-03;  8.0000001E-01;98;  0.0000000E+00;  0.0000000E+00;  0.0000000E+00;  1.0000000E+01;  4.0000001E-01;  0.0000000E+00;0;  0.0000000E+00;  0.0000000E+00;  0.0000000E+00;  0.0000000E+00;  0.0000000E+00;  0.0000000E+00;0;  0.0000000E+00;  1.0000000E+02;  0.0000000E+00;  0.0000000E+00;  1.0000000E+02;  0.0000000E+00;  1.0000000E+02;  0.0000000E+00;  0.0000000E+00;  0.0000000E+00;  0.0000000E+00;
 -2.0000000E-01;  9.9999998E-03;  1.0000000E+00;99;  0.0000000E+00;  0.0000000E+00;  0.0000000E+00;  1.0000000E+01;  4.0000001E-01;  0.0000000E+00;0;  0.0000000E+00;  0.0000000E+00;  0.0000000E+00;  0.0000000E+00;  0.0000000E+00;  0.0000000E+00;0;  0.0000000E+00;  1.0000000E+02;  0.0000000E+00;  0.0000000E+00;  1.0000000E+02;  0.0000000E+00;  1.0000000E+02;  0.0000000E+00;  0.0000000E+00;  0.0000000E+00;  0.0000000E+00;
 -2.0000000E-01;  9.9999998E-03;  1.2000000E+00;100;  0.0000000E+00;  0.0000000E+00;  0.0000000E+00;  1.0000000E+01;  4.0000001E-01;  0.0000000E+00;0;  0.0000000E+00;  0.0000000E+00;  0.0000000E+00;  0.0000000E+00;  0.0000000E+00;  0.0000000E+00;0;  0.0000000E+00;  1.0000000E+02;  0.0000000E+00;  0.0000000E+00;  1.0000000E+02;  0.0000000E+00;  1.0000000E+02;  0.0000000E+00;  0.0000000E+00;  0.0000000E+00;  0.0000000E+00;
 -2.0000000E-01;  9.9999998E-03;  1.4000000E+00;101;  0.0000000E+00;  0.0000000E+00;  0.0000000E+00;  1.0000000E+01;  4.0000001E-01;  0.0000000E+00;0;  0.0000000E+00;  0.0000000E+00;  0.0000000E+00;  0.0000000E+00;  0.0000000E+00;  0.0000000E+00;0;  0.0000000E+00;  1.0000000E+02;  0.0000000E+00;  0.0000000E+00;  1.0000000E+02;  0.0000000E+00;  1.0000000E+02;  0.0000000E+00;  0.0000000E+00;  0.0000000E+00;  0.0000000E+00;
  0.0000000E+00;  9.9999998E-03;  1.2000000E+00;110;  0.0000000E+00;  0.0000000E+00;  0.0000000E+00;  1.0000000E+01;  4.0000001E-01;  0.0000000E+00;0;  0.0000000E+00;  0.0000000E+00;  0.0000000E+00;  0.0000000E+00;  0.0000000E+00;  0.0000000E+00;0;  0.0000000E+00;  1.0000000E+02;  0.0000000E+00;  0.0000000E+00;  1.0000000E+02;  0.0000000E+00;  1.0000000E+02;  0.0000000E+00;  0.0000000E+00;  0.0000000E+00;  0.0000000E+00;
  0.0000000E+00;  9.9999998E-03;  1.4000000E+00;111;  0.0000000E+00;  0.0000000E+00;  0.0000000E+00;  1.0000000E+01;  4.0000001E-01;  0.0000000E+00;0;  0.0000000E+00;  0.0000000E+00;  0.0000000E+00;  0.0000000E+00;  0.0000000E+00;  0.0000000E+00;0;  0.0000000E+00;  1.0000000E+02;  0.0000000E+00;  0.0000000E+00;  1.0000000E+02;  0.0000000E+00;  1.0000000E+02;  0.0000000E+00;  0.0000000E+00;  0.0000000E+00;  0.0000000E+00;
  2.0000000E-01;  9.9999998E-03;  1.2000000E+00;120;  0.0000000E+00;  0.0000000E+00;  0.0000000E+00;  1.0000000E+01;  4.0000001E-01;  0.0000000E+00;0;  0.0000000E+00;  0.0000000E+00;  0.0000000E+00;  0.0000000E+00;  0.0000000E+00;  0.0000000E+00;0;  0.0000000E+00;  1.0000000E+02;  0.0000000E+00;  0.0000000E+00;  1.0000000E+02;  0.0000000E+00;  1.0000000E+02;  0.0000000E+00;  0.0000000E+00;  0.0000000E+00;  0.0000000E+00;
  2.0000000E-01;  9.9999998E-03;  1.4000000E+00;121;  0.0000000E+00;  0.0000000E+00;  0.0000000E+00;  1.0000000E+01;  4.0000001E-01;  0.0000000E+00;0;  0.0000000E+00;  0.0000000E+00;  0.0000000E+00;  0.0000000E+00;  0.0000000E+00;  0.0000000E+00;0;  0.0000000E+00;  1.0000000E+02;  0.0000000E+00;  0.0000000E+00;  1.0000000E+02;  0.0000000E+00;  1.0000000E+02;  0.0000000E+00;  0.0000000E+00;  0.0000000E+00;  0.0000000E+00;
  4.0000001E-01;  9.9999998E-03;  1.2000000E+00;130;  0.0000000E+00;  0.0000000E+00;  0.0000000E+00;  1.0000000E+01;  4.0000001E-01;  0.0000000E+00;0;  0.0000000E+00;  0.0000000E+00;  0.0000000E+00;  0.0000000E+00;  0.0000000E+00;  0.0000000E+00;0;  0.0000000E+00;  1.0000000E+02;  0.0000000E+00;  0.0000000E+00;  1.0000000E+02;  0.0000000E+00;  1.0000000E+02;  0.0000000E+00;  0.0000000E+00;  0.0000000E+00;  0.0000000E+00;
  4.0000001E-01;  9.9999998E-03;  1.4000000E+00;131;  0.0000000E+00;  0.0000000E+00;  0.0000000E+00;  1.0000000E+01;  4.0000001E-01;  0.0000000E+00;0;  0.0000000E+00;  0.0000000E+00;  0.0000000E+00;  0.0000000E+00;  0.0000000E+00;  0.0000000E+00;0;  0.0000000E+00;  1.0000000E+02;  0.0000000E+00;  0.0000000E+00;  1.0000000E+02;  0.0000000E+00;  1.0000000E+02;  0.0000000E+00;  0.0000000E+00;  0.0000000E+00;  0.0000000E+00;
  6.0000002E-01;  9.9999998E-03;  1.2000000E+00;140;  0.0000000E+00;  0.0000000E+00;  0.0000000E+00;  1.0000000E+01;  4.0000001E-01;  0.0000000E+00;0;  0.0000000E+00;  0.0000000E+00;  0.0000000E+00;  0.0000000E+00;  0.0000000E+00;  0.0000000E+00;0;  0.0000000E+00;  1.0000000E+02;  0.0000000E+00;  0.0000000E+00;  1.0000000E+02;  0.0000000E+00;  1.0000000E+02;  0.0000000E+00;  0.0000000E+00;  0.0000000E+00;  0.0000000E+00;
  6.0000002E-01;  9.9999998E-03;  1.4000000E+00;141;  0.0000000E+00;  0.0000000E+00;  0.0000000E+00;  1.0000000E+01;  4.0000001E-01;  0.0000000E+00;0;  0.0000000E+00;  0.0000000E+00;  0.0000000E+00;  0.0000000E+00;  0.0000000E+00;  0.0000000E+00;0;  0.0000000E+00;  1.0000000E+02;  0.0000000E+00;  0.0000000E+00;  1.0000000E+02;  0.0000000E+00;  1.0000000E+02;  0.0000000E+00;  0.0000000E+00;  0.0000000E+00;  0.0000000E+00;
  8.0000001E-01;  9.9999998E-03;  1.2000000E+00;150;  0.0000000E+00;  0.0000000E+00;  0.0000000E+00;  1.0000000E+01;  4.0000001E-01;  0.0000000E+00;0;  0.0000000E+00;  0.0000000E+00;  0.0000000E+00;  0.0000000E+00;  0.0000000E+00;  0.0000000E+00;0;  0.0000000E+00;  1.0000000E+02;  0.0000000E+00;  0.0000000E+00;  1.0000000E+02;  0.0000000E+00;  1.0000000E+02;  0.0000000E+00;  0.0000000E+00;  0.0000000E+00;  0.0000000E+00;
  8.0000001E-01;  9.9999998E-03;  1.4000000E+00;151;  0.0000000E+00;  0.0000000E+00;  0.0000000E+00;  1.0000000E+01;  4.0000001E-01;  0.0000000E+00;0;  0.0000000E+00;  0.0000000E+00;  0.0000000E+00;  0.0000000E+00;  0.0000000E+00;  0.0000000E+00;0;  0.0000000E+00;  1.0000000E+02;  0.0000000E+00;  0.0000000E+00;  1.0000000E+02;  0.0000000E+00;  1.0000000E+02;  0.0000000E+00;  0.0000000E+00;  0.0000000E+00;  0.0000000E+00;
  1.0000000E+00;  9.9999998E-03;  1.2000000E+00;160;  0.0000000E+00;  0.0000000E+00;  0.0000000E+00;  1.0000000E+01;  4.0000001E-01;  0.0000000E+00;0;  0.0000000E+00;  0.0000000E+00;  0.0000000E+00;  0.0000000E+00;  0.0000000E+00;  0.0000000E+00;0;  0.0000000E+00;  1.0000000E+02;  0.0000000E+00;  0.0000000E+00;  1.0000000E+02;  0.0000000E+00;  1.0000000E+02;  0.0000000E+00;  0.0000000E+00;  0.0000000E+00;  0.0000000E+00;
  1.0000000E+00;  9.9999998E-03;  1.4000000E+00;161;  0.0000000E+00;  0.0000000E+00;  0.0000000E+00;  1.0000000E+01;  4.0000001E-01;  0.0000000E+00;0;  0.0000000E+00;  0.0000000E+00;  0.0000000E+00;  0.0000000E+00;  0.0000000E+00;  0.0000000E+00;0;  0.0000000E+00;  1.0000000E+02;  0.0000000E+00;  0.0000000E+00;  1.0000000E+02;  0.0000000E+00;  1.0000000E+02;  0.0000000E+00;  0.0000000E+00;  0.0000000E+00;  0.0000000E+00;
 -1.0000000E+00;  9.9999998E-03;  1.6000000E+00;18;  0.0000000E+00;  0.0000000E+00;  0.0000000E+00;  1.0000000E+01;  4.0000001E-01;  0.0000000E+00;0;  0.0000000E+00;  0.0000000E+00;  0.0000000E+00;  0.0000000E+00;  0.0000000E+00;  0.0000000E+00;0;  0.0000000E+00;  1.0000000E+02;  0.0000000E+00;  0.0000000E+00;  1.0000000E+02;  0.0000000E+00;  1.0000000E+02;  0.0000000E+00;  0.0000000E+00;  0.0000000E+00;  0.0000000E+00;
 -1.0000000E+00;  9.9999998E-03;  1.8000000E+00;19;  0.0000000E+00;  0.0000000E+00;  0.0000000E+00;  1.0000000E+01;  4.0000001E-01;  0.0000000E+00;0;  0.0000000E+00;  0.0000000E+00;  0.0000000E+00;  0.0000000E+00;  0.0000000E+00;  0.0000000E+00;0;  0.0000000E+00;  1.0000000E+02;  0.0000000E+00;  0.0000000E+00;  1.0000000E+02;  0.0000000E+00;  1.0000000E+02;  0.0000000E+00;  0.0000000E+00;  0.0000000E+00;  0.0000000E+00;
 -1.0000000E+00;  9.9999998E-03;  2.0000000E+00;20;  0.0000000E+00;  0.0000000E+00;  0.0000000E+00;  1.0000000E+01;  4.0000001E-01;  0.0000000E+00;0;  0.0000000E+00;  0.0000000E+00;  0.0000000E+00;  0.0000000E+00;  0.0000000E+00;  0.0000000E+00;0;  0.0000000E+00;  1.0000000E+02;  0.0000000E+00;  0.0000000E+00;  1.0000000E+02;  0.0000000E+00;  1.0000000E+02;  0.0000000E+00;  0.0000000E+00;  0.0000000E+00;  0.0000000E+00;
 -8.0000001E-01;  9.9999998E-03;  1.6000000E+00;39;  0.0000000E+00;  0.0000000E+00;  0.0000000E+00;  1.0000000E+01;  4.0000001E-01;  0.0000000E+00;0;  0.0000000E+00;  0.0000000E+00;  0.0000000E+00;  0.0000000E+00;  0.0000000E+00;  0.0000000E+00;0;  0.0000000E+00;  1.0000000E+02;  0.0000000E+00;  0.0000000E+00;  1.0000000E+02;  0.0000000E+00;  1.0000000E+02;  0.0000000E+00;  0.0000000E+00;  0.0000000E+00;  0.0000000E+00;
 -8.0000001E-01;  9.9999998E-03;  1.8000000E+00;40;  0.0000000E+00;  0.0000000E+00;  0.0000000E+00;  1.0000000E+01;  4.0000001E-01;  0.0000000E+00;0;  0.0000000E+00;  0.0000000E+00;  0.0000000E+00;  0.0000000E+00;  0.0000000E+00;  0.0000000E+00;0;  0.0000000E+00;  1.0000000E+02;  0.0000000E+00;  0.0000000E+00;  1.0000000E+02;  0.0000000E+00;  1.0000000E+02;  0.0000000E+00;  0.0000000E+00;  0.0000000E+00;  0.0000000E+00;
 -8.0000001E-01;  9.9999998E-03;  2.0000000E+00;41;  0.0000000E+00;  0.0000000E+00;  0.0000000E+00;  1.0000000E+01;  4.0000001E-01;  0.0000000E+00;0;  0.0000000E+00;  0.0000000E+00;  0.0000000E+00;  0.0000000E+00;  0.0000000E+00;  0.0000000E+00;0;  0.0000000E+00;  1.0000000E+02;  0.0000000E+00;  0.0000000E+00;  1.0000000E+02;  0.0000000E+00;  1.0000000E+02;  0.0000000E+00;  0.0000000E+00;  0.0000000E+00;  0.0000000E+00;
 -6.0000002E-01;  9.9999998E-03;  1.6000000E+00;60;  0.0000000E+00;  0.0000000E+00;  0.0000000E+00;  1.0000000E+01;  4.0000001E-01;  0.0000000E+00;0;  0.0000000E+00;  0.0000000E+00;  0.0000000E+00;  0.0000000E+00;  0.0000000E+00;  0.0000000E+00;0;  0.0000000E+00;  1.0000000E+02;  0.0000000E+00;  0.0000000E+00;  1.0000000E+02;  0.0000000E+00;  1.0000000E+02;  0.0000000E+00;  0.0000000E+00;  0.0000000E+00;  0.0000000E+00;
 -6.0000002E-01;  9.9999998E-03;  1.8000000E+00;61;  0.0000000E+00;  0.0000000E+00;  0.0000000E+00;  1.0000000E+01;  4.0000001E-01;  0.0000000E+00;0;  0.0000000E+00;  0.0000000E+00;  0.0000000E+00;  0.0000000E+00;  0.0000000E+00;  0.0000000E+00;0;  0.0000000E+00;  1.0000000E+02;  0.0000000E+00;  0.0000000E+00;  1.0000000E+02;  0.0000000E+00;  1.0000000E+02;  0.0000000E+00;  0.0000000E+00;  0.0000000E+00;  0.0000000E+00;
 -6.0000002E-01;  9.9999998E-03;  2.0000000E+00;62;  0.0000000E+00;  0.0000000E+00;  0.0000000E+00;  1.0000000E+01;  4.0000001E-01;  0.0000000E+00;0;  0.0000000E+00;  0.0000000E+00;  0.0000000E+00;  0.0000000E+00;  0.0000000E+00;  0.0000000E+00;0;  0.0000000E+00;  1.0000000E+02;  0.0000000E+00;  0.0000000E+00;  1.0000000E+02;  0.0000000E+00;  1.0000000E+02;  0.0000000E+00;  0.0000000E+00;  0.0000000E+00;  0.0000000E+00;
 -4.0000001E-01;  9.9999998E-03;  1.6000000E+00;81;  0.0000000E+00;  0.0000000E+00;  0.0000000E+00;  1.0000000E+01;  4.0000001E-01;  0.0000000E+00;0;  0.0000000E+00;  0.0000000E+00;  0.0000000E+00;  0.0000000E+00;  0.0000000E+00;  0.0000000E+00;0;  0.0000000E+00;  1.0000000E+02;  0.0000000E+00;  0.0000000E+00;  1.0000000E+02;  0.0000000E+00;  1.0000000E+02;  0.0000000E+00;  0.0000000E+00;  0.0000000E+00;  0.0000000E+00;
 -4.0000001E-01;  9.9999998E-03;  1.8000000E+00;82;  0.0000000E+00;  0.0000000E+00;  0.0000000E+00;  1.0000000E+01;  4.0000001E-01;  0.0000000E+00;0;  0.0000000E+00;  0.0000000E+00;  0.0000000E+00;  0.0000000E+00;  0.0000000E+00;  0.0000000E+00;0;  0.0000000E+00;  1.0000000E+02;  0.0000000E+00;  0.0000000E+00;  1.0000000E+02;  0.0000000E+00;  1.0000000E+02;  0.0000000E+00;  0.0000000E+00;  0.0000000E+00;  0.0000000E+00;
 -4.0000001E-01;  9.9999998E-03;  2.0000000E+00;83;  0.0000000E+00;  0.0000000E+00;  0.0000000E+00;  1.0000000E+01;  4.0000001E-01;  0.0000000E+00;0;  0.0000000E+00;  0.0000000E+00;  0.0000000E+00;  0.0000000E+00;  0.0000000E+00;  0.0000000E+00;0;  0.0000000E+00;  1.0000000E+02;  0.0000000E+00;  0.0000000E+00;  1.0000000E+02;  0.0000000E+00;  1.0000000E+02;  0.0000000E+00;  0.0000000E+00;  0.0000000E+00;  0.0000000E+00;
 -2.0000000E-01;  9.9999998E-03;  1.6000000E+00;102;  0.0000000E+00;  0.0000000E+00;  0.0000000E+00;  1.0000000E+01;  4.0000001E-01;  0.0000000E+00;0;  0.0000000E+00;  0.0000000E+00;  0.0000000E+00;  0.0000000E+00;  0.0000000E+00;  0.0000000E+00;0;  0.0000000E+00;  1.0000000E+02;  0.0000000E+00;  0.0000000E+00;  1.0000000E+02;  0.0000000E+00;  1.0000000E+02;  0.0000000E+00;  0.0000000E+00;  0.0000000E+00;  0.0000000E+00;
 -2.0000000E-01;  9.9999998E-03;  1.8000000E+00;103;  0.0000000E+00;  0.0000000E+00;  0.0000000E+00;  1.0000000E+01;  4.0000001E-01;  0.0000000E+00;0;  0.0000000E+00;  0.0000000E+00;  0.0000000E+00;  0.0000000E+00;  0.0000000E+00;  0.0000000E+00;0;  0.0000000E+00;  1.0000000E+02;  0.0000000E+00;  0.0000000E+00;  1.0000000E+02;  0.0000000E+00;  1.0000000E+02;  0.0000000E+00;  0.0000000E+00;  0.0000000E+00;  0.0000000E+00;
 -2.0000000E-01;  9.9999998E-03;  2.0000000E+00;104;  0.0000000E+00;  0.0000000E+00;  0.0000000E+00;  1.0000000E+01;  4.0000001E-01;  0.0000000E+00;0;  0.0000000E+00;  0.0000000E+00;  0.0000000E+00;  0.0000000E+00;  0.0000000E+00;  0.0000000E+00;0;  0.0000000E+00;  1.0000000E+02;  0.0000000E+00;  0.0000000E+00;  1.0000000E+02;  0.0000000E+00;  1.0000000E+02;  0.0000000E+00;  0.0000000E+00;  0.0000000E+00;  0.0000000E+00;
  0.0000000E+00;  9.9999998E-03;  1.6000000E+00;112;  0.0000000E+00;  0.0000000E+00;  0.0000000E+00;  1.0000000E+01;  4.0000001E-01;  0.0000000E+00;0;  0.0000000E+00;  0.0000000E+00;  0.0000000E+00;  0.0000000E+00;  0.0000000E+00;  0.0000000E+00;0;  0.0000000E+00;  1.0000000E+02;  0.0000000E+00;  0.0000000E+00;  1.0000000E+02;  0.0000000E+00;  1.0000000E+02;  0.0000000E+00;  0.0000000E+00;  0.0000000E+00;  0.0000000E+00;
  0.0000000E+00;  9.9999998E-03;  1.8000000E+00;113;  0.0000000E+00;  0.0000000E+00;  0.0000000E+00;  1.0000000E+01;  4.0000001E-01;  0.0000000E+00;0;  0.0000000E+00;  0.0000000E+00;  0.0000000E+00;  0.0000000E+00;  0.0000000E+00;  0.0000000E+00;0;  0.0000000E+00;  1.0000000E+02;  0.0000000E+00;  0.0000000E+00;  1.0000000E+02;  0.0000000E+00;  1.0000000E+02;  0.0000000E+00;  0.0000000E+00;  0.0000000E+00;  0.0000000E+00;
  0.0000000E+00;  9.9999998E-03;  2.0000000E+00;114;  0.0000000E+00;  0.0000000E+00;  0.0000000E+00;  1.0000000E+01;  4.0000001E-01;  0.0000000E+00;0;  0.0000000E+00;  0.0000000E+00;  0.0000000E+00;  0.0000000E+00;  0.0000000E+00;  0.0000000E+00;0;  0.0000000E+00;  1.0000000E+02;  0.0000000E+00;  0.0000000E+00;  1.0000000E+02;  0.0000000E+00;  1.0000000E+02;  0.0000000E+00;  0.0000000E+00;  0.0000000E+00;  0.0000000E+00;
  2.0000000E-01;  9.9999998E-03;  1.6000000E+00;122;  0.0000000E+00;  0.0000000E+00;  0.0000000E+00;  1.0000000E+01;  4.0000001E-01;  0.0000000E+00;0;  0.0000000E+00;  0.0000000E+00;  0.0000000E+00;  0.0000000E+00;  0.0000000E+00;  0.0000000E+00;0;  0.0000000E+00;  1.0000000E+02;  0.0000000E+00;  0.0000000E+00;  1.0000000E+02;  0.0000000E+00;  1.0000000E+02;  0.0000000E+00;  0.0000000E+00;  0.0000000E+00;  0.0000000E+00;
  2.0000000E-01;  9.9999998E-03;  1.8000000E+00;123;  0.0000000E+00;  0.0000000E+00;  0.0000000E+00;  1.0000000E+01;  4.0000001E-01;  0.0000000E+00;0;  0.0000000E+00;  0.0000000E+00;  0.0000000E+00;  0.0000000E+00;  0.0000000E+00;  0.0000000E+00;0;  0.0000000E+00;  1.0000000E+02;  0.0000000E+00;  0.0000000E+00;  1.0000000E+02;  0.0000000E+00;  1.0000000E+02;  0.0000000E+00;  0.0000000E+00;  0.0000000E+00;  0.0000000E+00;
  2.0000000E-01;  9.9999998E-03;  2.0000000E+00;124;  0.0000000E+00;  0.0000000E+00;  0.0000000E+00;  1.0000000E+01;  4.0000001E-01;  0.0000000E+00;0;  0.0000000E+00;  0.0000000E+00;  0.0000000E+00;  0.0000000E+00;  0.0000000E+00;  0.0000000E+00;0;  0.0000000E+00;  1.0000000E+02;  0.0000000E+00;  0.0000000E+00;  1.0000000E+02;  0.0000000E+00;  1.0000000E+02;  0.0000000E+00;  0.0000000E+00;  0.0000000E+00;  0.0000000E+00;
  4.0000001E-01;  9.9999998E-03;  1.6000000E+00;132;  0.0000000E+00;  0.0000000E+00;  0.0000000E+00;  1.0000000E+01;  4.0000001E-01;  0.0000000E+00;0;  0.0000000E+00;  0.0000000E+00;  0.0000000E+00;  0.0000000E+00;  0.0000000E+00;  0.0000000E+00;0;  0.0000000E+00;  1.0000000E+02;  0.0000000E+00;  0.0000000E+00;  1.0000000E+02;  0.0000000E+00;  1.0000000E+02;  0.0000000E+00;  0.0000000E+00;  0.0000000E+00;  0.0000000E+00;
  4.0000001E-01;  9.9999998E-03;  1.8000000E+00;133;  0.0000000E+00;  0.0000000E+00;  0.0000000E+00;  1.0000000E+01;  4.0000001E-01;  0.0000000E+00;0;  0.0000000E+00;  0.0000000E+00;  0.0000000E+00;  0.0000000E+00;  0.0000000E+00;  0.0000000E+00;0;  0.0000000E+00;  1.0000000E+02;  0.0000000E+00;  0.0000000E+00;  1.0000000E+02;  0.0000000E+00;  1.0000000E+02;  0.0000000E+00;  0.0000000E+00;  0.0000000E+00;  0.0000000E+00;
  4.0000001E-01;  9.9999998E-03;  2.0000000E+00;134;  0.0000000E+00;  0.0000000E+00;  0.0000000E+00;  1.0000000E+01;  4.0000001E-01;  0.0000000E+00;0;  0.0000000E+00;  0.0000000E+00;  0.0000000E+00;  0.0000000E+00;  0.0000000E+00;  0.0000000E+00;0;  0.0000000E+00;  1.0000000E+02;  0.0000000E+00;  0.0000000E+00;  1.0000000E+02;  0.0000000E+00;  1.0000000E+02;  0.0000000E+00;  0.0000000E+00;  0.0000000E+00;  0.0000000E+00;
  6.0000002E-01;  9.9999998E-03;  1.6000000E+00;142;  0.0000000E+00;  0.0000000E+00;  0.0000000E+00;  1.0000000E+01;  4.0000001E-01;  0.0000000E+00;0;  0.0000000E+00;  0.0000000E+00;  0.0000000E+00;  0.0000000E+00;  0.0000000E+00;  0.0000000E+00;0;  0.0000000E+00;  1.0000000E+02;  0.0000000E+00;  0.0000000E+00;  1.0000000E+02;  0.0000000E+00;  1.0000000E+02;  0.0000000E+00;  0.0000000E+00;  0.0000000E+00;  0.0000000E+00;
  6.0000002E-01;  9.9999998E-03;  1.8000000E+00;143;  0.0000000E+00;  0.0000000E+00;  0.0000000E+00;  1.0000000E+01;  4.0000001E-01;  0.0000000E+00;0;  0.0000000E+00;  0.0000000E+00;  0.0000000E+00;  0.0000000E+00;  0.0000000E+00;  0.0000000E+00;0;  0.0000000E+00;  1.0000000E+02;  0.0000000E+00;  0.0000000E+00;  1.0000000E+02;  0.0000000E+00;  1.0000000E+02;  0.0000000E+00;  0.0000000E+00;  0.0000000E+00;  0.0000000E+00;
  6.0000002E-01;  9.9999998E-03;  2.0000000E+00;144;  0.0000000E+00;  0.0000000E+00;  0.0000000E+00;  1.0000000E+01;  4.0000001E-01;  0.0000000E+00;0;  0.0000000E+00;  0.0000000E+00;  0.0000000E+00;  0.0000000E+00;  0.0000000E+00;  0.0000000E+00;0;  0.0000000E+00;  1.0000000E+02;  0.0000000E+00;  0.0000000E+00;  1.0000000E+02;  0.0000000E+00;  1.0000000E+02;  0.0000000E+00;  0.0000000E+00;  0.0000000E+00;  0.0000000E+00;
  8.0000001E-01;  9.9999998E-03;  1.6000000E+00;152;  0.0000000E+00;  0.0000000E+00;  0.0000000E+00;  1.0000000E+01;  4.0000001E-01;  0.0000000E+00;0;  0.0000000E+00;  0.0000000E+00;  0.0000000E+00;  0.0000000E+00;  0.0000000E+00;  0.0000000E+00;0;  0.0000000E+00;  1.0000000E+02;  0.0000000E+00;  0.0000000E+00;  1.0000000E+02;  0.0000000E+00;  1.0000000E+02;  0.0000000E+00;  0.0000000E+00;  0.0000000E+00;  0.0000000E+00;
  8.0000001E-01;  9.9999998E-03;  1.8000000E+00;153;  0.0000000E+00;  0.0000000E+00;  0.0000000E+00;  1.0000000E+01;  4.0000001E-01;  0.0000000E+00;0;  0.0000000E+00;  0.0000000E+00;  0.0000000E+00;  0.0000000E+00;  0.0000000E+00;  0.0000000E+00;0;  0.0000000E+00;  1.0000000E+02;  0.0000000E+00;  0.0000000E+00;  1.0000000E+02;  0.0000000E+00;  1.0000000E+02;  0.0000000E+00;  0.0000000E+00;  0.0000000E+00;  0.0000000E+00;
  8.0000001E-01;  9.9999998E-03;  2.0000000E+00;154;  0.0000000E+00;  0.0000000E+00;  0.0000000E+00;  1.0000000E+01;  4.0000001E-01;  0.0000000E+00;0;  0.0000000E+00;  0.0000000E+00;  0.0000000E+00;  0.0000000E+00;  0.0000000E+00;  0.0000000E+00;0;  0.0000000E+00;  1.0000000E+02;  0.0000000E+00;  0.0000000E+00;  1.0000000E+02;  0.0000000E+00;  1.0000000E+02;  0.0000000E+00;  0.0000000E+00;  0.0000000E+00;  0.0000000E+00;
  1.0000000E+00;  9.9999998E-03;  1.6000000E+00;162;  0.0000000E+00;  0.0000000E+00;  0.0000000E+00;  1.0000000E+01;  4.0000001E-01;  0.0000000E+00;0;  0.0000000E+00;  0.0000000E+00;  0.0000000E+00;  0.0000000E+00;  0.0000000E+00;  0.0000000E+00;0;  0.0000000E+00;  1.0000000E+02;  0.0000000E+00;  0.0000000E+00;  1.0000000E+02;  0.0000000E+00;  1.0000000E+02;  0.0000000E+00;  0.0000000E+00;  0.0000000E+00;  0.0000000E+00;
  1.0000000E+00;  9.9999998E-03;  1.8000000E+00;163;  0.0000000E+00;  0.0000000E+00;  0.0000000E+00;  1.0000000E+01;  4.0000001E-01;  0.0000000E+00;0;  0.0000000E+00;  0.0000000E+00;  0.0000000E+00;  0.0000000E+00;  0.0000000E+00;  0.0000000E+00;0;  0.0000000E+00;  1.0000000E+02;  0.0000000E+00;  0.0000000E+00;  1.0000000E+02;  0.0000000E+00;  1.0000000E+02;  0.0000000E+00;  0.0000000E+00;  0.0000000E+00;  0.0000000E+00;
  1.0000000E+00;  9.9999998E-03;  2.0000000E+00;164;  0.0000000E+00;  0.0000000E+00;  0.0000000E+00;  1.0000000E+01;  4.0000001E-01;  0.0000000E+00;0;  0.0000000E+00;  0.0000000E+00;  0.0000000E+00;  0.0000000E+00;  0.0000000E+00;  0.0000000E+00;0;  0.0000000E+00;  1.0000000E+02;  0.0000000E+00;  0.0000000E+00;  1.0000000E+02;  0.0000000E+00;  1.0000000E+02;  0.0000000E+00;  0.0000000E+00;  0.0000000E+00;  0.0000000E+00;
  0.0000000E+00;  9.9999998E-03; -1.0000000E+00;165;  0.0000000E+00;  0.0000000E+00;  0.0000000E+00;  1.0000000E+01;  4.0000001E-01;  0.0000000E+00;3;  0.0000000E+00;  0.0000000E+00;  0.0000000E+00;  0.0000000E+00;  0.0000000E+00;  0.0000000E+00;0;  0.0000000E+00;  1.0000000E+02;  0.0000000E+00;  0.0000000E+00;  1.0000000E+02;  0.0000000E+00;  1.0000000E+02;  0.0000000E+00;  0.0000000E+00;  0.0000000E+00;  0.0000000E+00;
  0.0000000E+00;  9.9999998E-03; -8.0000001E-01;166;  0.0000000E+00;  0.0000000E+00;  0.0000000E+00;  1.0000000E+01;  4.0000001E-01;  0.0000000E+00;3;  0.0000000E+00;  0.0000000E+00;  0.0000000E+00;  0.0000000E+00;  0.0000000E+00;  0.0000000E+00;0;  0.0000000E+00;  1.0000000E+02;  0.0000000E+00;  0.0000000E+00;  1.0000000E+02;  0.0000000E+00;  1.0000000E+02;  0.0000000E+00;  0.0000000E+00;  0.0000000E+00;  0.0000000E+00;
  0.0000000E+00;  9.9999998E-03; -6.0000002E-01;167;  0.0000000E+00;  0.0000000E+00;  0.0000000E+00;  1.0000000E+01;  4.0000001E-01;  0.0000000E+00;3;  0.0000000E+00;  0.0000000E+00;  0.0000000E+00;  0.0000000E+00;  0.0000000E+00;  0.0000000E+00;0;  0.0000000E+00;  1.0000000E+02;  0.0000000E+00;  0.0000000E+00;  1.0000000E+02;  0.0000000E+00;  1.0000000E+02;  0.0000000E+00;  0.0000000E+00;  0.0000000E+00;  0.0000000E+00;
  0.0000000E+00;  9.9999998E-03; -4.0000001E-01;168;  0.0000000E+00;  0.0000000E+00;  0.0000000E+00;  1.0000000E+01;  4.0000001E-01;  0.0000000E+00;3;  0.0000000E+00;  0.0000000E+00;  0.0000000E+00;  0.0000000E+00;  0.0000000E+00;  0.0000000E+00;0;  0.0000000E+00;  1.0000000E+02;  0.0000000E+00;  0.0000000E+00;  1.0000000E+02;  0.0000000E+00;  1.0000000E+02;  0.0000000E+00;  0.0000000E+00;  0.0000000E+00;  0.0000000E+00;
  0.0000000E+00;  9.9999998E-03; -2.0000000E-01;169;  0.0000000E+00;  0.0000000E+00;  0.0000000E+00;  1.0000000E+01;  4.0000001E-01;  0.0000000E+00;3;  0.0000000E+00;  0.0000000E+00;  0.0000000E+00;  0.0000000E+00;  0.0000000E+00;  0.0000000E+00;0;  0.0000000E+00;  1.0000000E+02;  0.0000000E+00;  0.0000000E+00;  1.0000000E+02;  0.0000000E+00;  1.0000000E+02;  0.0000000E+00;  0.0000000E+00;  0.0000000E+00;  0.0000000E+00;
  2.0000000E-01;  9.9999998E-03; -1.0000000E+00;176;  0.0000000E+00;  0.0000000E+00;  0.0000000E+00;  1.0000000E+01;  4.0000001E-01;  0.0000000E+00;3;  0.0000000E+00;  0.0000000E+00;  0.0000000E+00;  0.0000000E+00;  0.0000000E+00;  0.0000000E+00;0;  0.0000000E+00;  1.0000000E+02;  0.0000000E+00;  0.0000000E+00;  1.0000000E+02;  0.0000000E+00;  1.0000000E+02;  0.0000000E+00;  0.0000000E+00;  0.0000000E+00;  0.0000000E+00;
  2.0000000E-01;  9.9999998E-03; -8.0000001E-01;177;  0.0000000E+00;  0.0000000E+00;  0.0000000E+00;  1.0000000E+01;  4.0000001E-01;  0.0000000E+00;3;  0.0000000E+00;  0.0000000E+00;  0.0000000E+00;  0.0000000E+00;  0.0000000E+00;  0.0000000E+00;0;  0.0000000E+00;  1.0000000E+02;  0.0000000E+00;  0.0000000E+00;  1.0000000E+02;  0.0000000E+00;  1.0000000E+02;  0.0000000E+00;  0.0000000E+00;  0.0000000E+00;  0.0000000E+00;
  2.0000000E-01;  9.9999998E-03; -6.0000002E-01;178;  0.0000000E+00;  0.0000000E+00;  0.0000000E+00;  1.0000000E+01;  4.0000001E-01;  0.0000000E+00;3;  0.0000000E+00;  0.0000000E+00;  0.0000000E+00;  0.0000000E+00;  0.0000000E+00;  0.0000000E+00;0;  0.0000000E+00;  1.0000000E+02;  0.0000000E+00;  0.0000000E+00;  1.0000000E+02;  0.0000000E+00;  1.0000000E+02;  0.0000000E+00;  0.0000000E+00;  0.0000000E+00;  0.0000000E+00;
  2.0000000E-01;  9.9999998E-03; -4.0000001E-01;179;  0.0000000E+00;  0.0000000E+00;  0.0000000E+00;  1.0000000E+01;  4.0000001E-01;  0.0000000E+00;3;  0.0000000E+00;  0.0000000E+00;  0.0000000E+00;  0.0000000E+00;  0.0000000E+00;  0.0000000E+00;0;  0.0000000E+00;  1.0000000E+02;  0.0000000E+00;  0.0000000E+00;  1.0000000E+02;  0.0000000E+00;  1.0000000E+02;  0.0000000E+00;  0.0000000E+00;  0.0000000E+00;  0.0000000E+00;
  2.0000000E-01;  9.9999998E-03; -2.0000000E-01;180;  0.0000000E+00;  0.0000000E+00;  0.0000000E+00;  1.0000000E+01;  4.0000001E-01;  0.0000000E+00;3;  0.0000000E+00;  0.0000000E+00;  0.0000000E+00;  0.0000000E+00;  0.0000000E+00;  0.0000000E+00;0;  0.0000000E+00;  1.0000000E+02;  0.0000000E+00;  0.0000000E+00;  1.0000000E+02;  0.0000000E+00;  1.0000000E+02;  0.0000000E+00;  0.0000000E+00;  0.0000000E+00;  0.0000000E+00;
  4.0000001E-01;  9.9999998E-03; -1.0000000E+00;187;  0.0000000E+00;  0.0000000E+00;  0.0000000E+00;  1.0000000E+01;  4.0000001E-01;  0.0000000E+00;3;  0.0000000E+00;  0.0000000E+00;  0.0000000E+00;  0.0000000E+00;  0.0000000E+00;  0.0000000E+00;0;  0.0000000E+00;  1.0000000E+02;  0.0000000E+00;  0.0000000E+00;  1.0000000E+02;  0.0000000E+00;  1.0000000E+02;  0.0000000E+00;  0.0000000E+00;  0.0000000E+00;  0.0000000E+00;
  4.0000001E-01;  9.9999998E-03; -8.0000001E-01;188;  0.0000000E+00;  0.0000000E+00;  0.0000000E+00;  1.0000000E+01;  4.0000001E-01;  0.0000000E+00;3;  0.0000000E+00;  0.0000000E+00;  0.0000000E+00;  0.0000000E+00;  0.0000000E+00;  0.0000000E+00;0;  0.0000000E+00;  1.0000000E+02;  0.0000000E+00;  0.0000000E+00;  1.0000000E+02;  0.0000000E+00;  1.0000000E+02;  0.0000000E+00;  0.0000000E+00;  0.0000000E+00;  0.0000000E+00;
  4.0000001E-01;  9.9999998E-03; -6.0000002E-01;189;  0.0000000E+00;  0.0000000E+00;  0.0000000E+00;  1.0000000E+01;  4.0000001E-01;  0.0000000E+00;3;  0.0000000E+00;  0.0000000E+00;  0.0000000E+00;  0.0000000E+00;  0.0000000E+00;  0.0000000E+00;0;  0.0000000E+00;  1.0000000E+02;  0.0000000E+00;  0.0000000E+00;  1.0000000E+02;  0.0000000E+00;  1.0000000E+02;  0.0000000E+00;  0.0000000E+00;  0.0000000E+00;  0.0000000E+00;
  4.0000001E-01;  9.9999998E-03; -4.0000001E-01;190;  0.0000000E+00;  0.0000000E+00;  0.0000000E+00;  1.0000000E+01;  4.0000001E-01;  0.0000000E+00;3;  0.0000000E+00;  0.0000000E+00;  0.0000000E+00;  0.0000000E+00;  0.0000000E+00;  0.0000000E+00;0;  0.0000000E+00;  1.0000000E+02;  0.0000000E+00;  0.0000000E+00;  1.0000000E+02;  0.0000000E+00;  1.0000000E+02;  0.0000000E+00;  0.0000000E+00;  0.0000000E+00;  0.0000000E+00;
  4.0000001E-01;  9.9999998E-03; -2.0000000E-01;191;  0.0000000E+00;  0.0000000E+00;  0.0000000E+00;  1.0000000E+01;  4.0000001E-01;  0.0000000E+00;3;  0.0000000E+00;  0.0000000E+00;  0.0000000E+00;  0.0000000E+00;  0.0000000E+00;  0.0000000E+00;0;  0.0000000E+00;  1.0000000E+02;  0.0000000E+00;  0.0000000E+00;  1.0000000E+02;  0.0000000E+00;  1.0000000E+02;  0.0000000E+00;  0.0000000E+00;  0.0000000E+00;  0.0000000E+00;
  6.0000002E-01;  9.9999998E-03; -1.0000000E+00;198;  0.0000000E+00;  0.0000000E+00;  0.0000000E+00;  1.0000000E+01;  4.0000001E-01;  0.0000000E+00;3;  0.0000000E+00;  0.0000000E+00;  0.0000000E+00;  0.0000000E+00;  0.0000000E+00;  0.0000000E+00;0;  0.0000000E+00;  1.0000000E+02;  0.0000000E+00;  0.0000000E+00;  1.0000000E+02;  0.0000000E+00;  1.0000000E+02;  0.0000000E+00;  0.0000000E+00;  0.0000000E+00;  0.0000000E+00;
  6.0000002E-01;  9.9999998E-03; -8.0000001E-01;199;  0.0000000E+00;  0.0000000E+00;  0.0000000E+00;  1.0000000E+01;  4.0000001E-01;  0.0000000E+00;3;  0.0000000E+00;  0.0000000E+00;  0.0000000E+00;  0.0000000E+00;  0.0000000E+00;  0.0000000E+00;0;  0.0000000E+00;  1.0000000E+02;  0.0000000E+00;  0.0000000E+00;  1.0000000E+02;  0.0000000E+00;  1.0000000E+02;  0.0000000E+00;  0.0000000E+00;  0.0000000E+00;  0.0000000E+00;
  6.0000002E-01;  9.9999998E-03; -6.0000002E-01;200;  0.0000000E+00;  0.0000000E+00;  0.0000000E+00;  1.0000000E+01;  4.0000001E-01;  0.0000000E+00;3;  0.0000000E+00;  0.0000000E+00;  0.0000000E+00;  0.0000000E+00;  0.0000000E+00;  0.0000000E+00;0;  0.0000000E+00;  1.0000000E+02;  0.0000000E+00;  0.0000000E+00;  1.0000000E+02;  0.0000000E+00;  1.0000000E+02;  0.0000000E+00;  0.0000000E+00;  0.0000000E+00;  0.0000000E+00;
  6.0000002E-01;  9.9999998E-03; -4.0000001E-01;201;  0.0000000E+00;  0.0000000E+00;  0.0000000E+00;  1.0000000E+01;  4.0000001E-01;  0.0000000E+00;3;  0.0000000E+00;  0.0000000E+00;  0.0000000E+00;  0.0000000E+00;  0.0000000E+00;  0.0000000E+00;0;  0.0000000E+00;  1.0000000E+02;  0.0000000E+00;  0.0000000E+00;  1.0000000E+02;  0.0000000E+00;  1.0000000E+02;  0.0000000E+00;  0.0000000E+00;  0.0000000E+00;  0.0000000E+00;
  6.0000002E-01;  9.9999998E-03; -2.0000000E-01;202;  0.0000000E+00;  0.0000000E+00;  0.0000000E+00;  1.0000000E+01;  4.0000001E-01;  0.0000000E+00;3;  0.0000000E+00;  0.0000000E+00;  0.0000000E+00;  0.0000000E+00;  0.0000000E+00;  0.0000000E+00;0;  0.0000000E+00;  1.0000000E+02;  0.0000000E+00;  0.0000000E+00;  1.0000000E+02;  0.0000000E+00;  1.0000000E+02;  0.0000000E+00;  0.0000000E+00;  0.0000000E+00;  0.0000000E+00;
  8.0000001E-01;  9.9999998E-03; -1.0000000E+00;209;  0.0000000E+00;  0.0000000E+00;  0.0000000E+00;  1.0000000E+01;  4.0000001E-01;  0.0000000E+00;3;  0.0000000E+00;  0.0000000E+00;  0.0000000E+00;  0.0000000E+00;  0.0000000E+00;  0.0000000E+00;0;  0.0000000E+00;  1.0000000E+02;  0.0000000E+00;  0.0000000E+00;  1.0000000E+02;  0.0000000E+00;  1.0000000E+02;  0.0000000E+00;  0.0000000E+00;  0.0000000E+00;  0.0000000E+00;
  8.0000001E-01;  9.9999998E-03; -8.0000001E-01;210;  0.0000000E+00;  0.0000000E+00;  0.0000000E+00;  1.0000000E+01;  4.0000001E-01;  0.0000000E+00;3;  0.0000000E+00;  0.0000000E+00;  0.0000000E+00;  0.0000000E+00;  0.0000000E+00;  0.0000000E+00;0;  0.0000000E+00;  1.0000000E+02;  0.0000000E+00;  0.0000000E+00;  1.0000000E+02;  0.0000000E+00;  1.0000000E+02;  0.0000000E+00;  0.0000000E+00;  0.0000000E+00;  0.0000000E+00;
  8.0000001E-01;  9.9999998E-03; -6.0000002E-01;211;  0.0000000E+00;  0.0000000E+00;  0.0000000E+00;  1.0000000E+01;  4.0000001E-01;  0.0000000E+00;3;  0.0000000E+00;  0.0000000E+00;  0.0000000E+00;  0.0000000E+00;  0.0000000E+00;  0.0000000E+00;0;  0.0000000E+00;  1.0000000E+02;  0.0000000E+00;  0.0000000E+00;  1.0000000E+02;  0.0000000E+00;  1.0000000E+02;  0.0000000E+00;  0.0000000E+00;  0.0000000E+00;  0.0000000E+00;
  8.0000001E-01;  9.9999998E-03; -4.0000001E-01;212;  0.0000000E+00;  0.0000000E+00;  0.0000000E+00;  1.0000000E+01;  4.0000001E-01;  0.0000000E+00;3;  0.0000000E+00;  0.0000000E+00;  0.0000000E+00;  0.0000000E+00;  0.0000000E+00;  0.0000000E+00;0;  0.0000000E+00;  1.0000000E+02;  0.0000000E+00;  0.0000000E+00;  1.0000000E+02;  0.0000000E+00;  1.0000000E+02;  0.0000000E+00;  0.0000000E+00;  0.0000000E+00;  0.0000000E+00;
  8.0000001E-01;  9.9999998E-03; -2.0000000E-01;213;  0.0000000E+00;  0.0000000E+00;  0.0000000E+00;  1.0000000E+01;  4.0000001E-01;  0.0000000E+00;3;  0.0000000E+00;  0.0000000E+00;  0.0000000E+00;  0.0000000E+00;  0.0000000E+00;  0.0000000E+00;0;  0.0000000E+00;  1.0000000E+02;  0.0000000E+00;  0.0000000E+00;  1.0000000E+02;  0.0000000E+00;  1.0000000E+02;  0.0000000E+00;  0.0000000E+00;  0.0000000E+00;  0.0000000E+00;
  1.0000000E+00;  9.9999998E-03; -1.0000000E+00;220;  0.0000000E+00;  0.0000000E+00;  0.0000000E+00;  1.0000000E+01;  4.0000001E-01;  0.0000000E+00;3;  0.0000000E+00;  0.0000000E+00;  0.0000000E+00;  0.0000000E+00;  0.0000000E+00;  0.0000000E+00;0;  0.0000000E+00;  1.0000000E+02;  0.0000000E+00;  0.0000000E+00;  1.0000000E+02;  0.0000000E+00;  1.0000000E+02;  0.0000000E+00;  0.0000000E+00;  0.0000000E+00;  0.0000000E+00;
  1.0000000E+00;  9.9999998E-03; -8.0000001E-01;221;  0.0000000E+00;  0.0000000E+00;  0.0000000E+00;  1.0000000E+01;  4.0000001E-01;  0.0000000E+00;3;  0.0000000E+00;  0.0000000E+00;  0.0000000E+00;  0.0000000E+00;  0.0000000E+00;  0.0000000E+00;0;  0.0000000E+00;  1.0000000E+02;  0.0000000E+00;  0.0000000E+00;  1.0000000E+02;  0.0000000E+00;  1.0000000E+02;  0.0000000E+00;  0.0000000E+00;  0.0000000E+00;  0.0000000E+00;
  1.0000000E+00;  9.9999998E-03; -6.0000002E-01;222;  0.0000000E+00;  0.0000000E+00;  0.0000000E+00;  1.0000000E+01;  4.0000001E-01;  0.0000000E+00;3;  0.0000000E+00;  0.0000000E+00;  0.0000000E+00;  0.0000000E+00;  0.0000000E+00;  0.0000000E+00;0;  0.0000000E+00;  1.0000000E+02;  0.0000000E+00;  0.0000000E+00;  1.0000000E+02;  0.0000000E+00;  1.0000000E+02;  0.0000000E+00;  0.0000000E+00;  0.0000000E+00;  0.0000000E+00;
  1.0000000E+00;  9.9999998E-03; -4.0000001E-01;223;  0.0000000E+00;  0.0000000E+00;  0.0000000E+00;  1.0000000E+01;  4.0000001E-01;  0.0000000E+00;3;  0.0000000E+00;  0.0000000E+00;  0.0000000E+00;  0.0000000E+00;  0.0000000E+00;  0.0000000E+00;0;  0.0000000E+00;  1.0000000E+02;  0.0000000E+00;  0.0000000E+00;  1.0000000E+02;  0.0000000E+00;  1.0000000E+02;  0.0000000E+00;  0.0000000E+00;  0.0000000E+00;  0.0000000E+00;
  1.0000000E+00;  9.9999998E-03; -2.0000000E-01;224;  0.0000000E+00;  0.0000000E+00;  0.0000000E+00;  1.0000000E+01;  4.0000001E-01;  0.0000000E+00;3;  0.0000000E+00;  0.0000000E+00;  0.0000000E+00;  0.0000000E+00;  0.0000000E+00;  0.0000000E+00;0;  0.0000000E+00;  1.0000000E+02;  0.0000000E+00;  0.0000000E+00;  1.0000000E+02;  0.0000000E+00;  1.0000000E+02;  0.0000000E+00;  0.0000000E+00;  0.0000000E+00;  0.0000000E+00;
  1.2000000E+00;  9.9999998E-03; -1.0000000E+00;231;  0.0000000E+00;  0.0000000E+00;  0.0000000E+00;  1.0000000E+01;  4.0000001E-01;  0.0000000E+00;3;  0.0000000E+00;  0.0000000E+00;  0.0000000E+00;  0.0000000E+00;  0.0000000E+00;  0.0000000E+00;0;  0.0000000E+00;  1.0000000E+02;  0.0000000E+00;  0.0000000E+00;  1.0000000E+02;  0.0000000E+00;  1.0000000E+02;  0.0000000E+00;  0.0000000E+00;  0.0000000E+00;  0.0000000E+00;
  1.2000000E+00;  9.9999998E-03; -8.0000001E-01;232;  0.0000000E+00;  0.0000000E+00;  0.0000000E+00;  1.0000000E+01;  4.0000001E-01;  0.0000000E+00;3;  0.0000000E+00;  0.0000000E+00;  0.0000000E+00;  0.0000000E+00;  0.0000000E+00;  0.0000000E+00;0;  0.0000000E+00;  1.0000000E+02;  0.0000000E+00;  0.0000000E+00;  1.0000000E+02;  0.0000000E+00;  1.0000000E+02;  0.0000000E+00;  0.0000000E+00;  0.0000000E+00;  0.0000000E+00;
  1.2000000E+00;  9.9999998E-03; -6.0000002E-01;233;  0.0000000E+00;  0.0000000E+00;  0.0000000E+00;  1.0000000E+01;  4.0000001E-01;  0.0000000E+00;3;  0.0000000E+00;  0.0000000E+00;  0.0000000E+00;  0.0000000E+00;  0.0000000E+00;  0.0000000E+00;0;  0.0000000E+00;  1.0000000E+02;  0.0000000E+00;  0.0000000E+00;  1.0000000E+02;  0.0000000E+00;  1.0000000E+02;  0.0000000E+00;  0.0000000E+00;  0.0000000E+00;  0.0000000E+00;
  1.2000000E+00;  9.9999998E-03; -4.0000001E-01;234;  0.0000000E+00;  0.0000000E+00;  0.0000000E+00;  1.0000000E+01;  4.0000001E-01;  0.0000000E+00;3;  0.0000000E+00;  0.0000000E+00;  0.0000000E+00;  0.0000000E+00;  0.0000000E+00;  0.0000000E+00;0;  0.0000000E+00;  1.0000000E+02;  0.0000000E+00;  0.0000000E+00;  1.0000000E+02;  0.0000000E+00;  1.0000000E+02;  0.0000000E+00;  0.0000000E+00;  0.0000000E+00;  0.0000000E+00;
  1.2000000E+00;  9.9999998E-03; -2.0000000E-01;235;  0.0000000E+00;  0.0000000E+00;  0.0000000E+00;  1.0000000E+01;  4.0000001E-01;  0.0000000E+00;3;  0.0000000E+00;  0.0000000E+00;  0.0000000E+00;  0.0000000E+00;  0.0000000E+00;  0.0000000E+00;0;  0.0000000E+00;  1.0000000E+02;  0.0000000E+00;  0.0000000E+00;  1.0000000E+02;  0.0000000E+00;  1.0000000E+02;  0.0000000E+00;  0.0000000E+00;  0.0000000E+00;  0.0000000E+00;
  1.4000000E+00;  9.9999998E-03; -1.0000000E+00;242;  0.0000000E+00;  0.0000000E+00;  0.0000000E+00;  1.0000000E+01;  4.0000001E-01;  0.0000000E+00;3;  0.0000000E+00;  0.0000000E+00;  0.0000000E+00;  0.0000000E+00;  0.0000000E+00;  0.0000000E+00;0;  0.0000000E+00;  1.0000000E+02;  0.0000000E+00;  0.0000000E+00;  1.0000000E+02;  0.0000000E+00;  1.0000000E+02;  0.0000000E+00;  0.0000000E+00;  0.0000000E+00;  0.0000000E+00;
  1.4000000E+00;  9.9999998E-03; -8.0000001E-01;243;  0.0000000E+00;  0.0000000E+00;  0.0000000E+00;  1.0000000E+01;  4.0000001E-01;  0.0000000E+00;3;  0.0000000E+00;  0.0000000E+00;  0.0000000E+00;  0.0000000E+00;  0.0000000E+00;  0.0000000E+00;0;  0.0000000E+00;  1.0000000E+02;  0.0000000E+00;  0.0000000E+00;  1.0000000E+02;  0.0000000E+00;  1.0000000E+02;  0.0000000E+00;  0.0000000E+00;  0.0000000E+00;  0.0000000E+00;
  1.4000000E+00;  9.9999998E-03; -6.0000002E-01;244;  0.0000000E+00;  0.0000000E+00;  0.0000000E+00;  1.0000000E+01;  4.0000001E-01;  0.0000000E+00;3;  0.0000000E+00;  0.0000000E+00;  0.0000000E+00;  0.0000000E+00;  0.0000000E+00;  0.0000000E+00;0;  0.0000000E+00;  1.0000000E+02;  0.0000000E+00;  0.0000000E+00;  1.0000000E+02;  0.0000000E+00;  1.0000000E+02;  0.0000000E+00;  0.0000000E+00;  0.0000000E+00;  0.0000000E+00;
  1.4000000E+00;  9.9999998E-03; -4.0000001E-01;245;  0.0000000E+00;  0.0000000E+00;  0.0000000E+00;  1.0000000E+01;  4.0000001E-01;  0.0000000E+00;3;  0.0000000E+00;  0.0000000E+00;  0.0000000E+00;  0.0000000E+00;  0.0000000E+00;  0.0000000E+00;0;  0.0000000E+00;  1.0000000E+02;  0.0000000E+00;  0.0000000E+00;  1.0000000E+02;  0.0000000E+00;  1.0000000E+02;  0.0000000E+00;  0.0000000E+00;  0.0000000E+00;  0.0000000E+00;
  1.4000000E+00;  9.9999998E-03; -2.0000000E-01;246;  0.0000000E+00;  0.0000000E+00;  0.0000000E+00;  1.0000000E+01;  4.0000001E-01;  0.0000000E+00;3;  0.0000000E+00;  0.0000000E+00;  0.0000000E+00;  0.0000000E+00;  0.0000000E+00;  0.0000000E+00;0;  0.0000000E+00;  1.0000000E+02;  0.0000000E+00;  0.0000000E+00;  1.0000000E+02;  0.0000000E+00;  1.0000000E+02;  0.0000000E+00;  0.0000000E+00;  0.0000000E+00;  0.0000000E+00;
  1.6000000E+00;  9.9999998E-03; -1.0000000E+00;253;  0.0000000E+00;  0.0000000E+00;  0.0000000E+00;  1.0000000E+01;  4.0000001E-01;  0.0000000E+00;3;  0.0000000E+00;  0.0000000E+00;  0.0000000E+00;  0.0000000E+00;  0.0000000E+00;  0.0000000E+00;0;  0.0000000E+00;  1.0000000E+02;  0.0000000E+00;  0.0000000E+00;  1.0000000E+02;  0.0000000E+00;  1.0000000E+02;  0.0000000E+00;  0.0000000E+00;  0.0000000E+00;  0.0000000E+00;
  1.6000000E+00;  9.9999998E-03; -8.0000001E-01;254;  0.0000000E+00;  0.0000000E+00;  0.0000000E+00;  1.0000000E+01;  4.0000001E-01;  0.0000000E+00;3;  0.0000000E+00;  0.0000000E+00;  0.0000000E+00;  0.0000000E+00;  0.0000000E+00;  0.0000000E+00;0;  0.0000000E+00;  1.0000000E+02;  0.0000000E+00;  0.0000000E+00;  1.0000000E+02;  0.0000000E+00;  1.0000000E+02;  0.0000000E+00;  0.0000000E+00;  0.0000000E+00;  0.0000000E+00;
  1.6000000E+00;  9.9999998E-03; -6.0000002E-01;255;  0.0000000E+00;  0.0000000E+00;  0.0000000E+00;  1.0000000E+01;  4.0000001E-01;  0.0000000E+00;3;  0.0000000E+00;  0.0000000E+00;  0.0000000E+00;  0.0000000E+00;  0.0000000E+00;  0.0000000E+00;0;  0.0000000E+00;  1.0000000E+02;  0.0000000E+00;  0.0000000E+00;  1.0000000E+02;  0.0000000E+00;  1.0000000E+02;  0.0000000E+00;  0.0000000E+00;  0.0000000E+00;  0.0000000E+00;
  1.6000000E+00;  9.9999998E-03; -4.0000001E-01;256;  0.0000000E+00;  0.0000000E+00;  0.0000000E+00;  1.0000000E+01;  4.0000001E-01;  0.0000000E+00;3;  0.0000000E+00;  0.0000000E+00;  0.0000000E+00;  0.0000000E+00;  0.0000000E+00;  0.0000000E+00;0;  0.0000000E+00;  1.0000000E+02;  0.0000000E+00;  0.0000000E+00;  1.0000000E+02;  0.0000000E+00;  1.0000000E+02;  0.0000000E+00;  0.0000000E+00;  0.0000000E+00;  0.0000000E+00;
  1.6000000E+00;  9.9999998E-03; -2.0000000E-01;257;  0.0000000E+00;  0.0000000E+00;  0.0000000E+00;  1.0000000E+01;  4.0000001E-01;  0.0000000E+00;3;  0.0000000E+00;  0.0000000E+00;  0.0000000E+00;  0.0000000E+00;  0.0000000E+00;  0.0000000E+00;0;  0.0000000E+00;  1.0000000E+02;  0.0000000E+00;  0.0000000E+00;  1.0000000E+02;  0.0000000E+00;  1.0000000E+02;  0.0000000E+00;  0.0000000E+00;  0.0000000E+00;  0.0000000E+00;
  1.8000000E+00;  9.9999998E-03; -1.0000000E+00;264;  0.0000000E+00;  0.0000000E+00;  0.0000000E+00;  1.0000000E+01;  4.0000001E-01;  0.0000000E+00;3;  0.0000000E+00;  0.0000000E+00;  0.0000000E+00;  0.0000000E+00;  0.0000000E+00;  0.0000000E+00;0;  0.0000000E+00;  1.0000000E+02;  0.0000000E+00;  0.0000000E+00;  1.0000000E+02;  0.0000000E+00;  1.0000000E+02;  0.0000000E+00;  0.0000000E+00;  0.0000000E+00;  0.0000000E+00;
  1.8000000E+00;  9.9999998E-03; -8.0000001E-01;265;  0.0000000E+00;  0.0000000E+00;  0.0000000E+00;  1.0000000E+01;  4.0000001E-01;  0.0000000E+00;3;  0.0000000E+00;  0.0000000E+00;  0.0000000E+00;  0.0000000E+00;  0.0000000E+00;  0.0000000E+00;0;  0.0000000E+00;  1.0000000E+02;  0.0000000E+00;  0.0000000E+00;  1.0000000E+02;  0.0000000E+00;  1.0000000E+02;  0.0000000E+00;  0.0000000E+00;  0.0000000E+00;  0.0000000E+00;
  1.8000000E+00;  9.9999998E-03; -6.0000002E-01;266;  0.0000000E+00;  0.0000000E+00;  0.0000000E+00;  1.0000000E+01;  4.0000001E-01;  0.0000000E+00;3;  0.0000000E+00;  0.0000000E+00;  0.0000000E+00;  0.0000000E+00;  0.0000000E+00;  0.0000000E+00;0;  0.0000000E+00;  1.0000000E+02;  0.0000000E+00;  0.0000000E+00;  1.0000000E+02;  0.0000000E+00;  1.0000000E+02;  0.0000000E+00;  0.0000000E+00;  0.0000000E+00;  0.0000000E+00;
  1.8000000E+00;  9.9999998E-03; -4.0000001E-01;267;  0.0000000E+00;  0.0000000E+00;  0.0000000E+00;  1.0000000E+01;  4.0000001E-01;  0.0000000E+00;3;  0.0000000E+00;  0.0000000E+00;  0.0000000E+00;  0.0000000E+00;  0.0000000E+00;  0.0000000E+00;0;  0.0000000E+00;  1.0000000E+02;  0.0000000E+00;  0.0000000E+00;  1.0000000E+02;  0.0000000E+00;  1.0000000E+02;  0.0000000E+00;  0.0000000E+00;  0.0000000E+00;  0.0000000E+00;
  1.8000000E+00;  9.9999998E-03; -2.0000000E-01;268;  0.0000000E+00;  0.0000000E+00;  0.0000000E+00;  1.0000000E+01;  4.0000001E-01;  0.0000000E+00;3;  0.0000000E+00;  0.0000000E+00;  0.0000000E+00;  0.0000000E+00;  0.0000000E+00;  0.0000000E+00;0;  0.0000000E+00;  1.0000000E+02;  0.0000000E+00;  0.0000000E+00;  1.0000000E+02;  0.0000000E+00;  1.0000000E+02;  0.0000000E+00;  0.0000000E+00;  0.0000000E+00;  0.0000000E+00;
  2.0000000E+00;  9.9999998E-03; -1.0000000E+00;275;  0.0000000E+00;  0.0000000E+00;  0.0000000E+00;  1.0000000E+01;  4.0000001E-01;  0.0000000E+00;3;  0.0000000E+00;  0.0000000E+00;  0.0000000E+00;  0.0000000E+00;  0.0000000E+00;  0.0000000E+00;0;  0.0000000E+00;  1.0000000E+02;  0.0000000E+00;  0.0000000E+00;  1.0000000E+02;  0.0000000E+00;  1.0000000E+02;  0.0000000E+00;  0.0000000E+00;  0.0000000E+00;  0.0000000E+00;
  2.0000000E+00;  9.9999998E-03; -8.0000001E-01;276;  0.0000000E+00;  0.0000000E+00;  0.0000000E+00;  1.0000000E+01;  4.0000001E-01;  0.0000000E+00;3;  0.0000000E+00;  0.0000000E+00;  0.0000000E+00;  0.0000000E+00;  0.0000000E+00;  0.0000000E+00;0;  0.0000000E+00;  1.0000000E+02;  0.0000000E+00;  0.0000000E+00;  1.0000000E+02;  0.0000000E+00;  1.0000000E+02;  0.0000000E+00;  0.0000000E+00;  0.0000000E+00;  0.0000000E+00;
  2.0000000E+00;  9.9999998E-03; -6.0000002E-01;277;  0.0000000E+00;  0.0000000E+00;  0.0000000E+00;  1.0000000E+01;  4.0000001E-01;  0.0000000E+00;3;  0.0000000E+00;  0.0000000E+00;  0.0000000E+00;  0.0000000E+00;  0.0000000E+00;  0.0000000E+00;0;  0.0000000E+00;  1.0000000E+02;  0.0000000E+00;  0.0000000E+00;  1.0000000E+02;  0.0000000E+00;  1.0000000E+02;  0.0000000E+00;  0.0000000E+00;  0.0000000E+00;  0.0000000E+00;
  2.0000000E+00;  9.9999998E-03; -4.0000001E-01;278;  0.0000000E+00;  0.0000000E+00;  0.0000000E+00;  1.0000000E+01;  4.0000001E-01;  0.0000000E+00;3;  0.0000000E+00;  0.0000000E+00;  0.0000000E+00;  0.0000000E+00;  0.0000000E+00;  0.0000000E+00;0;  0.0000000E+00;  1.0000000E+02;  0.0000000E+00;  0.0000000E+00;  1.0000000E+02;  0.0000000E+00;  1.0000000E+02;  0.0000000E+00;  0.0000000E+00;  0.0000000E+00;  0.0000000E+00;
  2.0000000E+00;  9.9999998E-03; -2.0000000E-01;279;  0.0000000E+00;  0.0000000E+00;  0.0000000E+00;  1.0000000E+01;  4.0000001E-01;  0.0000000E+00;3;  0.0000000E+00;  0.0000000E+00;  0.0000000E+00;  0.0000000E+00;  0.0000000E+00;  0.0000000E+00;0;  0.0000000E+00;  1.0000000E+02;  0.0000000E+00;  0.0000000E+00;  1.0000000E+02;  0.0000000E+00;  1.0000000E+02;  0.0000000E+00;  0.0000000E+00;  0.0000000E+00;  0.0000000E+00;
  2.2000000E+00;  9.9999998E-03; -1.0000000E+00;286;  0.0000000E+00;  0.0000000E+00;  0.0000000E+00;  1.0000000E+01;  4.0000001E-01;  0.0000000E+00;3;  0.0000000E+00;  0.0000000E+00;  0.0000000E+00;  0.0000000E+00;  0.0000000E+00;  0.0000000E+00;0;  0.0000000E+00;  1.0000000E+02;  0.0000000E+00;  0.0000000E+00;  1.0000000E+02;  0.0000000E+00;  1.0000000E+02;  0.0000000E+00;  0.0000000E+00;  0.0000000E+00;  0.0000000E+00;
  2.2000000E+00;  9.9999998E-03; -8.0000001E-01;287;  0.0000000E+00;  0.0000000E+00;  0.0000000E+00;  1.0000000E+01;  4.0000001E-01;  0.0000000E+00;3;  0.0000000E+00;  0.0000000E+00;  0.0000000E+00;  0.0000000E+00;  0.0000000E+00;  0.0000000E+00;0;  0.0000000E+00;  1.0000000E+02;  0.0000000E+00;  0.0000000E+00;  1.0000000E+02;  0.0000000E+00;  1.0000000E+02;  0.0000000E+00;  0.0000000E+00;  0.0000000E+00;  0.0000000E+00;
  2.2000000E+00;  9.9999998E-03; -6.0000002E-01;288;  0.0000000E+00;  0.0000000E+00;  0.0000000E+00;  1.0000000E+01;  4.0000001E-01;  0.0000000E+00;3;  0.0000000E+00;  0.0000000E+00;  0.0000000E+00;  0.0000000E+00;  0.0000000E+00;  0.0000000E+00;0;  0.0000000E+00;  1.0000000E+02;  0.0000000E+00;  0.0000000E+00;  1.0000000E+02;  0.0000000E+00;  1.0000000E+02;  0.0000000E+00;  0.0000000E+00;  0.0000000E+00;  0.0000000E+00;
  2.2000000E+00;  9.9999998E-03; -4.0000001E-01;289;  0.0000000E+00;  0.0000000E+00;  0.0000000E+00;  1.0000000E+01;  4.0000001E-01;  0.0000000E+00;3;  0.0000000E+00;  0.0000000E+00;  0.0000000E+00;  0.0000000E+00;  0.0000000E+00;  0.0000000E+00;0;  0.0000000E+00;  1.0000000E+02;  0.0000000E+00;  0.0000000E+00;  1.0000000E+02;  0.0000000E+00;  1.0000000E+02;  0.0000000E+00;  0.0000000E+00;  0.0000000E+00;  0.0000000E+00;
  2.2000000E+00;  9.9999998E-03; -2.0000000E-01;290;  0.0000000E+00;  0.0000000E+00;  0.0000000E+00;  1.0000000E+01;  4.0000001E-01;  0.0000000E+00;3;  0.0000000E+00;  0.0000000E+00;  0.0000000E+00;  0.0000000E+00;  0.0000000E+00;  0.0000000E+00;0;  0.0000000E+00;  1.0000000E+02;  0.0000000E+00;  0.0000000E+00;  1.0000000E+02;  0.0000000E+00;  1.0000000E+02;  0.0000000E+00;  0.0000000E+00;  0.0000000E+00;  0.0000000E+00;
  2.4000001E+00;  9.9999998E-03; -1.0000000E+00;297;  0.0000000E+00;  0.0000000E+00;  0.0000000E+00;  1.0000000E+01;  4.0000001E-01;  0.0000000E+00;3;  0.0000000E+00;  0.0000000E+00;  0.0000000E+00;  0.0000000E+00;  0.0000000E+00;  0.0000000E+00;0;  0.0000000E+00;  1.0000000E+02;  0.0000000E+00;  0.0000000E+00;  1.0000000E+02;  0.0000000E+00;  1.0000000E+02;  0.0000000E+00;  0.0000000E+00;  0.0000000E+00;  0.0000000E+00;
  2.4000001E+00;  9.9999998E-03; -8.0000001E-01;298;  0.0000000E+00;  0.0000000E+00;  0.0000000E+00;  1.0000000E+01;  4.0000001E-01;  0.0000000E+00;3;  0.0000000E+00;  0.0000000E+00;  0.0000000E+00;  0.0000000E+00;  0.0000000E+00;  0.0000000E+00;0;  0.0000000E+00;  1.0000000E+02;  0.0000000E+00;  0.0000000E+00;  1.0000000E+02;  0.0000000E+00;  1.0000000E+02;  0.0000000E+00;  0.0000000E+00;  0.0000000E+00;  0.0000000E+00;
  2.4000001E+00;  9.9999998E-03; -6.0000002E-01;299;  0.0000000E+00;  0.0000000E+00;  0.0000000E+00;  1.0000000E+01;  4.0000001E-01;  0.0000000E+00;3;  0.0000000E+00;  0.0000000E+00;  0.0000000E+00;  0.0000000E+00;  0.0000000E+00;  0.0000000E+00;0;  0.0000000E+00;  1.0000000E+02;  0.0000000E+00;  0.0000000E+00;  1.0000000E+02;  0.0000000E+00;  1.0000000E+02;  0.0000000E+00;  0.0000000E+00;  0.0000000E+00;  0.0000000E+00;
  2.4000001E+00;  9.9999998E-03; -4.0000001E-01;300;  0.0000000E+00;  0.0000000E+00;  0.0000000E+00;  1.0000000E+01;  4.0000001E-01;  0.0000000E+00;3;  0.0000000E+00;  0.0000000E+00;  0.0000000E+00;  0.0000000E+00;  0.0000000E+00;  0.0000000E+00;0;  0.0000000E+00;  1.0000000E+02;  0.0000000E+00;  0.0000000E+00;  1.0000000E+02;  0.0000000E+00;  1.0000000E+02;  0.0000000E+00;  0.0000000E+00;  0.0000000E+00;  0.0000000E+00;
  2.4000001E+00;  9.9999998E-03; -2.0000000E-01;301;  0.0000000E+00;  0.0000000E+00;  0.0000000E+00;  1.0000000E+01;  4.0000001E-01;  0.0000000E+00;3;  0.0000000E+00;  0.0000000E+00;  0.0000000E+00;  0.0000000E+00;  0.0000000E+00;  0.0000000E+00;0;  0.0000000E+00;  1.0000000E+02;  0.0000000E+00;  0.0000000E+00;  1.0000000E+02;  0.0000000E+00;  1.0000000E+02;  0.0000000E+00;  0.0000000E+00;  0.0000000E+00;  0.0000000E+00;
  2.5999999E+00;  9.9999998E-03; -1.0000000E+00;308;  0.0000000E+00;  0.0000000E+00;  0.0000000E+00;  1.0000000E+01;  4.0000001E-01;  0.0000000E+00;3;  0.0000000E+00;  0.0000000E+00;  0.0000000E+00;  0.0000000E+00;  0.0000000E+00;  0.0000000E+00;0;  0.0000000E+00;  1.0000000E+02;  0.0000000E+00;  0.0000000E+00;  1.0000000E+02;  0.0000000E+00;  1.0000000E+02;  0.0000000E+00;  0.0000000E+00;  0.0000000E+00;  0.0000000E+00;
  2.5999999E+00;  9.9999998E-03; -8.0000001E-01;309;  0.0000000E+00;  0.0000000E+00;  0.0000000E+00;  1.0000000E+01;  4.0000001E-01;  0.0000000E+00;3;  0.0000000E+00;  0.0000000E+00;  0.0000000E+00;  0.0000000E+00;  0.0000000E+00;  0.0000000E+00;0;  0.0000000E+00;  1.0000000E+02;  0.0000000E+00;  0.0000000E+00;  1.0000000E+02;  0.0000000E+00;  1.0000000E+02;  0.0000000E+00;  0.0000000E+00;  0.0000000E+00;  0.0000000E+00;
  2.5999999E+00;  9.9999998E-03; -6.0000002E-01;310;  0.0000000E+00;  0.0000000E+00;  0.0000000E+00;  1.0000000E+01;  4.0000001E-01;  0.0000000E+00;3;  0.0000000E+00;  0.0000000E+00;  0.0000000E+00;  0.0000000E+00;  0.0000000E+00;  0.0000000E+00;0;  0.0000000E+00;  1.0000000E+02;  0.0000000E+00;  0.0000000E+00;  1.0000000E+02;  0.0000000E+00;  1.0000000E+02;  0.0000000E+00;  0.0000000E+00;  0.0000000E+00;  0.0000000E+00;
  2.5999999E+00;  9.9999998E-03; -4.0000001E-01;311;  0.0000000E+00;  0.0000000E+00;  0.0000000E+00;  1.0000000E+01;  4.0000001E-01;  0.0000000E+00;3;  0.0000000E+00;  0.0000000E+00;  0.0000000E+00;  0.0000000E+00;  0.0000000E+00;  0.0000000E+00;0;  0.0000000E+00;  1.0000000E+02;  0.0000000E+00;  0.0000000E+00;  1.0000000E+02;  0.0000000E+00;  1.0000000E+02;  0.0000000E+00;  0.0000000E+00;  0.0000000E+00;  0.0000000E+00;
  2.5999999E+00;  9.9999998E-03; -2.0000000E-01;312;  0.0000000E+00;  0.0000000E+00;  0.0000000E+00;  1.0000000E+01;  4.0000001E-01;  0.0000000E+00;3;  0.0000000E+00;  0.0000000E+00;  0.0000000E+00;  0.0000000E+00;  0.0000000E+00;  0.0000000E+00;0;  0.0000000E+00;  1.0000000E+02;  0.0000000E+00;  0.0000000E+00;  1.0000000E+02;  0.0000000E+00;  1.0000000E+02;  0.0000000E+00;  0.0000000E+00;  0.0000000E+00;  0.0000000E+00;
  2.8000000E+00;  9.9999998E-03; -1.0000000E+00;319;  0.0000000E+00;  0.0000000E+00;  0.0000000E+00;  1.0000000E+01;  4.0000001E-01;  0.0000000E+00;3;  0.0000000E+00;  0.0000000E+00;  0.0000000E+00;  0.0000000E+00;  0.0000000E+00;  0.0000000E+00;0;  0.0000000E+00;  1.0000000E+02;  0.0000000E+00;  0.0000000E+00;  1.0000000E+02;  0.0000000E+00;  1.0000000E+02;  0.0000000E+00;  0.0000000E+00;  0.0000000E+00;  0.0000000E+00;
  2.8000000E+00;  9.9999998E-03; -8.0000001E-01;320;  0.0000000E+00;  0.0000000E+00;  0.0000000E+00;  1.0000000E+01;  4.0000001E-01;  0.0000000E+00;3;  0.0000000E+00;  0.0000000E+00;  0.0000000E+00;  0.0000000E+00;  0.0000000E+00;  0.0000000E+00;0;  0.0000000E+00;  1.0000000E+02;  0.0000000E+00;  0.0000000E+00;  1.0000000E+02;  0.0000000E+00;  1.0000000E+02;  0.0000000E+00;  0.0000000E+00;  0.0000000E+00;  0.0000000E+00;
  2.8000000E+00;  9.9999998E-03; -6.0000002E-01;321;  0.0000000E+00;  0.0000000E+00;  0.0000000E+00;  1.0000000E+01;  4.0000001E-01;  0.0000000E+00;3;  0.0000000E+00;  0.0000000E+00;  0.0000000E+00;  0.0000000E+00;  0.0000000E+00;  0.0000000E+00;0;  0.0000000E+00;  1.0000000E+02;  0.0000000E+00;  0.0000000E+00;  1.0000000E+02;  0.0000000E+00;  1.0000000E+02;  0.0000000E+00;  0.0000000E+00;  0.0000000E+00;  0.0000000E+00;
  2.8000000E+00;  9.9999998E-03; -4.0000001E-01;322;  0.0000000E+00;  0.0000000E+00;  0.0000000E+00;  1.0000000E+01;  4.0000001E-01;  0.0000000E+00;3;  0.0000000E+00;  0.0000000E+00;  0.0000000E+00;  0.0000000E+00;  0.0000000E+00;  0.0000000E+00;0;  0.0000000E+00;  1.0000000E+02;  0.0000000E+00;  0.0000000E+00;  1.0000000E+02;  0.0000000E+00;  1.0000000E+02;  0.0000000E+00;  0.0000000E+00;  0.0000000E+00;  0.0000000E+00;
  2.8000000E+00;  9.9999998E-03; -2.0000000E-01;323;  0.0000000E+00;  0.0000000E+00;  0.0000000E+00;  1.0000000E+01;  4.0000001E-01;  0.0000000E+00;3;  0.0000000E+00;  0.0000000E+00;  0.0000000E+00;  0.0000000E+00;  0.0000000E+00;  0.0000000E+00;0;  0.0000000E+00;  1.0000000E+02;  0.0000000E+00;  0.0000000E+00;  1.0000000E+02;  0.0000000E+00;  1.0000000E+02;  0.0000000E+00;  0.0000000E+00;  0.0000000E+00;  0.0000000E+00;
  3.0000000E+00;  9.9999998E-03; -1.0000000E+00;330;  0.0000000E+00;  0.0000000E+00;  0.0000000E+00;  1.0000000E+01;  4.0000001E-01;  0.0000000E+00;3;  0.0000000E+00;  0.0000000E+00;  0.0000000E+00;  0.0000000E+00;  0.0000000E+00;  0.0000000E+00;0;  0.0000000E+00;  1.0000000E+02;  0.0000000E+00;  0.0000000E+00;  1.0000000E+02;  0.0000000E+00;  1.0000000E+02;  0.0000000E+00;  0.0000000E+00;  0.0000000E+00;  0.0000000E+00;
  3.0000000E+00;  9.9999998E-03; -8.0000001E-01;331;  0.0000000E+00;  0.0000000E+00;  0.0000000E+00;  1.0000000E+01;  4.0000001E-01;  0.0000000E+00;3;  0.0000000E+00;  0.0000000E+00;  0.0000000E+00;  0.0000000E+00;  0.0000000E+00;  0.0000000E+00;0;  0.0000000E+00;  1.0000000E+02;  0.0000000E+00;  0.0000000E+00;  1.0000000E+02;  0.0000000E+00;  1.0000000E+02;  0.0000000E+00;  0.0000000E+00;  0.0000000E+00;  0.0000000E+00;
  3.0000000E+00;  9.9999998E-03; -6.0000002E-01;332;  0.0000000E+00;  0.0000000E+00;  0.0000000E+00;  1.0000000E+01;  4.0000001E-01;  0.0000000E+00;3;  0.0000000E+00;  0.0000000E+00;  0.0000000E+00;  0.0000000E+00;  0.0000000E+00;  0.0000000E+00;0;  0.0000000E+00;  1.0000000E+02;  0.0000000E+00;  0.0000000E+00;  1.0000000E+02;  0.0000000E+00;  1.0000000E+02;  0.0000000E+00;  0.0000000E+00;  0.0000000E+00;  0.0000000E+00;
  3.0000000E+00;  9.9999998E-03; -4.0000001E-01;333;  0.0000000E+00;  0.0000000E+00;  0.0000000E+00;  1.0000000E+01;  4.0000001E-01;  0.0000000E+00;3;  0.0000000E+00;  0.0000000E+00;  0.0000000E+00;  0.0000000E+00;  0.0000000E+00;  0.0000000E+00;0;  0.0000000E+00;  1.0000000E+02;  0.0000000E+00;  0.0000000E+00;  1.0000000E+02;  0.0000000E+00;  1.0000000E+02;  0.0000000E+00;  0.0000000E+00;  0.0000000E+00;  0.0000000E+00;
  3.0000000E+00;  9.9999998E-03; -2.0000000E-01;334;  0.0000000E+00;  0.0000000E+00;  0.0000000E+00;  1.0000000E+01;  4.0000001E-01;  0.0000000E+00;3;  0.0000000E+00;  0.0000000E+00;  0.0000000E+00;  0.0000000E+00;  0.0000000E+00;  0.0000000E+00;0;  0.0000000E+00;  1.0000000E+02;  0.0000000E+00;  0.0000000E+00;  1.0000000E+02;  0.0000000E+00;  1.0000000E+02;  0.0000000E+00;  0.0000000E+00;  0.0000000E+00;  0.0000000E+00;
  3.2000000E+00;  9.9999998E-03; -1.0000000E+00;341;  0.0000000E+00;  0.0000000E+00;  0.0000000E+00;  1.0000000E+01;  4.0000001E-01;  0.0000000E+00;3;  0.0000000E+00;  0.0000000E+00;  0.0000000E+00;  0.0000000E+00;  0.0000000E+00;  0.0000000E+00;0;  0.0000000E+00;  1.0000000E+02;  0.0000000E+00;  0.0000000E+00;  1.0000000E+02;  0.0000000E+00;  1.0000000E+02;  0.0000000E+00;  0.0000000E+00;  0.0000000E+00;  0.0000000E+00;
  3.2000000E+00;  9.9999998E-03; -8.0000001E-01;342;  0.0000000E+00;  0.0000000E+00;  0.0000000E+00;  1.0000000E+01;  4.0000001E-01;  0.0000000E+00;3;  0.0000000E+00;  0.0000000E+00;  0.0000000E+00;  0.0000000E+00;  0.0000000E+00;  0.0000000E+00;0;  0.0000000E+00;  1.0000000E+02;  0.0000000E+00;  0.0000000E+00;  1.0000000E+02;  0.0000000E+00;  1.0000000E+02;  0.0000000E+00;  0.0000000E+00;  0.0000000E+00;  0.0000000E+00;
  3.2000000E+00;  9.9999998E-03; -6.0000002E-01;343;  0.0000000E+00;  0.0000000E+00;  0.0000000E+00;  1.0000000E+01;  4.0000001E-01;  0.0000000E+00;3;  0.0000000E+00;  0.0000000E+00;  0.0000000E+00;  0.0000000E+00;  0.0000000E+00;  0.0000000E+00;0;  0.0000000E+00;  1.0000000E+02;  0.0000000E+00;  0.0000000E+00;  1.0000000E+02;  0.0000000E+00;  1.0000000E+02;  0.0000000E+00;  0.0000000E+00;  0.0000000E+00;  0.0000000E+00;
  3.2000000E+00;  9.9999998E-03; -4.0000001E-01;344;  0.0000000E+00;  0.0000000E+00;  0.0000000E+00;  1.0000000E+01;  4.0000001E-01;  0.0000000E+00;3;  0.0000000E+00;  0.0000000E+00;  0.0000000E+00;  0.0000000E+00;  0.0000000E+00;  0.0000000E+00;0;  0.0000000E+00;  1.0000000E+02;  0.0000000E+00;  0.0000000E+00;  1.0000000E+02;  0.0000000E+00;  1.0000000E+02;  0.0000000E+00;  0.0000000E+00;  0.0000000E+00;  0.0000000E+00;
  3.2000000E+00;  9.9999998E-03; -2.0000000E-01;345;  0.0000000E+00;  0.0000000E+00;  0.0000000E+00;  1.0000000E+01;  4.0000001E-01;  0.0000000E+00;3;  0.0000000E+00;  0.0000000E+00;  0.0000000E+00;  0.0000000E+00;  0.0000000E+00;  0.0000000E+00;0;  0.0000000E+00;  1.0000000E+02;  0.0000000E+00;  0.0000000E+00;  1.0000000E+02;  0.0000000E+00;  1.0000000E+02;  0.0000000E+00;  0.0000000E+00;  0.0000000E+00;  0.0000000E+00;
  3.4000001E+00;  9.9999998E-03; -1.0000000E+00;352;  0.0000000E+00;  0.0000000E+00;  0.0000000E+00;  1.0000000E+01;  4.0000001E-01;  0.0000000E+00;3;  0.0000000E+00;  0.0000000E+00;  0.0000000E+00;  0.0000000E+00;  0.0000000E+00;  0.0000000E+00;0;  0.0000000E+00;  1.0000000E+02;  0.0000000E+00;  0.0000000E+00;  1.0000000E+02;  0.0000000E+00;  1.0000000E+02;  0.0000000E+00;  0.0000000E+00;  0.0000000E+00;  0.0000000E+00;
  3.4000001E+00;  9.9999998E-03; -8.0000001E-01;353;  0.0000000E+00;  0.0000000E+00;  0.0000000E+00;  1.0000000E+01;  4.0000001E-01;  0.0000000E+00;3;  0.0000000E+00;  0.0000000E+00;  0.0000000E+00;  0.0000000E+00;  0.0000000E+00;  0.0000000E+00;0;  0.0000000E+00;  1.0000000E+02;  0.0000000E+00;  0.0000000E+00;  1.0000000E+02;  0.0000000E+00;  1.0000000E+02;  0.0000000E+00;  0.0000000E+00;  0.0000000E+00;  0.0000000E+00;
  3.4000001E+00;  9.9999998E-03; -6.0000002E-01;354;  0.0000000E+00;  0.0000000E+00;  0.0000000E+00;  1.0000000E+01;  4.0000001E-01;  0.0000000E+00;3;  0.0000000E+00;  0.0000000E+00;  0.0000000E+00;  0.0000000E+00;  0.0000000E+00;  0.0000000E+00;0;  0.0000000E+00;  1.0000000E+02;  0.0000000E+00;  0.0000000E+00;  1.0000000E+02;  0.0000000E+00;  1.0000000E+02;  0.0000000E+00;  0.0000000E+00;  0.0000000E+00;  0.0000000E+00;
  3.4000001E+00;  9.9999998E-03; -4.0000001E-01;355;  0.0000000E+00;  0.0000000E+00;  0.0000000E+00;  1.0000000E+01;  4.0000001E-01;  0.0000000E+00;3;  0.0000000E+00;  0.0000000E+00;  0.0000000E+00;  0.0000000E+00;  0.0000000E+00;  0.0000000E+00;0;  0.0000000E+00;  1.0000000E+02;  0.0000000E+00;  0.0000000E+00;  1.0000000E+02;  0.0000000E+00;  1.0000000E+02;  0.0000000E+00;  0.0000000E+00;  0.0000000E+00;  0.0000000E+00;
  3.4000001E+00;  9.9999998E-03; -2.0000000E-01;356;  0.0000000E+00;  0.0000000E+00;  0.0000000E+00;  1.0000000E+01;  4.0000001E-01;  0.0000000E+00;3;  0.0000000E+00;  0.0000000E+00;  0.0000000E+00;  0.0000000E+00;  0.0000000E+00;  0.0000000E+00;0;  0.0000000E+00;  1.0000000E+02;  0.0000000E+00;  0.0000000E+00;  1.0000000E+02;  0.0000000E+00;  1.0000000E+02;  0.0000000E+00;  0.0000000E+00;  0.0000000E+00;  0.0000000E+00;
  3.5999999E+00;  9.9999998E-03; -1.0000000E+00;363;  0.0000000E+00;  0.0000000E+00;  0.0000000E+00;  1.0000000E+01;  4.0000001E-01;  0.0000000E+00;3;  0.0000000E+00;  0.0000000E+00;  0.0000000E+00;  0.0000000E+00;  0.0000000E+00;  0.0000000E+00;0;  0.0000000E+00;  1.0000000E+02;  0.0000000E+00;  0.0000000E+00;  1.0000000E+02;  0.0000000E+00;  1.0000000E+02;  0.0000000E+00;  0.0000000E+00;  0.0000000E+00;  0.0000000E+00;
  3.5999999E+00;  9.9999998E-03; -8.0000001E-01;364;  0.0000000E+00;  0.0000000E+00;  0.0000000E+00;  1.0000000E+01;  4.0000001E-01;  0.0000000E+00;3;  0.0000000E+00;  0.0000000E+00;  0.0000000E+00;  0.0000000E+00;  0.0000000E+00;  0.0000000E+00;0;  0.0000000E+00;  1.0000000E+02;  0.0000000E+00;  0.0000000E+00;  1.0000000E+02;  0.0000000E+00;  1.0000000E+02;  0.0000000E+00;  0.0000000E+00;  0.0000000E+00;  0.0000000E+00;
  3.5999999E+00;  9.9999998E-03; -6.0000002E-01;365;  0.0000000E+00;  0.0000000E+00;  0.0000000E+00;  1.0000000E+01;  4.0000001E-01;  0.0000000E+00;3;  0.0000000E+00;  0.0000000E+00;  0.0000000E+00;  0.0000000E+00;  0.0000000E+00;  0.0000000E+00;0;  0.0000000E+00;  1.0000000E+02;  0.0000000E+00;  0.0000000E+00;  1.0000000E+02;  0.0000000E+00;  1.0000000E+02;  0.0000000E+00;  0.0000000E+00;  0.0000000E+00;  0.0000000E+00;
  3.5999999E+00;  9.9999998E-03; -4.0000001E-01;366;  0.0000000E+00;  0.0000000E+00;  0.0000000E+00;  1.0000000E+01;  4.0000001E-01;  0.0000000E+00;3;  0.0000000E+00;  0.0000000E+00;  0.0000000E+00;  0.0000000E+00;  0.0000000E+00;  0.0000000E+00;0;  0.0000000E+00;  1.0000000E+02;  0.0000000E+00;  0.0000000E+00;  1.0000000E+02;  0.0000000E+00;  1.0000000E+02;  0.0000000E+00;  0.0000000E+00;  0.0000000E+00;  0.0000000E+00;
  3.5999999E+00;  9.9999998E-03; -2.0000000E-01;367;  0.0000000E+00;  0.0000000E+00;  0.0000000E+00;  1.0000000E+01;  4.0000001E-01;  0.0000000E+00;3;  0.0000000E+00;  0.0000000E+00;  0.0000000E+00;  0.0000000E+00;  0.0000000E+00;  0.0000000E+00;0;  0.0000000E+00;  1.0000000E+02;  0.0000000E+00;  0.0000000E+00;  1.0000000E+02;  0.0000000E+00;  1.0000000E+02;  0.0000000E+00;  0.0000000E+00;  0.0000000E+00;  0.0000000E+00;
  3.8000000E+00;  9.9999998E-03; -1.0000000E+00;374;  0.0000000E+00;  0.0000000E+00;  0.0000000E+00;  1.0000000E+01;  4.0000001E-01;  0.0000000E+00;3;  0.0000000E+00;  0.0000000E+00;  0.0000000E+00;  0.0000000E+00;  0.0000000E+00;  0.0000000E+00;0;  0.0000000E+00;  1.0000000E+02;  0.0000000E+00;  0.0000000E+00;  1.0000000E+02;  0.0000000E+00;  1.0000000E+02;  0.0000000E+00;  0.0000000E+00;  0.0000000E+00;  0.0000000E+00;
  3.8000000E+00;  9.9999998E-03; -8.0000001E-01;375;  0.0000000E+00;  0.0000000E+00;  0.0000000E+00;  1.0000000E+01;  4.0000001E-01;  0.0000000E+00;3;  0.0000000E+00;  0.0000000E+00;  0.0000000E+00;  0.0000000E+00;  0.0000000E+00;  0.0000000E+00;0;  0.0000000E+00;  1.0000000E+02;  0.0000000E+00;  0.0000000E+00;  1.0000000E+02;  0.0000000E+00;  1.0000000E+02;  0.0000000E+00;  0.0000000E+00;  0.0000000E+00;  0.0000000E+00;
  3.8000000E+00;  9.9999998E-03; -6.0000002E-01;376;  0.0000000E+00;  0.0000000E+00;  0.0000000E+00;  1.0000000E+01;  4.0000001E-01;  0.0000000E+00;3;  0.0000000E+00;  0.0000000E+00;  0.0000000E+00;  0.0000000E+00;  0.0000000E+00;  0.0000000E+00;0;  0.0000000E+00;  1.0000000E+02;  0.0000000E+00;  0.0000000E+00;  1.0000000E+02;  0.0000000E+00;  1.0000000E+02;  0.0000000E+00;  0.0000000E+00;  0.0000000E+00;  0.0000000E+00;
  3.8000000E+00;  9.9999998E-03; -4.0000001E-01;377;  0.0000000E+00;  0.0000000E+00;  0.0000000E+00;  1.0000000E+01;  4.0000001E-01;  0.0000000E+00;3;  0.0000000E+00;  0.0000000E+00;  0.0000000E+00;  0.0000000E+00;  0.0000000E+00;  0.0000000E+00;0;  0.0000000E+00;  1.0000000E+02;  0.0000000E+00;  0.0000000E+00;  1.0000000E+02;  0.0000000E+00;  1.0000000E+02;  0.0000000E+00;  0.0000000E+00;  0.0000000E+00;  0.0000000E+00;
  3.8000000E+00;  9.9999998E-03; -2.0000000E-01;378;  0.0000000E+00;  0.0000000E+00;  0.0000000E+00;  1.0000000E+01;  4.0000001E-01;  0.0000000E+00;3;  0.0000000E+00;  0.0000000E+00;  0.0000000E+00;  0.0000000E+00;  0.0000000E+00;  0.0000000E+00;0;  0.0000000E+00;  1.0000000E+02;  0.0000000E+00;  0.0000000E+00;  1.0000000E+02;  0.0000000E+00;  1.0000000E+02;  0.0000000E+00;  0.0000000E+00;  0.0000000E+00;  0.0000000E+00;
  4.0000000E+00;  9.9999998E-03; -1.0000000E+00;385;  0.0000000E+00;  0.0000000E+00;  0.0000000E+00;  1.0000000E+01;  4.0000001E-01;  0.0000000E+00;3;  0.0000000E+00;  0.0000000E+00;  0.0000000E+00;  0.0000000E+00;  0.0000000E+00;  0.0000000E+00;0;  0.0000000E+00;  1.0000000E+02;  0.0000000E+00;  0.0000000E+00;  1.0000000E+02;  0.0000000E+00;  1.0000000E+02;  0.0000000E+00;  0.0000000E+00;  0.0000000E+00;  0.0000000E+00;
  4.0000000E+00;  9.9999998E-03; -8.0000001E-01;386;  0.0000000E+00;  0.0000000E+00;  0.0000000E+00;  1.0000000E+01;  4.0000001E-01;  0.0000000E+00;3;  0.0000000E+00;  0.0000000E+00;  0.0000000E+00;  0.0000000E+00;  0.0000000E+00;  0.0000000E+00;0;  0.0000000E+00;  1.0000000E+02;  0.0000000E+00;  0.0000000E+00;  1.0000000E+02;  0.0000000E+00;  1.0000000E+02;  0.0000000E+00;  0.0000000E+00;  0.0000000E+00;  0.0000000E+00;
  4.0000000E+00;  9.9999998E-03; -6.0000002E-01;387;  0.0000000E+00;  0.0000000E+00;  0.0000000E+00;  1.0000000E+01;  4.0000001E-01;  0.0000000E+00;3;  0.0000000E+00;  0.0000000E+00;  0.0000000E+00;  0.0000000E+00;  0.0000000E+00;  0.0000000E+00;0;  0.0000000E+00;  1.0000000E+02;  0.0000000E+00;  0.0000000E+00;  1.0000000E+02;  0.0000000E+00;  1.0000000E+02;  0.0000000E+00;  0.0000000E+00;  0.0000000E+00;  0.0000000E+00;
  4.0000000E+00;  9.9999998E-03; -4.0000001E-01;388;  0.0000000E+00;  0.0000000E+00;  0.0000000E+00;  1.0000000E+01;  4.0000001E-01;  0.0000000E+00;3;  0.0000000E+00;  0.0000000E+00;  0.0000000E+00;  0.0000000E+00;  0.0000000E+00;  0.0000000E+00;0;  0.0000000E+00;  1.0000000E+02;  0.0000000E+00;  0.0000000E+00;  1.0000000E+02;  0.0000000E+00;  1.0000000E+02;  0.0000000E+00;  0.0000000E+00;  0.0000000E+00;  0.0000000E+00;
  4.0000000E+00;  9.9999998E-03; -2.0000000E-01;389;  0.0000000E+00;  0.0000000E+00;  0.0000000E+00;  1.0000000E+01;  4.0000001E-01;  0.0000000E+00;3;  0.0000000E+00;  0.0000000E+00;  0.0000000E+00;  0.0000000E+00;  0.0000000E+00;  0.0000000E+00;0;  0.0000000E+00;  1.0000000E+02;  0.0000000E+00;  0.0000000E+00;  1.0000000E+02;  0.0000000E+00;  1.0000000E+02;  0.0000000E+00;  0.0000000E+00;  0.0000000E+00;  0.0000000E+00;
  4.1999998E+00;  9.9999998E-03; -1.0000000E+00;396;  0.0000000E+00;  0.0000000E+00;  0.0000000E+00;  1.0000000E+01;  4.0000001E-01;  0.0000000E+00;3;  0.0000000E+00;  0.0000000E+00;  0.0000000E+00;  0.0000000E+00;  0.0000000E+00;  0.0000000E+00;0;  0.0000000E+00;  1.0000000E+02;  0.0000000E+00;  0.0000000E+00;  1.0000000E+02;  0.0000000E+00;  1.0000000E+02;  0.0000000E+00;  0.0000000E+00;  0.0000000E+00;  0.0000000E+00;
  4.1999998E+00;  9.9999998E-03; -8.0000001E-01;397;  0.0000000E+00;  0.0000000E+00;  0.0000000E+00;  1.0000000E+01;  4.0000001E-01;  0.0000000E+00;3;  0.0000000E+00;  0.0000000E+00;  0.0000000E+00;  0.0000000E+00;  0.0000000E+00;  0.0000000E+00;0;  0.0000000E+00;  1.0000000E+02;  0.0000000E+00;  0.0000000E+00;  1.0000000E+02;  0.0000000E+00;  1.0000000E+02;  0.0000000E+00;  0.0000000E+00;  0.0000000E+00;  0.0000000E+00;
  4.1999998E+00;  9.9999998E-03; -6.0000002E-01;398;  0.0000000E+00;  0.0000000E+00;  0.0000000E+00;  1.0000000E+01;  4.0000001E-01;  0.0000000E+00;3;  0.0000000E+00;  0.0000000E+00;  0.0000000E+00;  0.0000000E+00;  0.0000000E+00;  0.0000000E+00;0;  0.0000000E+00;  1.0000000E+02;  0.0000000E+00;  0.0000000E+00;  1.0000000E+02;  0.0000000E+00;  1.0000000E+02;  0.0000000E+00;  0.0000000E+00;  0.0000000E+00;  0.0000000E+00;
  4.1999998E+00;  9.9999998E-03; -4.0000001E-01;399;  0.0000000E+00;  0.0000000E+00;  0.0000000E+00;  1.0000000E+01;  4.0000001E-01;  0.0000000E+00;3;  0.0000000E+00;  0.0000000E+00;  0.0000000E+00;  0.0000000E+00;  0.0000000E+00;  0.0000000E+00;0;  0.0000000E+00;  1.0000000E+02;  0.0000000E+00;  0.0000000E+00;  1.0000000E+02;  0.0000000E+00;  1.0000000E+02;  0.0000000E+00;  0.0000000E+00;  0.0000000E+00;  0.0000000E+00;
  4.1999998E+00;  9.9999998E-03; -2.0000000E-01;400;  0.0000000E+00;  0.0000000E+00;  0.0000000E+00;  1.0000000E+01;  4.0000001E-01;  0.0000000E+00;3;  0.0000000E+00;  0.0000000E+00;  0.0000000E+00;  0.0000000E+00;  0.0000000E+00;  0.0000000E+00;0;  0.0000000E+00;  1.0000000E+02;  0.0000000E+00;  0.0000000E+00;  1.0000000E+02;  0.0000000E+00;  1.0000000E+02;  0.0000000E+00;  0.0000000E+00;  0.0000000E+00;  0.0000000E+00;
  4.4000001E+00;  9.9999998E-03; -1.0000000E+00;407;  0.0000000E+00;  0.0000000E+00;  0.0000000E+00;  1.0000000E+01;  4.0000001E-01;  0.0000000E+00;3;  0.0000000E+00;  0.0000000E+00;  0.0000000E+00;  0.0000000E+00;  0.0000000E+00;  0.0000000E+00;0;  0.0000000E+00;  1.0000000E+02;  0.0000000E+00;  0.0000000E+00;  1.0000000E+02;  0.0000000E+00;  1.0000000E+02;  0.0000000E+00;  0.0000000E+00;  0.0000000E+00;  0.0000000E+00;
  4.4000001E+00;  9.9999998E-03; -8.0000001E-01;408;  0.0000000E+00;  0.0000000E+00;  0.0000000E+00;  1.0000000E+01;  4.0000001E-01;  0.0000000E+00;3;  0.0000000E+00;  0.0000000E+00;  0.0000000E+00;  0.0000000E+00;  0.0000000E+00;  0.0000000E+00;0;  0.0000000E+00;  1.0000000E+02;  0.0000000E+00;  0.0000000E+00;  1.0000000E+02;  0.0000000E+00;  1.0000000E+02;  0.0000000E+00;  0.0000000E+00;  0.0000000E+00;  0.0000000E+00;
  4.4000001E+00;  9.9999998E-03; -6.0000002E-01;409;  0.0000000E+00;  0.0000000E+00;  0.0000000E+00;  1.0000000E+01;  4.0000001E-01;  0.0000000E+00;3;  0.0000000E+00;  0.0000000E+00;  0.0000000E+00;  0.0000000E+00;  0.0000000E+00;  0.0000000E+00;0;  0.0000000E+00;  1.0000000E+02;  0.0000000E+00;  0.0000000E+00;  1.0000000E+02;  0.0000000E+00;  1.0000000E+02;  0.0000000E+00;  0.0000000E+00;  0.0000000E+00;  0.0000000E+00;
  4.4000001E+00;  9.9999998E-03; -4.0000001E-01;410;  0.0000000E+00;  0.0000000E+00;  0.0000000E+00;  1.0000000E+01;  4.0000001E-01;  0.0000000E+00;3;  0.0000000E+00;  0.0000000E+00;  0.0000000E+00;  0.0000000E+00;  0.0000000E+00;  0.0000000E+00;0;  0.0000000E+00;  1.0000000E+02;  0.0000000E+00;  0.0000000E+00;  1.0000000E+02;  0.0000000E+00;  1.0000000E+02;  0.0000000E+00;  0.0000000E+00;  0.0000000E+00;  0.0000000E+00;
  4.4000001E+00;  9.9999998E-03; -2.0000000E-01;411;  0.0000000E+00;  0.0000000E+00;  0.0000000E+00;  1.0000000E+01;  4.0000001E-01;  0.0000000E+00;3;  0.0000000E+00;  0.0000000E+00;  0.0000000E+00;  0.0000000E+00;  0.0000000E+00;  0.0000000E+00;0;  0.0000000E+00;  1.0000000E+02;  0.0000000E+00;  0.0000000E+00;  1.0000000E+02;  0.0000000E+00;  1.0000000E+02;  0.0000000E+00;  0.0000000E+00;  0.0000000E+00;  0.0000000E+00;
  4.5999999E+00;  9.9999998E-03; -1.0000000E+00;418;  0.0000000E+00;  0.0000000E+00;  0.0000000E+00;  1.0000000E+01;  4.0000001E-01;  0.0000000E+00;3;  0.0000000E+00;  0.0000000E+00;  0.0000000E+00;  0.0000000E+00;  0.0000000E+00;  0.0000000E+00;0;  0.0000000E+00;  1.0000000E+02;  0.0000000E+00;  0.0000000E+00;  1.0000000E+02;  0.0000000E+00;  1.0000000E+02;  0.0000000E+00;  0.0000000E+00;  0.0000000E+00;  0.0000000E+00;
  4.5999999E+00;  9.9999998E-03; -8.0000001E-01;419;  0.0000000E+00;  0.0000000E+00;  0.0000000E+00;  1.0000000E+01;  4.0000001E-01;  0.0000000E+00;3;  0.0000000E+00;  0.0000000E+00;  0.0000000E+00;  0.0000000E+00;  0.0000000E+00;  0.0000000E+00;0;  0.0000000E+00;  1.0000000E+02;  0.0000000E+00;  0.0000000E+00;  1.0000000E+02;  0.0000000E+00;  1.0000000E+02;  0.0000000E+00;  0.0000000E+00;  0.0000000E+00;  0.0000000E+00;
  4.5999999E+00;  9.9999998E-03; -6.0000002E-01;420;  0.0000000E+00;  0.0000000E+00;  0.0000000E+00;  1.0000000E+01;  4.0000001E-01;  0.0000000E+00;3;  0.0000000E+00;  0.0000000E+00;  0.0000000E+00;  0.0000000E+00;  0.0000000E+00;  0.0000000E+00;0;  0.0000000E+00;  1.0000000E+02;  0.0000000E+00;  0.0000000E+00;  1.0000000E+02;  0.0000000E+00;  1.0000000E+02;  0.0000000E+00;  0.0000000E+00;  0.0000000E+00;  0.0000000E+00;
  4.5999999E+00;  9.9999998E-03; -4.0000001E-01;421;  0.0000000E+00;  0.0000000E+00;  0.0000000E+00;  1.0000000E+01;  4.0000001E-01;  0.0000000E+00;3;  0.0000000E+00;  0.0000000E+00;  0.0000000E+00;  0.0000000E+00;  0.0000000E+00;  0.0000000E+00;0;  0.0000000E+00;  1.0000000E+02;  0.0000000E+00;  0.0000000E+00;  1.0000000E+02;  0.0000000E+00;  1.0000000E+02;  0.0000000E+00;  0.0000000E+00;  0.0000000E+00;  0.0000000E+00;
  4.5999999E+00;  9.9999998E-03; -2.0000000E-01;422;  0.0000000E+00;  0.0000000E+00;  0.0000000E+00;  1.0000000E+01;  4.0000001E-01;  0.0000000E+00;3;  0.0000000E+00;  0.0000000E+00;  0.0000000E+00;  0.0000000E+00;  0.0000000E+00;  0.0000000E+00;0;  0.0000000E+00;  1.0000000E+02;  0.0000000E+00;  0.0000000E+00;  1.0000000E+02;  0.0000000E+00;  1.0000000E+02;  0.0000000E+00;  0.0000000E+00;  0.0000000E+00;  0.0000000E+00;
  4.8000002E+00;  9.9999998E-03; -1.0000000E+00;429;  0.0000000E+00;  0.0000000E+00;  0.0000000E+00;  1.0000000E+01;  4.0000001E-01;  0.0000000E+00;3;  0.0000000E+00;  0.0000000E+00;  0.0000000E+00;  0.0000000E+00;  0.0000000E+00;  0.0000000E+00;0;  0.0000000E+00;  1.0000000E+02;  0.0000000E+00;  0.0000000E+00;  1.0000000E+02;  0.0000000E+00;  1.0000000E+02;  0.0000000E+00;  0.0000000E+00;  0.0000000E+00;  0.0000000E+00;
  4.8000002E+00;  9.9999998E-03; -8.0000001E-01;430;  0.0000000E+00;  0.0000000E+00;  0.0000000E+00;  1.0000000E+01;  4.0000001E-01;  0.0000000E+00;3;  0.0000000E+00;  0.0000000E+00;  0.0000000E+00;  0.0000000E+00;  0.0000000E+00;  0.0000000E+00;0;  0.0000000E+00;  1.0000000E+02;  0.0000000E+00;  0.0000000E+00;  1.0000000E+02;  0.0000000E+00;  1.0000000E+02;  0.0000000E+00;  0.0000000E+00;  0.0000000E+00;  0.0000000E+00;
  4.8000002E+00;  9.9999998E-03; -6.0000002E-01;431;  0.0000000E+00;  0.0000000E+00;  0.0000000E+00;  1.0000000E+01;  4.0000001E-01;  0.0000000E+00;3;  0.0000000E+00;  0.0000000E+00;  0.0000000E+00;  0.0000000E+00;  0.0000000E+00;  0.0000000E+00;0;  0.0000000E+00;  1.0000000E+02;  0.0000000E+00;  0.0000000E+00;  1.0000000E+02;  0.0000000E+00;  1.0000000E+02;  0.0000000E+00;  0.0000000E+00;  0.0000000E+00;  0.0000000E+00;
  4.8000002E+00;  9.9999998E-03; -4.0000001E-01;432;  0.0000000E+00;  0.0000000E+00;  0.0000000E+00;  1.0000000E+01;  4.0000001E-01;  0.0000000E+00;3;  0.0000000E+00;  0.0000000E+00;  0.0000000E+00;  0.0000000E+00;  0.0000000E+00;  0.0000000E+00;0;  0.0000000E+00;  1.0000000E+02;  0.0000000E+00;  0.0000000E+00;  1.0000000E+02;  0.0000000E+00;  1.0000000E+02;  0.0000000E+00;  0.0000000E+00;  0.0000000E+00;  0.0000000E+00;
  4.8000002E+00;  9.9999998E-03; -2.0000000E-01;433;  0.0000000E+00;  0.0000000E+00;  0.0000000E+00;  1.0000000E+01;  4.0000001E-01;  0.0000000E+00;3;  0.0000000E+00;  0.0000000E+00;  0.0000000E+00;  0.0000000E+00;  0.0000000E+00;  0.0000000E+00;0;  0.0000000E+00;  1.0000000E+02;  0.0000000E+00;  0.0000000E+00;  1.0000000E+02;  0.0000000E+00;  1.0000000E+02;  0.0000000E+00;  0.0000000E+00;  0.0000000E+00;  0.0000000E+00;
  5.0000000E+00;  9.9999998E-03; -1.0000000E+00;440;  0.0000000E+00;  0.0000000E+00;  0.0000000E+00;  1.0000000E+01;  4.0000001E-01;  0.0000000E+00;3;  0.0000000E+00;  0.0000000E+00;  0.0000000E+00;  0.0000000E+00;  0.0000000E+00;  0.0000000E+00;0;  0.0000000E+00;  1.0000000E+02;  0.0000000E+00;  0.0000000E+00;  1.0000000E+02;  0.0000000E+00;  1.0000000E+02;  0.0000000E+00;  0.0000000E+00;  0.0000000E+00;  0.0000000E+00;
  5.0000000E+00;  9.9999998E-03; -8.0000001E-01;441;  0.0000000E+00;  0.0000000E+00;  0.0000000E+00;  1.0000000E+01;  4.0000001E-01;  0.0000000E+00;3;  0.0000000E+00;  0.0000000E+00;  0.0000000E+00;  0.0000000E+00;  0.0000000E+00;  0.0000000E+00;0;  0.0000000E+00;  1.0000000E+02;  0.0000000E+00;  0.0000000E+00;  1.0000000E+02;  0.0000000E+00;  1.0000000E+02;  0.0000000E+00;  0.0000000E+00;  0.0000000E+00;  0.0000000E+00;
  5.0000000E+00;  9.9999998E-03; -6.0000002E-01;442;  0.0000000E+00;  0.0000000E+00;  0.0000000E+00;  1.0000000E+01;  4.0000001E-01;  0.0000000E+00;3;  0.0000000E+00;  0.0000000E+00;  0.0000000E+00;  0.0000000E+00;  0.0000000E+00;  0.0000000E+00;0;  0.0000000E+00;  1.0000000E+02;  0.0000000E+00;  0.0000000E+00;  1.0000000E+02;  0.0000000E+00;  1.0000000E+02;  0.0000000E+00;  0.0000000E+00;  0.0000000E+00;  0.0000000E+00;
  5.0000000E+00;  9.9999998E-03; -4.0000001E-01;443;  0.0000000E+00;  0.0000000E+00;  0.0000000E+00;  1.0000000E+01;  4.0000001E-01;  0.0000000E+00;3;  0.0000000E+00;  0.0000000E+00;  0.0000000E+00;  0.0000000E+00;  0.0000000E+00;  0.0000000E+00;0;  0.0000000E+00;  1.0000000E+02;  0.0000000E+00;  0.0000000E+00;  1.0000000E+02;  0.0000000E+00;  1.0000000E+02;  0.0000000E+00;  0.0000000E+00;  0.0000000E+00;  0.0000000E+00;
  5.0000000E+00;  9.9999998E-03; -2.0000000E-01;444;  0.0000000E+00;  0.0000000E+00;  0.0000000E+00;  1.0000000E+01;  4.0000001E-01;  0.0000000E+00;3;  0.0000000E+00;  0.0000000E+00;  0.0000000E+00;  0.0000000E+00;  0.0000000E+00;  0.0000000E+00;0;  0.0000000E+00;  1.0000000E+02;  0.0000000E+00;  0.0000000E+00;  1.0000000E+02;  0.0000000E+00;  1.0000000E+02;  0.0000000E+00;  0.0000000E+00;  0.0000000E+00;  0.0000000E+00;
  5.1999998E+00;  9.9999998E-03; -1.0000000E+00;451;  0.0000000E+00;  0.0000000E+00;  0.0000000E+00;  1.0000000E+01;  4.0000001E-01;  0.0000000E+00;3;  0.0000000E+00;  0.0000000E+00;  0.0000000E+00;  0.0000000E+00;  0.0000000E+00;  0.0000000E+00;0;  0.0000000E+00;  1.0000000E+02;  0.0000000E+00;  0.0000000E+00;  1.0000000E+02;  0.0000000E+00;  1.0000000E+02;  0.0000000E+00;  0.0000000E+00;  0.0000000E+00;  0.0000000E+00;
  5.1999998E+00;  9.9999998E-03; -8.0000001E-01;452;  0.0000000E+00;  0.0000000E+00;  0.0000000E+00;  1.0000000E+01;  4.0000001E-01;  0.0000000E+00;3;  0.0000000E+00;  0.0000000E+00;  0.0000000E+00;  0.0000000E+00;  0.0000000E+00;  0.0000000E+00;0;  0.0000000E+00;  1.0000000E+02;  0.0000000E+00;  0.0000000E+00;  1.0000000E+02;  0.0000000E+00;  1.0000000E+02;  0.0000000E+00;  0.0000000E+00;  0.0000000E+00;  0.0000000E+00;
  5.1999998E+00;  9.9999998E-03; -6.0000002E-01;453;  0.0000000E+00;  0.0000000E+00;  0.0000000E+00;  1.0000000E+01;  4.0000001E-01;  0.0000000E+00;3;  0.0000000E+00;  0.0000000E+00;  0.0000000E+00;  0.0000000E+00;  0.0000000E+00;  0.0000000E+00;0;  0.0000000E+00;  1.0000000E+02;  0.0000000E+00;  0.0000000E+00;  1.0000000E+02;  0.0000000E+00;  1.0000000E+02;  0.0000000E+00;  0.0000000E+00;  0.0000000E+00;  0.0000000E+00;
  5.1999998E+00;  9.9999998E-03; -4.0000001E-01;454;  0.0000000E+00;  0.0000000E+00;  0.0000000E+00;  1.0000000E+01;  4.0000001E-01;  0.0000000E+00;3;  0.0000000E+00;  0.0000000E+00;  0.0000000E+00;  0.0000000E+00;  0.0000000E+00;  0.0000000E+00;0;  0.0000000E+00;  1.0000000E+02;  0.0000000E+00;  0.0000000E+00;  1.0000000E+02;  0.0000000E+00;  1.0000000E+02;  0.0000000E+00;  0.0000000E+00;  0.0000000E+00;  0.0000000E+00;
  5.1999998E+00;  9.9999998E-03; -2.0000000E-01;455;  0.0000000E+00;  0.0000000E+00;  0.0000000E+00;  1.0000000E+01;  4.0000001E-01;  0.0000000E+00;3;  0.0000000E+00;  0.0000000E+00;  0.0000000E+00;  0.0000000E+00;  0.0000000E+00;  0.0000000E+00;0;  0.0000000E+00;  1.0000000E+02;  0.0000000E+00;  0.0000000E+00;  1.0000000E+02;  0.0000000E+00;  1.0000000E+02;  0.0000000E+00;  0.0000000E+00;  0.0000000E+00;  0.0000000E+00;
  5.4000001E+00;  9.9999998E-03; -1.0000000E+00;462;  0.0000000E+00;  0.0000000E+00;  0.0000000E+00;  1.0000000E+01;  4.0000001E-01;  0.0000000E+00;3;  0.0000000E+00;  0.0000000E+00;  0.0000000E+00;  0.0000000E+00;  0.0000000E+00;  0.0000000E+00;0;  0.0000000E+00;  1.0000000E+02;  0.0000000E+00;  0.0000000E+00;  1.0000000E+02;  0.0000000E+00;  1.0000000E+02;  0.0000000E+00;  0.0000000E+00;  0.0000000E+00;  0.0000000E+00;
  5.4000001E+00;  9.9999998E-03; -8.0000001E-01;463;  0.0000000E+00;  0.0000000E+00;  0.0000000E+00;  1.0000000E+01;  4.0000001E-01;  0.0000000E+00;3;  0.0000000E+00;  0.0000000E+00;  0.0000000E+00;  0.0000000E+00;  0.0000000E+00;  0.0000000E+00;0;  0.0000000E+00;  1.0000000E+02;  0.0000000E+00;  0.0000000E+00;  1.0000000E+02;  0.0000000E+00;  1.0000000E+02;  0.0000000E+00;  0.0000000E+00;  0.0000000E+00;  0.0000000E+00;
  5.4000001E+00;  9.9999998E-03; -6.0000002E-01;464;  0.0000000E+00;  0.0000000E+00;  0.0000000E+00;  1.0000000E+01;  4.0000001E-01;  0.0000000E+00;3;  0.0000000E+00;  0.0000000E+00;  0.0000000E+00;  0.0000000E+00;  0.0000000E+00;  0.0000000E+00;0;  0.0000000E+00;  1.0000000E+02;  0.0000000E+00;  0.0000000E+00;  1.0000000E+02;  0.0000000E+00;  1.0000000E+02;  0.0000000E+00;  0.0000000E+00;  0.0000000E+00;  0.0000000E+00;
  5.4000001E+00;  9.9999998E-03; -4.0000001E-01;465;  0.0000000E+00;  0.0000000E+00;  0.0000000E+00;  1.0000000E+01;  4.0000001E-01;  0.0000000E+00;3;  0.0000000E+00;  0.0000000E+00;  0.0000000E+00;  0.0000000E+00;  0.0000000E+00;  0.0000000E+00;0;  0.0000000E+00;  1.0000000E+02;  0.0000000E+00;  0.0000000E+00;  1.0000000E+02;  0.0000000E+00;  1.0000000E+02;  0.0000000E+00;  0.0000000E+00;  0.0000000E+00;  0.0000000E+00;
  5.4000001E+00;  9.9999998E-03; -2.0000000E-01;466;  0.0000000E+00;  0.0000000E+00;  0.0000000E+00;  1.0000000E+01;  4.0000001E-01;  0.0000000E+00;3;  0.0000000E+00;  0.0000000E+00;  0.0000000E+00;  0.0000000E+00;  0.0000000E+00;  0.0000000E+00;0;  0.0000000E+00;  1.0000000E+02;  0.0000000E+00;  0.0000000E+00;  1.0000000E+02;  0.0000000E+00;  1.0000000E+02;  0.0000000E+00;  0.0000000E+00;  0.0000000E+00;  0.0000000E+00;
  5.5999999E+00;  9.9999998E-03; -8.0000001E-01;473;  0.0000000E+00;  0.0000000E+00;  0.0000000E+00;  1.0000000E+01;  4.0000001E-01;  0.0000000E+00;3;  0.0000000E+00;  0.0000000E+00;  0.0000000E+00;  0.0000000E+00;  0.0000000E+00;  0.0000000E+00;0;  0.0000000E+00;  1.0000000E+02;  0.0000000E+00;  0.0000000E+00;  1.0000000E+02;  0.0000000E+00;  1.0000000E+02;  0.0000000E+00;  0.0000000E+00;  0.0000000E+00;  0.0000000E+00;
  5.5999999E+00;  9.9999998E-03; -6.0000002E-01;474;  0.0000000E+00;  0.0000000E+00;  0.0000000E+00;  1.0000000E+01;  4.0000001E-01;  0.0000000E+00;3;  0.0000000E+00;  0.0000000E+00;  0.0000000E+00;  0.0000000E+00;  0.0000000E+00;  0.0000000E+00;0;  0.0000000E+00;  1.0000000E+02;  0.0000000E+00;  0.0000000E+00;  1.0000000E+02;  0.0000000E+00;  1.0000000E+02;  0.0000000E+00;  0.0000000E+00;  0.0000000E+00;  0.0000000E+00;
  5.5999999E+00;  9.9999998E-03; -4.0000001E-01;475;  0.0000000E+00;  0.0000000E+00;  0.0000000E+00;  1.0000000E+01;  4.0000001E-01;  0.0000000E+00;3;  0.0000000E+00;  0.0000000E+00;  0.0000000E+00;  0.0000000E+00;  0.0000000E+00;  0.0000000E+00;0;  0.0000000E+00;  1.0000000E+02;  0.0000000E+00;  0.0000000E+00;  1.0000000E+02;  0.0000000E+00;  1.0000000E+02;  0.0000000E+00;  0.0000000E+00;  0.0000000E+00;  0.0000000E+00;
  5.5999999E+00;  9.9999998E-03; -2.0000000E-01;476;  0.0000000E+00;  0.0000000E+00;  0.0000000E+00;  1.0000000E+01;  4.0000001E-01;  0.0000000E+00;3;  0.0000000E+00;  0.0000000E+00;  0.0000000E+00;  0.0000000E+00;  0.0000000E+00;  0.0000000E+00;0;  0.0000000E+00;  1.0000000E+02;  0.0000000E+00;  0.0000000E+00;  1.0000000E+02;  0.0000000E+00;  1.0000000E+02;  0.0000000E+00;  0.0000000E+00;  0.0000000E+00;  0.0000000E+00;
  5.8000002E+00;  9.9999998E-03; -6.0000002E-01;482;  0.0000000E+00;  0.0000000E+00;  0.0000000E+00;  1.0000000E+01;  4.0000001E-01;  0.0000000E+00;3;  0.0000000E+00;  0.0000000E+00;  0.0000000E+00;  0.0000000E+00;  0.0000000E+00;  0.0000000E+00;0;  0.0000000E+00;  1.0000000E+02;  0.0000000E+00;  0.0000000E+00;  1.0000000E+02;  0.0000000E+00;  1.0000000E+02;  0.0000000E+00;  0.0000000E+00;  0.0000000E+00;  0.0000000E+00;
  5.8000002E+00;  9.9999998E-03; -4.0000001E-01;483;  0.0000000E+00;  0.0000000E+00;  0.0000000E+00;  1.0000000E+01;  4.0000001E-01;  0.0000000E+00;3;  0.0000000E+00;  0.0000000E+00;  0.0000000E+00;  0.0000000E+00;  0.0000000E+00;  0.0000000E+00;0;  0.0000000E+00;  1.0000000E+02;  0.0000000E+00;  0.0000000E+00;  1.0000000E+02;  0.0000000E+00;  1.0000000E+02;  0.0000000E+00;  0.0000000E+00;  0.0000000E+00;  0.0000000E+00;
  5.8000002E+00;  9.9999998E-03; -2.0000000E-01;484;  0.0000000E+00;  0.0000000E+00;  0.0000000E+00;  1.0000000E+01;  4.0000001E-01;  0.0000000E+00;3;  0.0000000E+00;  0.0000000E+00;  0.0000000E+00;  0.0000000E+00;  0.0000000E+00;  0.0000000E+00;0;  0.0000000E+00;  1.0000000E+02;  0.0000000E+00;  0.0000000E+00;  1.0000000E+02;  0.0000000E+00;  1.0000000E+02;  0.0000000E+00;  0.0000000E+00;  0.0000000E+00;  0.0000000E+00;
  6.0000000E+00;  9.9999998E-03; -4.0000001E-01;489;  0.0000000E+00;  0.0000000E+00;  0.0000000E+00;  1.0000000E+01;  4.0000001E-01;  0.0000000E+00;3;  0.0000000E+00;  0.0000000E+00;  0.0000000E+00;  0.0000000E+00;  0.0000000E+00;  0.0000000E+00;0;  0.0000000E+00;  1.0000000E+02;  0.0000000E+00;  0.0000000E+00;  1.0000000E+02;  0.0000000E+00;  1.0000000E+02;  0.0000000E+00;  0.0000000E+00;  0.0000000E+00;  0.0000000E+00;
  6.0000000E+00;  9.9999998E-03; -2.0000000E-01;490;  0.0000000E+00;  0.0000000E+00;  0.0000000E+00;  1.0000000E+01;  4.0000001E-01;  0.0000000E+00;3;  0.0000000E+00;  0.0000000E+00;  0.0000000E+00;  0.0000000E+00;  0.0000000E+00;  0.0000000E+00;0;  0.0000000E+00;  1.0000000E+02;  0.0000000E+00;  0.0000000E+00;  1.0000000E+02;  0.0000000E+00;  1.0000000E+02;  0.0000000E+00;  0.0000000E+00;  0.0000000E+00;  0.0000000E+00;
  0.0000000E+00;  9.9999998E-03;  0.0000000E+00;170;  0.0000000E+00;  0.0000000E+00;  0.0000000E+00;  1.0000000E+01;  4.0000001E-01;  0.0000000E+00;3;  0.0000000E+00;  0.0000000E+00;  0.0000000E+00;  0.0000000E+00;  0.0000000E+00;  0.0000000E+00;0;  0.0000000E+00;  1.0000000E+02;  0.0000000E+00;  0.0000000E+00;  1.0000000E+02;  0.0000000E+00;  1.0000000E+02;  0.0000000E+00;  0.0000000E+00;  0.0000000E+00;  0.0000000E+00;
  0.0000000E+00;  9.9999998E-03;  2.0000000E-01;171;  0.0000000E+00;  0.0000000E+00;  0.0000000E+00;  1.0000000E+01;  4.0000001E-01;  0.0000000E+00;3;  0.0000000E+00;  0.0000000E+00;  0.0000000E+00;  0.0000000E+00;  0.0000000E+00;  0.0000000E+00;0;  0.0000000E+00;  1.0000000E+02;  0.0000000E+00;  0.0000000E+00;  1.0000000E+02;  0.0000000E+00;  1.0000000E+02;  0.0000000E+00;  0.0000000E+00;  0.0000000E+00;  0.0000000E+00;
  0.0000000E+00;  9.9999998E-03;  4.0000001E-01;172;  0.0000000E+00;  0.0000000E+00;  0.0000000E+00;  1.0000000E+01;  4.0000001E-01;  0.0000000E+00;3;  0.0000000E+00;  0.0000000E+00;  0.0000000E+00;  0.0000000E+00;  0.0000000E+00;  0.0000000E+00;0;  0.0000000E+00;  1.0000000E+02;  0.0000000E+00;  0.0000000E+00;  1.0000000E+02;  0.0000000E+00;  1.0000000E+02;  0.0000000E+00;  0.0000000E+00;  0.0000000E+00;  0.0000000E+00;
  0.0000000E+00;  9.9999998E-03;  6.0000002E-01;173;  0.0000000E+00;  0.0000000E+00;  0.0000000E+00;  1.0000000E+01;  4.0000001E-01;  0.0000000E+00;3;  0.0000000E+00;  0.0000000E+00;  0.0000000E+00;  0.0000000E+00;  0.0000000E+00;  0.0000000E+00;0;  0.0000000E+00;  1.0000000E+02;  0.0000000E+00;  0.0000000E+00;  1.0000000E+02;  0.0000000E+00;  1.0000000E+02;  0.0000000E+00;  0.0000000E+00;  0.0000000E+00;  0.0000000E+00;
  0.0000000E+00;  9.9999998E-03;  8.0000001E-01;174;  0.0000000E+00;  0.0000000E+00;  0.0000000E+00;  1.0000000E+01;  4.0000001E-01;  0.0000000E+00;3;  0.0000000E+00;  0.0000000E+00;  0.0000000E+00;  0.0000000E+00;  0.0000000E+00;  0.0000000E+00;0;  0.0000000E+00;  1.0000000E+02;  0.0000000E+00;  0.0000000E+00;  1.0000000E+02;  0.0000000E+00;  1.0000000E+02;  0.0000000E+00;  0.0000000E+00;  0.0000000E+00;  0.0000000E+00;
  0.0000000E+00;  9.9999998E-03;  1.0000000E+00;175;  0.0000000E+00;  0.0000000E+00;  0.0000000E+00;  1.0000000E+01;  4.0000001E-01;  0.0000000E+00;3;  0.0000000E+00;  0.0000000E+00;  0.0000000E+00;  0.0000000E+00;  0.0000000E+00;  0.0000000E+00;0;  0.0000000E+00;  1.0000000E+02;  0.0000000E+00;  0.0000000E+00;  1.0000000E+02;  0.0000000E+00;  1.0000000E+02;  0.0000000E+00;  0.0000000E+00;  0.0000000E+00;  0.0000000E+00;
  2.0000000E-01;  9.9999998E-03;  0.0000000E+00;181;  0.0000000E+00;  0.0000000E+00;  0.0000000E+00;  1.0000000E+01;  4.0000001E-01;  0.0000000E+00;3;  0.0000000E+00;  0.0000000E+00;  0.0000000E+00;  0.0000000E+00;  0.0000000E+00;  0.0000000E+00;0;  0.0000000E+00;  1.0000000E+02;  0.0000000E+00;  0.0000000E+00;  1.0000000E+02;  0.0000000E+00;  1.0000000E+02;  0.0000000E+00;  0.0000000E+00;  0.0000000E+00;  0.0000000E+00;
  2.0000000E-01;  9.9999998E-03;  2.0000000E-01;182;  0.0000000E+00;  0.0000000E+00;  0.0000000E+00;  1.0000000E+01;  4.0000001E-01;  0.0000000E+00;3;  0.0000000E+00;  0.0000000E+00;  0.0000000E+00;  0.0000000E+00;  0.0000000E+00;  0.0000000E+00;0;  0.0000000E+00;  1.0000000E+02;  0.0000000E+00;  0.0000000E+00;  1.0000000E+02;  0.0000000E+00;  1.0000000E+02;  0.0000000E+00;  0.0000000E+00;  0.0000000E+00;  0.0000000E+00;
  2.0000000E-01;  9.9999998E-03;  4.0000001E-01;183;  0.0000000E+00;  0.0000000E+00;  0.0000000E+00;  1.0000000E+01;  4.0000001E-01;  0.0000000E+00;3;  0.0000000E+00;  0.0000000E+00;  0.0000000E+00;  0.0000000E+00;  0.0000000E+00;  0.0000000E+00;0;  0.0000000E+00;  1.0000000E+02;  0.0000000E+00;  0.0000000E+00;  1.0000000E+02;  0.0000000E+00;  1.0000000E+02;  0.0000000E+00;  0.0000000E+00;  0.0000000E+00;  0.0000000E+00;
  2.0000000E-01;  9.9999998E-03;  6.0000002E-01;184;  0.0000000E+00;  0.0000000E+00;  0.0000000E+00;  1.0000000E+01;  4.0000001E-01;  0.0000000E+00;3;  0.0000000E+00;  0.0000000E+00;  0.0000000E+00;  0.0000000E+00;  0.0000000E+00;  0.0000000E+00;0;  0.0000000E+00;  1.0000000E+02;  0.0000000E+00;  0.0000000E+00;  1.0000000E+02;  0.0000000E+00;  1.0000000E+02;  0.0000000E+00;  0.0000000E+00;  0.0000000E+00;  0.0000000E+00;
  2.0000000E-01;  9.9999998E-03;  8.0000001E-01;185;  0.0000000E+00;  0.0000000E+00;  0.0000000E+00;  1.0000000E+01;  4.0000001E-01;  0.0000000E+00;3;  0.0000000E+00;  0.0000000E+00;  0.0000000E+00;  0.0000000E+00;  0.0000000E+00;  0.0000000E+00;0;  0.0000000E+00;  1.0000000E+02;  0.0000000E+00;  0.0000000E+00;  1.0000000E+02;  0.0000000E+00;  1.0000000E+02;  0.0000000E+00;  0.0000000E+00;  0.0000000E+00;  0.0000000E+00;
  2.0000000E-01;  9.9999998E-03;  1.0000000E+00;186;  0.0000000E+00;  0.0000000E+00;  0.0000000E+00;  1.0000000E+01;  4.0000001E-01;  0.0000000E+00;3;  0.0000000E+00;  0.0000000E+00;  0.0000000E+00;  0.0000000E+00;  0.0000000E+00;  0.0000000E+00;0;  0.0000000E+00;  1.0000000E+02;  0.0000000E+00;  0.0000000E+00;  1.0000000E+02;  0.0000000E+00;  1.0000000E+02;  0.0000000E+00;  0.0000000E+00;  0.0000000E+00;  0.0000000E+00;
  4.0000001E-01;  9.9999998E-03;  0.0000000E+00;192;  0.0000000E+00;  0.0000000E+00;  0.0000000E+00;  1.0000000E+01;  4.0000001E-01;  0.0000000E+00;3;  0.0000000E+00;  0.0000000E+00;  0.0000000E+00;  0.0000000E+00;  0.0000000E+00;  0.0000000E+00;0;  0.0000000E+00;  1.0000000E+02;  0.0000000E+00;  0.0000000E+00;  1.0000000E+02;  0.0000000E+00;  1.0000000E+02;  0.0000000E+00;  0.0000000E+00;  0.0000000E+00;  0.0000000E+00;
  4.0000001E-01;  9.9999998E-03;  2.0000000E-01;193;  0.0000000E+00;  0.0000000E+00;  0.0000000E+00;  1.0000000E+01;  4.0000001E-01;  0.0000000E+00;3;  0.0000000E+00;  0.0000000E+00;  0.0000000E+00;  0.0000000E+00;  0.0000000E+00;  0.0000000E+00;0;  0.0000000E+00;  1.0000000E+02;  0.0000000E+00;  0.0000000E+00;  1.0000000E+02;  0.0000000E+00;  1.0000000E+02;  0.0000000E+00;  0.0000000E+00;  0.0000000E+00;  0.0000000E+00;
  4.0000001E-01;  9.9999998E-03;  4.0000001E-01;194;  0.0000000E+00;  0.0000000E+00;  0.0000000E+00;  1.0000000E+01;  4.0000001E-01;  0.0000000E+00;3;  0.0000000E+00;  0.0000000E+00;  0.0000000E+00;  0.0000000E+00;  0.0000000E+00;  0.0000000E+00;0;  0.0000000E+00;  1.0000000E+02;  0.0000000E+00;  0.0000000E+00;  1.0000000E+02;  0.0000000E+00;  1.0000000E+02;  0.0000000E+00;  0.0000000E+00;  0.0000000E+00;  0.0000000E+00;
  4.0000001E-01;  9.9999998E-03;  6.0000002E-01;195;  0.0000000E+00;  0.0000000E+00;  0.0000000E+00;  1.0000000E+01;  4.0000001E-01;  0.0000000E+00;3;  0.0000000E+00;  0.0000000E+00;  0.0000000E+00;  0.0000000E+00;  0.0000000E+00;  0.0000000E+00;0;  0.0000000E+00;  1.0000000E+02;  0.0000000E+00;  0.0000000E+00;  1.0000000E+02;  0.0000000E+00;  1.0000000E+02;  0.0000000E+00;  0.0000000E+00;  0.0000000E+00;  0.0000000E+00;
  4.0000001E-01;  9.9999998E-03;  8.0000001E-01;196;  0.0000000E+00;  0.0000000E+00;  0.0000000E+00;  1.0000000E+01;  4.0000001E-01;  0.0000000E+00;3;  0.0000000E+00;  0.0000000E+00;  0.0000000E+00;  0.0000000E+00;  0.0000000E+00;  0.0000000E+00;0;  0.0000000E+00;  1.0000000E+02;  0.0000000E+00;  0.0000000E+00;  1.0000000E+02;  0.0000000E+00;  1.0000000E+02;  0.0000000E+00;  0.0000000E+00;  0.0000000E+00;  0.0000000E+00;
  4.0000001E-01;  9.9999998E-03;  1.0000000E+00;197;  0.0000000E+00;  0.0000000E+00;  0.0000000E+00;  1.0000000E+01;  4.0000001E-01;  0.0000000E+00;3;  0.0000000E+00;  0.0000000E+00;  0.0000000E+00;  0.0000000E+00;  0.0000000E+00;  0.0000000E+00;0;  0.0000000E+00;  1.0000000E+02;  0.0000000E+00;  0.0000000E+00;  1.0000000E+02;  0.0000000E+00;  1.0000000E+02;  0.0000000E+00;  0.0000000E+00;  0.0000000E+00;  0.0000000E+00;
  6.0000002E-01;  9.9999998E-03;  0.0000000E+00;203;  0.0000000E+00;  0.0000000E+00;  0.0000000E+00;  1.0000000E+01;  4.0000001E-01;  0.0000000E+00;3;  0.0000000E+00;  0.0000000E+00;  0.0000000E+00;  0.0000000E+00;  0.0000000E+00;  0.0000000E+00;0;  0.0000000E+00;  1.0000000E+02;  0.0000000E+00;  0.0000000E+00;  1.0000000E+02;  0.0000000E+00;  1.0000000E+02;  0.0000000E+00;  0.0000000E+00;  0.0000000E+00;  0.0000000E+00;
  6.0000002E-01;  9.9999998E-03;  2.0000000E-01;204;  0.0000000E+00;  0.0000000E+00;  0.0000000E+00;  1.0000000E+01;  4.0000001E-01;  0.0000000E+00;3;  0.0000000E+00;  0.0000000E+00;  0.0000000E+00;  0.0000000E+00;  0.0000000E+00;  0.0000000E+00;0;  0.0000000E+00;  1.0000000E+02;  0.0000000E+00;  0.0000000E+00;  1.0000000E+02;  0.0000000E+00;  1.0000000E+02;  0.0000000E+00;  0.0000000E+00;  0.0000000E+00;  0.0000000E+00;
  6.0000002E-01;  9.9999998E-03;  4.0000001E-01;205;  0.0000000E+00;  0.0000000E+00;  0.0000000E+00;  1.0000000E+01;  4.0000001E-01;  0.0000000E+00;3;  0.0000000E+00;  0.0000000E+00;  0.0000000E+00;  0.0000000E+00;  0.0000000E+00;  0.0000000E+00;0;  0.0000000E+00;  1.0000000E+02;  0.0000000E+00;  0.0000000E+00;  1.0000000E+02;  0.0000000E+00;  1.0000000E+02;  0.0000000E+00;  0.0000000E+00;  0.0000000E+00;  0.0000000E+00;
  6.0000002E-01;  9.9999998E-03;  6.0000002E-01;206;  0.0000000E+00;  0.0000000E+00;  0.0000000E+00;  1.0000000E+01;  4.0000001E-01;  0.0000000E+00;3;  0.0000000E+00;  0.0000000E+00;  0.0000000E+00;  0.0000000E+00;  0.0000000E+00;  0.0000000E+00;0;  0.0000000E+00;  1.0000000E+02;  0.0000000E+00;  0.0000000E+00;  1.0000000E+02;  0.0000000E+00;  1.0000000E+02;  0.0000000E+00;  0.0000000E+00;  0.0000000E+00;  0.0000000E+00;
  6.0000002E-01;  9.9999998E-03;  8.0000001E-01;207;  0.0000000E+00;  0.0000000E+00;  0.0000000E+00;  1.0000000E+01;  4.0000001E-01;  0.0000000E+00;3;  0.0000000E+00;  0.0000000E+00;  0.0000000E+00;  0.0000000E+00;  0.0000000E+00;  0.0000000E+00;0;  0.0000000E+00;  1.0000000E+02;  0.0000000E+00;  0.0000000E+00;  1.0000000E+02;  0.0000000E+00;  1.0000000E+02;  0.0000000E+00;  0.0000000E+00;  0.0000000E+00;  0.0000000E+00;
  6.0000002E-01;  9.9999998E-03;  1.0000000E+00;208;  0.0000000E+00;  0.0000000E+00;  0.0000000E+00;  1.0000000E+01;  4.0000001E-01;  0.0000000E+00;3;  0.0000000E+00;  0.0000000E+00;  0.0000000E+00;  0.0000000E+00;  0.0000000E+00;  0.0000000E+00;0;  0.0000000E+00;  1.0000000E+02;  0.0000000E+00;  0.0000000E+00;  1.0000000E+02;  0.0000000E+00;  1.0000000E+02;  0.0000000E+00;  0.0000000E+00;  0.0000000E+00;  0.0000000E+00;
  8.0000001E-01;  9.9999998E-03;  0.0000000E+00;214;  0.0000000E+00;  0.0000000E+00;  0.0000000E+00;  1.0000000E+01;  4.0000001E-01;  0.0000000E+00;3;  0.0000000E+00;  0.0000000E+00;  0.0000000E+00;  0.0000000E+00;  0.0000000E+00;  0.0000000E+00;0;  0.0000000E+00;  1.0000000E+02;  0.0000000E+00;  0.0000000E+00;  1.0000000E+02;  0.0000000E+00;  1.0000000E+02;  0.0000000E+00;  0.0000000E+00;  0.0000000E+00;  0.0000000E+00;
  8.0000001E-01;  9.9999998E-03;  2.0000000E-01;215;  0.0000000E+00;  0.0000000E+00;  0.0000000E+00;  1.0000000E+01;  4.0000001E-01;  0.0000000E+00;3;  0.0000000E+00;  0.0000000E+00;  0.0000000E+00;  0.0000000E+00;  0.0000000E+00;  0.0000000E+00;0;  0.0000000E+00;  1.0000000E+02;  0.0000000E+00;  0.0000000E+00;  1.0000000E+02;  0.0000000E+00;  1.0000000E+02;  0.0000000E+00;  0.0000000E+00;  0.0000000E+00;  0.0000000E+00;
  8.0000001E-01;  9.9999998E-03;  4.0000001E-01;216;  0.0000000E+00;  0.0000000E+00;  0.0000000E+00;  1.0000000E+01;  4.0000001E-01;  0.0000000E+00;3;  0.0000000E+00;  0.0000000E+00;  0.0000000E+00;  0.0000000E+00;  0.0000000E+00;  0.0000000E+00;0;  0.0000000E+00;  1.0000000E+02;  0.0000000E+00;  0.0000000E+00;  1.0000000E+02;  0.0000000E+00;  1.0000000E+02;  0.0000000E+00;  0.0000000E+00;  0.0000000E+00;  0.0000000E+00;
  8.0000001E-01;  9.9999998E-03;  6.0000002E-01;217;  0.0000000E+00;  0.0000000E+00;  0.0000000E+00;  1.0000000E+01;  4.0000001E-01;  0.0000000E+00;3;  0.0000000E+00;  0.0000000E+00;  0.0000000E+00;  0.0000000E+00;  0.0000000E+00;  0.0000000E+00;0;  0.0000000E+00;  1.0000000E+02;  0.0000000E+00;  0.0000000E+00;  1.0000000E+02;  0.0000000E+00;  1.0000000E+02;  0.0000000E+00;  0.0000000E+00;  0.0000000E+00;  0.0000000E+00;
  8.0000001E-01;  9.9999998E-03;  8.0000001E-01;218;  0.0000000E+00;  0.0000000E+00;  0.0000000E+00;  1.0000000E+01;  4.0000001E-01;  0.0000000E+00;3;  0.0000000E+00;  0.0000000E+00;  0.0000000E+00;  0.0000000E+00;  0.0000000E+00;  0.0000000E+00;0;  0.0000000E+00;  1.0000000E+02;  0.0000000E+00;  0.0000000E+00;  1.0000000E+02;  0.0000000E+00;  1.0000000E+02;  0.0000000E+00;  0.0000000E+00;  0.0000000E+00;  0.0000000E+00;
  8.0000001E-01;  9.9999998E-03;  1.0000000E+00;219;  0.0000000E+00;  0.0000000E+00;  0.0000000E+00;  1.0000000E+01;  4.0000001E-01;  0.0000000E+00;3;  0.0000000E+00;  0.0000000E+00;  0.0000000E+00;  0.0000000E+00;  0.0000000E+00;  0.0000000E+00;0;  0.0000000E+00;  1.0000000E+02;  0.0000000E+00;  0.0000000E+00;  1.0000000E+02;  0.0000000E+00;  1.0000000E+02;  0.0000000E+00;  0.0000000E+00;  0.0000000E+00;  0.0000000E+00;
  1.0000000E+00;  9.9999998E-03;  0.0000000E+00;225;  0.0000000E+00;  0.0000000E+00;  0.0000000E+00;  1.0000000E+01;  4.0000001E-01;  0.0000000E+00;3;  0.0000000E+00;  0.0000000E+00;  0.0000000E+00;  0.0000000E+00;  0.0000000E+00;  0.0000000E+00;0;  0.0000000E+00;  1.0000000E+02;  0.0000000E+00;  0.0000000E+00;  1.0000000E+02;  0.0000000E+00;  1.0000000E+02;  0.0000000E+00;  0.0000000E+00;  0.0000000E+00;  0.0000000E+00;
  1.0000000E+00;  9.9999998E-03;  2.0000000E-01;226;  0.0000000E+00;  0.0000000E+00;  0.0000000E+00;  1.0000000E+01;  4.0000001E-01;  0.0000000E+00;3;  0.0000000E+00;  0.0000000E+00;  0.0000000E+00;  0.0000000E+00;  0.0000000E+00;  0.0000000E+00;0;  0.0000000E+00;  1.0000000E+02;  0.0000000E+00;  0.0000000E+00;  1.0000000E+02;  0.0000000E+00;  1.0000000E+02;  0.0000000E+00;  0.0000000E+00;  0.0000000E+00;  0.0000000E+00;
  1.0000000E+00;  9.9999998E-03;  4.0000001E-01;227;  0.0000000E+00;  0.0000000E+00;  0.0000000E+00;  1.0000000E+01;  4.0000001E-01;  0.0000000E+00;3;  0.0000000E+00;  0.0000000E+00;  0.0000000E+00;  0.0000000E+00;  0.0000000E+00;  0.0000000E+00;0;  0.0000000E+00;  1.0000000E+02;  0.0000000E+00;  0.0000000E+00;  1.0000000E+02;  0.0000000E+00;  1.0000000E+02;  0.0000000E+00;  0.0000000E+00;  0.0000000E+00;  0.0000000E+00;
  1.0000000E+00;  9.9999998E-03;  6.0000002E-01;228;  0.0000000E+00;  0.0000000E+00;  0.0000000E+00;  1.0000000E+01;  4.0000001E-01;  0.0000000E+00;3;  0.0000000E+00;  0.0000000E+00;  0.0000000E+00;  0.0000000E+00;  0.0000000E+00;  0.0000000E+00;0;  0.0000000E+00;  1.0000000E+02;  0.0000000E+00;  0.0000000E+00;  1.0000000E+02;  0.0000000E+00;  1.0000000E+02;  0.0000000E+00;  0.0000000E+00;  0.0000000E+00;  0.0000000E+00;
  1.0000000E+00;  9.9999998E-03;  8.0000001E-01;229;  0.0000000E+00;  0.0000000E+00;  0.0000000E+00;  1.0000000E+01;  4.0000001E-01;  0.0000000E+00;3;  0.0000000E+00;  0.0000000E+00;  0.0000000E+00;  0.0000000E+00;  0.0000000E+00;  0.0000000E+00;0;  0.0000000E+00;  1.0000000E+02;  0.0000000E+00;  0.0000000E+00;  1.0000000E+02;  0.0000000E+00;  1.0000000E+02;  0.0000000E+00;  0.0000000E+00;  0.0000000E+00;  0.0000000E+00;
  1.0000000E+00;  9.9999998E-03;  1.0000000E+00;230;  0.0000000E+00;  0.0000000E+00;  0.0000000E+00;  1.0000000E+01;  4.0000001E-01;  0.0000000E+00;3;  0.0000000E+00;  0.0000000E+00;  0.0000000E+00;  0.0000000E+00;  0.0000000E+00;  0.0000000E+00;0;  0.0000000E+00;  1.0000000E+02;  0.0000000E+00;  0.0000000E+00;  1.0000000E+02;  0.0000000E+00;  1.0000000E+02;  0.0000000E+00;  0.0000000E+00;  0.0000000E+00;  0.0000000E+00;
  1.2000000E+00;  9.9999998E-03;  0.0000000E+00;236;  0.0000000E+00;  0.0000000E+00;  0.0000000E+00;  1.0000000E+01;  4.0000001E-01;  0.0000000E+00;3;  0.0000000E+00;  0.0000000E+00;  0.0000000E+00;  0.0000000E+00;  0.0000000E+00;  0.0000000E+00;0;  0.0000000E+00;  1.0000000E+02;  0.0000000E+00;  0.0000000E+00;  1.0000000E+02;  0.0000000E+00;  1.0000000E+02;  0.0000000E+00;  0.0000000E+00;  0.0000000E+00;  0.0000000E+00;
  1.2000000E+00;  9.9999998E-03;  2.0000000E-01;237;  0.0000000E+00;  0.0000000E+00;  0.0000000E+00;  1.0000000E+01;  4.0000001E-01;  0.0000000E+00;3;  0.0000000E+00;  0.0000000E+00;  0.0000000E+00;  0.0000000E+00;  0.0000000E+00;  0.0000000E+00;0;  0.0000000E+00;  1.0000000E+02;  0.0000000E+00;  0.0000000E+00;  1.0000000E+02;  0.0000000E+00;  1.0000000E+02;  0.0000000E+00;  0.0000000E+00;  0.0000000E+00;  0.0000000E+00;
  1.2000000E+00;  9.9999998E-03;  4.0000001E-01;238;  0.0000000E+00;  0.0000000E+00;  0.0000000E+00;  1.0000000E+01;  4.0000001E-01;  0.0000000E+00;3;  0.0000000E+00;  0.0000000E+00;  0.0000000E+00;  0.0000000E+00;  0.0000000E+00;  0.0000000E+00;0;  0.0000000E+00;  1.0000000E+02;  0.0000000E+00;  0.0000000E+00;  1.0000000E+02;  0.0000000E+00;  1.0000000E+02;  0.0000000E+00;  0.0000000E+00;  0.0000000E+00;  0.0000000E+00;
  1.2000000E+00;  9.9999998E-03;  6.0000002E-01;239;  0.0000000E+00;  0.0000000E+00;  0.0000000E+00;  1.0000000E+01;  4.0000001E-01;  0.0000000E+00;3;  0.0000000E+00;  0.0000000E+00;  0.0000000E+00;  0.0000000E+00;  0.0000000E+00;  0.0000000E+00;0;  0.0000000E+00;  1.0000000E+02;  0.0000000E+00;  0.0000000E+00;  1.0000000E+02;  0.0000000E+00;  1.0000000E+02;  0.0000000E+00;  0.0000000E+00;  0.0000000E+00;  0.0000000E+00;
  1.2000000E+00;  9.9999998E-03;  8.0000001E-01;240;  0.0000000E+00;  0.0000000E+00;  0.0000000E+00;  1.0000000E+01;  4.0000001E-01;  0.0000000E+00;3;  0.0000000E+00;  0.0000000E+00;  0.0000000E+00;  0.0000000E+00;  0.0000000E+00;  0.0000000E+00;0;  0.0000000E+00;  1.0000000E+02;  0.0000000E+00;  0.0000000E+00;  1.0000000E+02;  0.0000000E+00;  1.0000000E+02;  0.0000000E+00;  0.0000000E+00;  0.0000000E+00;  0.0000000E+00;
  1.2000000E+00;  9.9999998E-03;  1.0000000E+00;241;  0.0000000E+00;  0.0000000E+00;  0.0000000E+00;  1.0000000E+01;  4.0000001E-01;  0.0000000E+00;3;  0.0000000E+00;  0.0000000E+00;  0.0000000E+00;  0.0000000E+00;  0.0000000E+00;  0.0000000E+00;0;  0.0000000E+00;  1.0000000E+02;  0.0000000E+00;  0.0000000E+00;  1.0000000E+02;  0.0000000E+00;  1.0000000E+02;  0.0000000E+00;  0.0000000E+00;  0.0000000E+00;  0.0000000E+00;
  1.4000000E+00;  9.9999998E-03;  0.0000000E+00;247;  0.0000000E+00;  0.0000000E+00;  0.0000000E+00;  1.0000000E+01;  4.0000001E-01;  0.0000000E+00;3;  0.0000000E+00;  0.0000000E+00;  0.0000000E+00;  0.0000000E+00;  0.0000000E+00;  0.0000000E+00;0;  0.0000000E+00;  1.0000000E+02;  0.0000000E+00;  0.0000000E+00;  1.0000000E+02;  0.0000000E+00;  1.0000000E+02;  0.0000000E+00;  0.0000000E+00;  0.0000000E+00;  0.0000000E+00;
  1.4000000E+00;  9.9999998E-03;  2.0000000E-01;248;  0.0000000E+00;  0.0000000E+00;  0.0000000E+00;  1.0000000E+01;  4.0000001E-01;  0.0000000E+00;3;  0.0000000E+00;  0.0000000E+00;  0.0000000E+00;  0.0000000E+00;  0.0000000E+00;  0.0000000E+00;0;  0.0000000E+00;  1.0000000E+02;  0.0000000E+00;  0.0000000E+00;  1.0000000E+02;  0.0000000E+00;  1.0000000E+02;  0.0000000E+00;  0.0000000E+00;  0.0000000E+00;  0.0000000E+00;
  1.4000000E+00;  9.9999998E-03;  4.0000001E-01;249;  0.0000000E+00;  0.0000000E+00;  0.0000000E+00;  1.0000000E+01;  4.0000001E-01;  0.0000000E+00;3;  0.0000000E+00;  0.0000000E+00;  0.0000000E+00;  0.0000000E+00;  0.0000000E+00;  0.0000000E+00;0;  0.0000000E+00;  1.0000000E+02;  0.0000000E+00;  0.0000000E+00;  1.0000000E+02;  0.0000000E+00;  1.0000000E+02;  0.0000000E+00;  0.0000000E+00;  0.0000000E+00;  0.0000000E+00;
  1.4000000E+00;  9.9999998E-03;  6.0000002E-01;250;  0.0000000E+00;  0.0000000E+00;  0.0000000E+00;  1.0000000E+01;  4.0000001E-01;  0.0000000E+00;3;  0.0000000E+00;  0.0000000E+00;  0.0000000E+00;  0.0000000E+00;  0.0000000E+00;  0.0000000E+00;0;  0.0000000E+00;  1.0000000E+02;  0.0000000E+00;  0.0000000E+00;  1.0000000E+02;  0.0000000E+00;  1.0000000E+02;  0.0000000E+00;  0.0000000E+00;  0.0000000E+00;  0.0000000E+00;
  1.4000000E+00;  9.9999998E-03;  8.0000001E-01;251;  0.0000000E+00;  0.0000000E+00;  0.0000000E+00;  1.0000000E+01;  4.0000001E-01;  0.0000000E+00;3;  0.0000000E+00;  0.0000000E+00;  0.0000000E+00;  0.0000000E+00;  0.0000000E+00;  0.0000000E+00;0;  0.0000000E+00;  1.0000000E+02;  0.0000000E+00;  0.0000000E+00;  1.0000000E+02;  0.0000000E+00;  1.0000000E+02;  0.0000000E+00;  0.0000000E+00;  0.0000000E+00;  0.0000000E+00;
  1.4000000E+00;  9.9999998E-03;  1.0000000E+00;252;  0.0000000E+00;  0.0000000E+00;  0.0000000E+00;  1.0000000E+01;  4.0000001E-01;  0.0000000E+00;3;  0.0000000E+00;  0.0000000E+00;  0.0000000E+00;  0.0000000E+00;  0.0000000E+00;  0.0000000E+00;0;  0.0000000E+00;  1.0000000E+02;  0.0000000E+00;  0.0000000E+00;  1.0000000E+02;  0.0000000E+00;  1.0000000E+02;  0.0000000E+00;  0.0000000E+00;  0.0000000E+00;  0.0000000E+00;
  1.6000000E+00;  9.9999998E-03;  0.0000000E+00;258;  0.0000000E+00;  0.0000000E+00;  0.0000000E+00;  1.0000000E+01;  4.0000001E-01;  0.0000000E+00;3;  0.0000000E+00;  0.0000000E+00;  0.0000000E+00;  0.0000000E+00;  0.0000000E+00;  0.0000000E+00;0;  0.0000000E+00;  1.0000000E+02;  0.0000000E+00;  0.0000000E+00;  1.0000000E+02;  0.0000000E+00;  1.0000000E+02;  0.0000000E+00;  0.0000000E+00;  0.0000000E+00;  0.0000000E+00;
  1.6000000E+00;  9.9999998E-03;  2.0000000E-01;259;  0.0000000E+00;  0.0000000E+00;  0.0000000E+00;  1.0000000E+01;  4.0000001E-01;  0.0000000E+00;3;  0.0000000E+00;  0.0000000E+00;  0.0000000E+00;  0.0000000E+00;  0.0000000E+00;  0.0000000E+00;0;  0.0000000E+00;  1.0000000E+02;  0.0000000E+00;  0.0000000E+00;  1.0000000E+02;  0.0000000E+00;  1.0000000E+02;  0.0000000E+00;  0.0000000E+00;  0.0000000E+00;  0.0000000E+00;
  1.6000000E+00;  9.9999998E-03;  4.0000001E-01;260;  0.0000000E+00;  0.0000000E+00;  0.0000000E+00;  1.0000000E+01;  4.0000001E-01;  0.0000000E+00;3;  0.0000000E+00;  0.0000000E+00;  0.0000000E+00;  0.0000000E+00;  0.0000000E+00;  0.0000000E+00;0;  0.0000000E+00;  1.0000000E+02;  0.0000000E+00;  0.0000000E+00;  1.0000000E+02;  0.0000000E+00;  1.0000000E+02;  0.0000000E+00;  0.0000000E+00;  0.0000000E+00;  0.0000000E+00;
  1.6000000E+00;  9.9999998E-03;  6.0000002E-01;261;  0.0000000E+00;  0.0000000E+00;  0.0000000E+00;  1.0000000E+01;  4.0000001E-01;  0.0000000E+00;3;  0.0000000E+00;  0.0000000E+00;  0.0000000E+00;  0.0000000E+00;  0.0000000E+00;  0.0000000E+00;0;  0.0000000E+00;  1.0000000E+02;  0.0000000E+00;  0.0000000E+00;  1.0000000E+02;  0.0000000E+00;  1.0000000E+02;  0.0000000E+00;  0.0000000E+00;  0.0000000E+00;  0.0000000E+00;
  1.6000000E+00;  9.9999998E-03;  8.0000001E-01;262;  0.0000000E+00;  0.0000000E+00;  0.0000000E+00;  1.0000000E+01;  4.0000001E-01;  0.0000000E+00;3;  0.0000000E+00;  0.0000000E+00;  0.0000000E+00;  0.0000000E+00;  0.0000000E+00;  0.0000000E+00;0;  0.0000000E+00;  1.0000000E+02;  0.0000000E+00;  0.0000000E+00;  1.0000000E+02;  0.0000000E+00;  1.0000000E+02;  0.0000000E+00;  0.0000000E+00;  0.0000000E+00;  0.0000000E+00;
  1.6000000E+00;  9.9999998E-03;  1.0000000E+00;263;  0.0000000E+00;  0.0000000E+00;  0.0000000E+00;  1.0000000E+01;  4.0000001E-01;  0.0000000E+00;3;  0.0000000E+00;  0.0000000E+00;  0.0000000E+00;  0.0000000E+00;  0.0000000E+00;  0.0000000E+00;0;  0.0000000E+00;  1.0000000E+02;  0.0000000E+00;  0.0000000E+00;  1.0000000E+02;  0.0000000E+00;  1.0000000E+02;  0.0000000E+00;  0.0000000E+00;  0.0000000E+00;  0.0000000E+00;
  1.8000000E+00;  9.9999998E-03;  0.0000000E+00;269;  0.0000000E+00;  0.0000000E+00;  0.0000000E+00;  1.0000000E+01;  4.0000001E-01;  0.0000000E+00;3;  0.0000000E+00;  0.0000000E+00;  0.0000000E+00;  0.0000000E+00;  0.0000000E+00;  0.0000000E+00;0;  0.0000000E+00;  1.0000000E+02;  0.0000000E+00;  0.0000000E+00;  1.0000000E+02;  0.0000000E+00;  1.0000000E+02;  0.0000000E+00;  0.0000000E+00;  0.0000000E+00;  0.0000000E+00;
  1.8000000E+00;  9.9999998E-03;  2.0000000E-01;270;  0.0000000E+00;  0.0000000E+00;  0.0000000E+00;  1.0000000E+01;  4.0000001E-01;  0.0000000E+00;3;  0.0000000E+00;  0.0000000E+00;  0.0000000E+00;  0.0000000E+00;  0.0000000E+00;  0.0000000E+00;0;  0.0000000E+00;  1.0000000E+02;  0.0000000E+00;  0.0000000E+00;  1.0000000E+02;  0.0000000E+00;  1.0000000E+02;  0.0000000E+00;  0.0000000E+00;  0.0000000E+00;  0.0000000E+00;
  1.8000000E+00;  9.9999998E-03;  4.0000001E-01;271;  0.0000000E+00;  0.0000000E+00;  0.0000000E+00;  1.0000000E+01;  4.0000001E-01;  0.0000000E+00;3;  0.0000000E+00;  0.0000000E+00;  0.0000000E+00;  0.0000000E+00;  0.0000000E+00;  0.0000000E+00;0;  0.0000000E+00;  1.0000000E+02;  0.0000000E+00;  0.0000000E+00;  1.0000000E+02;  0.0000000E+00;  1.0000000E+02;  0.0000000E+00;  0.0000000E+00;  0.0000000E+00;  0.0000000E+00;
  1.8000000E+00;  9.9999998E-03;  6.0000002E-01;272;  0.0000000E+00;  0.0000000E+00;  0.0000000E+00;  1.0000000E+01;  4.0000001E-01;  0.0000000E+00;3;  0.0000000E+00;  0.0000000E+00;  0.0000000E+00;  0.0000000E+00;  0.0000000E+00;  0.0000000E+00;0;  0.0000000E+00;  1.0000000E+02;  0.0000000E+00;  0.0000000E+00;  1.0000000E+02;  0.0000000E+00;  1.0000000E+02;  0.0000000E+00;  0.0000000E+00;  0.0000000E+00;  0.0000000E+00;
  1.8000000E+00;  9.9999998E-03;  8.0000001E-01;273;  0.0000000E+00;  0.0000000E+00;  0.0000000E+00;  1.0000000E+01;  4.0000001E-01;  0.0000000E+00;3;  0.0000000E+00;  0.0000000E+00;  0.0000000E+00;  0.0000000E+00;  0.0000000E+00;  0.0000000E+00;0;  0.0000000E+00;  1.0000000E+02;  0.0000000E+00;  0.0000000E+00;  1.0000000E+02;  0.0000000E+00;  1.0000000E+02;  0.0000000E+00;  0.0000000E+00;  0.0000000E+00;  0.0000000E+00;
  1.8000000E+00;  9.9999998E-03;  1.0000000E+00;274;  0.0000000E+00;  0.0000000E+00;  0.0000000E+00;  1.0000000E+01;  4.0000001E-01;  0.0000000E+00;3;  0.0000000E+00;  0.0000000E+00;  0.0000000E+00;  0.0000000E+00;  0.0000000E+00;  0.0000000E+00;0;  0.0000000E+00;  1.0000000E+02;  0.0000000E+00;  0.0000000E+00;  1.0000000E+02;  0.0000000E+00;  1.0000000E+02;  0.0000000E+00;  0.0000000E+00;  0.0000000E+00;  0.0000000E+00;
  2.0000000E+00;  9.9999998E-03;  0.0000000E+00;280;  0.0000000E+00;  0.0000000E+00;  0.0000000E+00;  1.0000000E+01;  4.0000001E-01;  0.0000000E+00;3;  0.0000000E+00;  0.0000000E+00;  0.0000000E+00;  0.0000000E+00;  0.0000000E+00;  0.0000000E+00;0;  0.0000000E+00;  1.0000000E+02;  0.0000000E+00;  0.0000000E+00;  1.0000000E+02;  0.0000000E+00;  1.0000000E+02;  0.0000000E+00;  0.0000000E+00;  0.0000000E+00;  0.0000000E+00;
  2.0000000E+00;  9.9999998E-03;  2.0000000E-01;281;  0.0000000E+00;  0.0000000E+00;  0.0000000E+00;  1.0000000E+01;  4.0000001E-01;  0.0000000E+00;3;  0.0000000E+00;  0.0000000E+00;  0.0000000E+00;  0.0000000E+00;  0.0000000E+00;  0.0000000E+00;0;  0.0000000E+00;  1.0000000E+02;  0.0000000E+00;  0.0000000E+00;  1.0000000E+02;  0.0000000E+00;  1.0000000E+02;  0.0000000E+00;  0.0000000E+00;  0.0000000E+00;  0.0000000E+00;
  2.0000000E+00;  9.9999998E-03;  4.0000001E-01;282;  0.0000000E+00;  0.0000000E+00;  0.0000000E+00;  1.0000000E+01;  4.0000001E-01;  0.0000000E+00;3;  0.0000000E+00;  0.0000000E+00;  0.0000000E+00;  0.0000000E+00;  0.0000000E+00;  0.0000000E+00;0;  0.0000000E+00;  1.0000000E+02;  0.0000000E+00;  0.0000000E+00;  1.0000000E+02;  0.0000000E+00;  1.0000000E+02;  0.0000000E+00;  0.0000000E+00;  0.0000000E+00;  0.0000000E+00;
  2.0000000E+00;  9.9999998E-03;  6.0000002E-01;283;  0.0000000E+00;  0.0000000E+00;  0.0000000E+00;  1.0000000E+01;  4.0000001E-01;  0.0000000E+00;3;  0.0000000E+00;  0.0000000E+00;  0.0000000E+00;  0.0000000E+00;  0.0000000E+00;  0.0000000E+00;0;  0.0000000E+00;  1.0000000E+02;  0.0000000E+00;  0.0000000E+00;  1.0000000E+02;  0.0000000E+00;  1.0000000E+02;  0.0000000E+00;  0.0000000E+00;  0.0000000E+00;  0.0000000E+00;
  2.0000000E+00;  9.9999998E-03;  8.0000001E-01;284;  0.0000000E+00;  0.0000000E+00;  0.0000000E+00;  1.0000000E+01;  4.0000001E-01;  0.0000000E+00;3;  0.0000000E+00;  0.0000000E+00;  0.0000000E+00;  0.0000000E+00;  0.0000000E+00;  0.0000000E+00;0;  0.0000000E+00;  1.0000000E+02;  0.0000000E+00;  0.0000000E+00;  1.0000000E+02;  0.0000000E+00;  1.0000000E+02;  0.0000000E+00;  0.0000000E+00;  0.0000000E+00;  0.0000000E+00;
  2.0000000E+00;  9.9999998E-03;  1.0000000E+00;285;  0.0000000E+00;  0.0000000E+00;  0.0000000E+00;  1.0000000E+01;  4.0000001E-01;  0.0000000E+00;3;  0.0000000E+00;  0.0000000E+00;  0.0000000E+00;  0.0000000E+00;  0.0000000E+00;  0.0000000E+00;0;  0.0000000E+00;  1.0000000E+02;  0.0000000E+00;  0.0000000E+00;  1.0000000E+02;  0.0000000E+00;  1.0000000E+02;  0.0000000E+00;  0.0000000E+00;  0.0000000E+00;  0.0000000E+00;
  2.2000000E+00;  9.9999998E-03;  0.0000000E+00;291;  0.0000000E+00;  0.0000000E+00;  0.0000000E+00;  1.0000000E+01;  4.0000001E-01;  0.0000000E+00;3;  0.0000000E+00;  0.0000000E+00;  0.0000000E+00;  0.0000000E+00;  0.0000000E+00;  0.0000000E+00;0;  0.0000000E+00;  1.0000000E+02;  0.0000000E+00;  0.0000000E+00;  1.0000000E+02;  0.0000000E+00;  1.0000000E+02;  0.0000000E+00;  0.0000000E+00;  0.0000000E+00;  0.0000000E+00;
  2.2000000E+00;  9.9999998E-03;  2.0000000E-01;292;  0.0000000E+00;  0.0000000E+00;  0.0000000E+00;  1.0000000E+01;  4.0000001E-01;  0.0000000E+00;3;  0.0000000E+00;  0.0000000E+00;  0.0000000E+00;  0.0000000E+00;  0.0000000E+00;  0.0000000E+00;0;  0.0000000E+00;  1.0000000E+02;  0.0000000E+00;  0.0000000E+00;  1.0000000E+02;  0.0000000E+00;  1.0000000E+02;  0.0000000E+00;  0.0000000E+00;  0.0000000E+00;  0.0000000E+00;
  2.2000000E+00;  9.9999998E-03;  4.0000001E-01;293;  0.0000000E+00;  0.0000000E+00;  0.0000000E+00;  1.0000000E+01;  4.0000001E-01;  0.0000000E+00;3;  0.0000000E+00;  0.0000000E+00;  0.0000000E+00;  0.0000000E+00;  0.0000000E+00;  0.0000000E+00;0;  0.0000000E+00;  1.0000000E+02;  0.0000000E+00;  0.0000000E+00;  1.0000000E+02;  0.0000000E+00;  1.0000000E+02;  0.0000000E+00;  0.0000000E+00;  0.0000000E+00;  0.0000000E+00;
  2.2000000E+00;  9.9999998E-03;  6.0000002E-01;294;  0.0000000E+00;  0.0000000E+00;  0.0000000E+00;  1.0000000E+01;  4.0000001E-01;  0.0000000E+00;3;  0.0000000E+00;  0.0000000E+00;  0.0000000E+00;  0.0000000E+00;  0.0000000E+00;  0.0000000E+00;0;  0.0000000E+00;  1.0000000E+02;  0.0000000E+00;  0.0000000E+00;  1.0000000E+02;  0.0000000E+00;  1.0000000E+02;  0.0000000E+00;  0.0000000E+00;  0.0000000E+00;  0.0000000E+00;
  2.2000000E+00;  9.9999998E-03;  8.0000001E-01;295;  0.0000000E+00;  0.0000000E+00;  0.0000000E+00;  1.0000000E+01;  4.0000001E-01;  0.0000000E+00;3;  0.0000000E+00;  0.0000000E+00;  0.0000000E+00;  0.0000000E+00;  0.0000000E+00;  0.0000000E+00;0;  0.0000000E+00;  1.0000000E+02;  0.0000000E+00;  0.0000000E+00;  1.0000000E+02;  0.0000000E+00;  1.0000000E+02;  0.0000000E+00;  0.0000000E+00;  0.0000000E+00;  0.0000000E+00;
  2.2000000E+00;  9.9999998E-03;  1.0000000E+00;296;  0.0000000E+00;  0.0000000E+00;  0.0000000E+00;  1.0000000E+01;  4.0000001E-01;  0.0000000E+00;3;  0.0000000E+00;  0.0000000E+00;  0.0000000E+00;  0.0000000E+00;  0.0000000E+00;  0.0000000E+00;0;  0.0000000E+00;  1.0000000E+02;  0.0000000E+00;  0.0000000E+00;  1.0000000E+02;  0.0000000E+00;  1.0000000E+02;  0.0000000E+00;  0.0000000E+00;  0.0000000E+00;  0.0000000E+00;
  2.4000001E+00;  9.9999998E-03;  0.0000000E+00;302;  0.0000000E+00;  0.0000000E+00;  0.0000000E+00;  1.0000000E+01;  4.0000001E-01;  0.0000000E+00;3;  0.0000000E+00;  0.0000000E+00;  0.0000000E+00;  0.0000000E+00;  0.0000000E+00;  0.0000000E+00;0;  0.0000000E+00;  1.0000000E+02;  0.0000000E+00;  0.0000000E+00;  1.0000000E+02;  0.0000000E+00;  1.0000000E+02;  0.0000000E+00;  0.0000000E+00;  0.0000000E+00;  0.0000000E+00;
  2.4000001E+00;  9.9999998E-03;  2.0000000E-01;303;  0.0000000E+00;  0.0000000E+00;  0.0000000E+00;  1.0000000E+01;  4.0000001E-01;  0.0000000E+00;3;  0.0000000E+00;  0.0000000E+00;  0.0000000E+00;  0.0000000E+00;  0.0000000E+00;  0.0000000E+00;0;  0.0000000E+00;  1.0000000E+02;  0.0000000E+00;  0.0000000E+00;  1.0000000E+02;  0.0000000E+00;  1.0000000E+02;  0.0000000E+00;  0.0000000E+00;  0.0000000E+00;  0.0000000E+00;
  2.4000001E+00;  9.9999998E-03;  4.0000001E-01;304;  0.0000000E+00;  0.0000000E+00;  0.0000000E+00;  1.0000000E+01;  4.0000001E-01;  0.0000000E+00;3;  0.0000000E+00;  0.0000000E+00;  0.0000000E+00;  0.0000000E+00;  0.0000000E+00;  0.0000000E+00;0;  0.0000000E+00;  1.0000000E+02;  0.0000000E+00;  0.0000000E+00;  1.0000000E+02;  0.0000000E+00;  1.0000000E+02;  0.0000000E+00;  0.0000000E+00;  0.0000000E+00;  0.0000000E+00;
  2.4000001E+00;  9.9999998E-03;  6.0000002E-01;305;  0.0000000E+00;  0.0000000E+00;  0.0000000E+00;  1.0000000E+01;  4.0000001E-01;  0.0000000E+00;3;  0.0000000E+00;  0.0000000E+00;  0.0000000E+00;  0.0000000E+00;  0.0000000E+00;  0.0000000E+00;0;  0.0000000E+00;  1.0000000E+02;  0.0000000E+00;  0.0000000E+00;  1.0000000E+02;  0.0000000E+00;  1.0000000E+02;  0.0000000E+00;  0.0000000E+00;  0.0000000E+00;  0.0000000E+00;
  2.4000001E+00;  9.9999998E-03;  8.0000001E-01;306;  0.0000000E+00;  0.0000000E+00;  0.0000000E+00;  1.0000000E+01;  4.0000001E-01;  0.0000000E+00;3;  0.0000000E+00;  0.0000000E+00;  0.0000000E+00;  0.0000000E+00;  0.0000000E+00;  0.0000000E+00;0;  0.0000000E+00;  1.0000000E+02;  0.0000000E+00;  0.0000000E+00;  1.0000000E+02;  0.0000000E+00;  1.0000000E+02;  0.0000000E+00;  0.0000000E+00;  0.0000000E+00;  0.0000000E+00;
  2.4000001E+00;  9.9999998E-03;  1.0000000E+00;307;  0.0000000E+00;  0.0000000E+00;  0.0000000E+00;  1.0000000E+01;  4.0000001E-01;  0.0000000E+00;3;  0.0000000E+00;  0.0000000E+00;  0.0000000E+00;  0.0000000E+00;  0.0000000E+00;  0.0000000E+00;0;  0.0000000E+00;  1.0000000E+02;  0.0000000E+00;  0.0000000E+00;  1.0000000E+02;  0.0000000E+00;  1.0000000E+02;  0.0000000E+00;  0.0000000E+00;  0.0000000E+00;  0.0000000E+00;
  2.5999999E+00;  9.9999998E-03;  0.0000000E+00;313;  0.0000000E+00;  0.0000000E+00;  0.0000000E+00;  1.0000000E+01;  4.0000001E-01;  0.0000000E+00;3;  0.0000000E+00;  0.0000000E+00;  0.0000000E+00;  0.0000000E+00;  0.0000000E+00;  0.0000000E+00;0;  0.0000000E+00;  1.0000000E+02;  0.0000000E+00;  0.0000000E+00;  1.0000000E+02;  0.0000000E+00;  1.0000000E+02;  0.0000000E+00;  0.0000000E+00;  0.0000000E+00;  0.0000000E+00;
  2.5999999E+00;  9.9999998E-03;  2.0000000E-01;314;  0.0000000E+00;  0.0000000E+00;  0.0000000E+00;  1.0000000E+01;  4.0000001E-01;  0.0000000E+00;3;  0.0000000E+00;  0.0000000E+00;  0.0000000E+00;  0.0000000E+00;  0.0000000E+00;  0.0000000E+00;0;  0.0000000E+00;  1.0000000E+02;  0.0000000E+00;  0.0000000E+00;  1.0000000E+02;  0.0000000E+00;  1.0000000E+02;  0.0000000E+00;  0.0000000E+00;  0.0000000E+00;  0.0000000E+00;
  2.5999999E+00;  9.9999998E-03;  4.0000001E-01;315;  0.0000000E+00;  0.0000000E+00;  0.0000000E+00;  1.0000000E+01;  4.0000001E-01;  0.0000000E+00;3;  0.0000000E+00;  0.0000000E+00;  0.0000000E+00;  0.0000000E+00;  0.0000000E+00;  0.0000000E+00;0;  0.0000000E+00;  1.0000000E+02;  0.0000000E+00;  0.0000000E+00;  1.0000000E+02;  0.0000000E+00;  1.0000000E+02;  0.0000000E+00;  0.0000000E+00;  0.0000000E+00;  0.0000000E+00;
  2.5999999E+00;  9.9999998E-03;  6.0000002E-01;316;  0.0000000E+00;  0.0000000E+00;  0.0000000E+00;  1.0000000E+01;  4.0000001E-01;  0.0000000E+00;3;  0.0000000E+00;  0.0000000E+00;  0.0000000E+00;  0.0000000E+00;  0.0000000E+00;  0.0000000E+00;0;  0.0000000E+00;  1.0000000E+02;  0.0000000E+00;  0.0000000E+00;  1.0000000E+02;  0.0000000E+00;  1.0000000E+02;  0.0000000E+00;  0.0000000E+00;  0.0000000E+00;  0.0000000E+00;
  2.5999999E+00;  9.9999998E-03;  8.0000001E-01;317;  0.0000000E+00;  0.0000000E+00;  0.0000000E+00;  1.0000000E+01;  4.0000001E-01;  0.0000000E+00;3;  0.0000000E+00;  0.0000000E+00;  0.0000000E+00;  0.0000000E+00;  0.0000000E+00;  0.0000000E+00;0;  0.0000000E+00;  1.0000000E+02;  0.0000000E+00;  0.0000000E+00;  1.0000000E+02;  0.0000000E+00;  1.0000000E+02;  0.0000000E+00;  0.0000000E+00;  0.0000000E+00;  0.0000000E+00;
  2.5999999E+00;  9.9999998E-03;  1.0000000E+00;318;  0.0000000E+00;  0.0000000E+00;  0.0000000E+00;  1.0000000E+01;  4.0000001E-01;  0.0000000E+00;3;  0.0000000E+00;  0.0000000E+00;  0.0000000E+00;  0.0000000E+00;  0.0000000E+00;  0.0000000E+00;0;  0.0000000E+00;  1.0000000E+02;  0.0000000E+00;  0.0000000E+00;  1.0000000E+02;  0.0000000E+00;  1.0000000E+02;  0.0000000E+00;  0.0000000E+00;  0.0000000E+00;  0.0000000E+00;
  2.8000000E+00;  9.9999998E-03;  0.0000000E+00;324;  0.0000000E+00;  0.0000000E+00;  0.0000000E+00;  1.0000000E+01;  4.0000001E-01;  0.0000000E+00;3;  0.0000000E+00;  0.0000000E+00;  0.0000000E+00;  0.0000000E+00;  0.0000000E+00;  0.0000000E+00;0;  0.0000000E+00;  1.0000000E+02;  0.0000000E+00;  0.0000000E+00;  1.0000000E+02;  0.0000000E+00;  1.0000000E+02;  0.0000000E+00;  0.0000000E+00;  0.0000000E+00;  0.0000000E+00;
  2.8000000E+00;  9.9999998E-03;  2.0000000E-01;325;  0.0000000E+00;  0.0000000E+00;  0.0000000E+00;  1.0000000E+01;  4.0000001E-01;  0.0000000E+00;3;  0.0000000E+00;  0.0000000E+00;  0.0000000E+00;  0.0000000E+00;  0.0000000E+00;  0.0000000E+00;0;  0.0000000E+00;  1.0000000E+02;  0.0000000E+00;  0.0000000E+00;  1.0000000E+02;  0.0000000E+00;  1.0000000E+02;  0.0000000E+00;  0.0000000E+00;  0.0000000E+00;  0.0000000E+00;
  2.8000000E+00;  9.9999998E-03;  4.0000001E-01;326;  0.0000000E+00;  0.0000000E+00;  0.0000000E+00;  1.0000000E+01;  4.0000001E-01;  0.0000000E+00;3;  0.0000000E+00;  0.0000000E+00;  0.0000000E+00;  0.0000000E+00;  0.0000000E+00;  0.0000000E+00;0;  0.0000000E+00;  1.0000000E+02;  0.0000000E+00;  0.0000000E+00;  1.0000000E+02;  0.0000000E+00;  1.0000000E+02;  0.0000000E+00;  0.0000000E+00;  0.0000000E+00;  0.0000000E+00;
  2.8000000E+00;  9.9999998E-03;  6.0000002E-01;327;  0.0000000E+00;  0.0000000E+00;  0.0000000E+00;  1.0000000E+01;  4.0000001E-01;  0.0000000E+00;3;  0.0000000E+00;  0.0000000E+00;  0.0000000E+00;  0.0000000E+00;  0.0000000E+00;  0.0000000E+00;0;  0.0000000E+00;  1.0000000E+02;  0.0000000E+00;  0.0000000E+00;  1.0000000E+02;  0.0000000E+00;  1.0000000E+02;  0.0000000E+00;  0.0000000E+00;  0.0000000E+00;  0.0000000E+00;
  2.8000000E+00;  9.9999998E-03;  8.0000001E-01;328;  0.0000000E+00;  0.0000000E+00;  0.0000000E+00;  1.0000000E+01;  4.0000001E-01;  0.0000000E+00;3;  0.0000000E+00;  0.0000000E+00;  0.0000000E+00;  0.0000000E+00;  0.0000000E+00;  0.0000000E+00;0;  0.0000000E+00;  1.0000000E+02;  0.0000000E+00;  0.0000000E+00;  1.0000000E+02;  0.0000000E+00;  1.0000000E+02;  0.0000000E+00;  0.0000000E+00;  0.0000000E+00;  0.0000000E+00;
  2.8000000E+00;  9.9999998E-03;  1.0000000E+00;329;  0.0000000E+00;  0.0000000E+00;  0.0000000E+00;  1.0000000E+01;  4.0000001E-01;  0.0000000E+00;3;  0.0000000E+00;  0.0000000E+00;  0.0000000E+00;  0.0000000E+00;  0.0000000E+00;  0.0000000E+00;0;  0.0000000E+00;  1.0000000E+02;  0.0000000E+00;  0.0000000E+00;  1.0000000E+02;  0.0000000E+00;  1.0000000E+02;  0.0000000E+00;  0.0000000E+00;  0.0000000E+00;  0.0000000E+00;
  3.0000000E+00;  9.9999998E-03;  0.0000000E+00;335;  0.0000000E+00;  0.0000000E+00;  0.0000000E+00;  1.0000000E+01;  4.0000001E-01;  0.0000000E+00;3;  0.0000000E+00;  0.0000000E+00;  0.0000000E+00;  0.0000000E+00;  0.0000000E+00;  0.0000000E+00;0;  0.0000000E+00;  1.0000000E+02;  0.0000000E+00;  0.0000000E+00;  1.0000000E+02;  0.0000000E+00;  1.0000000E+02;  0.0000000E+00;  0.0000000E+00;  0.0000000E+00;  0.0000000E+00;
  3.0000000E+00;  9.9999998E-03;  2.0000000E-01;336;  0.0000000E+00;  0.0000000E+00;  0.0000000E+00;  1.0000000E+01;  4.0000001E-01;  0.0000000E+00;3;  0.0000000E+00;  0.0000000E+00;  0.0000000E+00;  0.0000000E+00;  0.0000000E+00;  0.0000000E+00;0;  0.0000000E+00;  1.0000000E+02;  0.0000000E+00;  0.0000000E+00;  1.0000000E+02;  0.0000000E+00;  1.0000000E+02;  0.0000000E+00;  0.0000000E+00;  0.0000000E+00;  0.0000000E+00;
  3.0000000E+00;  9.9999998E-03;  4.0000001E-01;337;  0.0000000E+00;  0.0000000E+00;  0.0000000E+00;  1.0000000E+01;  4.0000001E-01;  0.0000000E+00;3;  0.0000000E+00;  0.0000000E+00;  0.0000000E+00;  0.0000000E+00;  0.0000000E+00;  0.0000000E+00;0;  0.0000000E+00;  1.0000000E+02;  0.0000000E+00;  0.0000000E+00;  1.0000000E+02;  0.0000000E+00;  1.0000000E+02;  0.0000000E+00;  0.0000000E+00;  0.0000000E+00;  0.0000000E+00;
  3.0000000E+00;  9.9999998E-03;  6.0000002E-01;338;  0.0000000E+00;  0.0000000E+00;  0.0000000E+00;  1.0000000E+01;  4.0000001E-01;  0.0000000E+00;3;  0.0000000E+00;  0.0000000E+00;  0.0000000E+00;  0.0000000E+00;  0.0000000E+00;  0.0000000E+00;0;  0.0000000E+00;  1.0000000E+02;  0.0000000E+00;  0.0000000E+00;  1.0000000E+02;  0.0000000E+00;  1.0000000E+02;  0.0000000E+00;  0.0000000E+00;  0.0000000E+00;  0.0000000E+00;
  3.0000000E+00;  9.9999998E-03;  8.0000001E-01;339;  0.0000000E+00;  0.0000000E+00;  0.0000000E+00;  1.0000000E+01;  4.0000001E-01;  0.0000000E+00;3;  0.0000000E+00;  0.0000000E+00;  0.0000000E+00;  0.0000000E+00;  0.0000000E+00;  0.0000000E+00;0;  0.0000000E+00;  1.0000000E+02;  0.0000000E+00;  0.0000000E+00;  1.0000000E+02;  0.0000000E+00;  1.0000000E+02;  0.0000000E+00;  0.0000000E+00;  0.0000000E+00;  0.0000000E+00;
  3.0000000E+00;  9.9999998E-03;  1.0000000E+00;340;  0.0000000E+00;  0.0000000E+00;  0.0000000E+00;  1.0000000E+01;  4.0000001E-01;  0.0000000E+00;3;  0.0000000E+00;  0.0000000E+00;  0.0000000E+00;  0.0000000E+00;  0.0000000E+00;  0.0000000E+00;0;  0.0000000E+00;  1.0000000E+02;  0.0000000E+00;  0.0000000E+00;  1.0000000E+02;  0.0000000E+00;  1.0000000E+02;  0.0000000E+00;  0.0000000E+00;  0.0000000E+00;  0.0000000E+00;
  3.2000000E+00;  9.9999998E-03;  0.0000000E+00;346;  0.0000000E+00;  0.0000000E+00;  0.0000000E+00;  1.0000000E+01;  4.0000001E-01;  0.0000000E+00;3;  0.0000000E+00;  0.0000000E+00;  0.0000000E+00;  0.0000000E+00;  0.0000000E+00;  0.0000000E+00;0;  0.0000000E+00;  1.0000000E+02;  0.0000000E+00;  0.0000000E+00;  1.0000000E+02;  0.0000000E+00;  1.0000000E+02;  0.0000000E+00;  0.0000000E+00;  0.0000000E+00;  0.0000000E+00;
  3.2000000E+00;  9.9999998E-03;  2.0000000E-01;347;  0.0000000E+00;  0.0000000E+00;  0.0000000E+00;  1.0000000E+01;  4.0000001E-01;  0.0000000E+00;3;  0.0000000E+00;  0.0000000E+00;  0.0000000E+00;  0.0000000E+00;  0.0000000E+00;  0.0000000E+00;0;  0.0000000E+00;  1.0000000E+02;  0.0000000E+00;  0.0000000E+00;  1.0000000E+02;  0.0000000E+00;  1.0000000E+02;  0.0000000E+00;  0.0000000E+00;  0.0000000E+00;  0.0000000E+00;
  3.2000000E+00;  9.9999998E-03;  4.0000001E-01;348;  0.0000000E+00;  0.0000000E+00;  0.0000000E+00;  1.0000000E+01;  4.0000001E-01;  0.0000000E+00;3;  0.0000000E+00;  0.0000000E+00;  0.0000000E+00;  0.0000000E+00;  0.0000000E+00;  0.0000000E+00;0;  0.0000000E+00;  1.0000000E+02;  0.0000000E+00;  0.0000000E+00;  1.0000000E+02;  0.0000000E+00;  1.0000000E+02;  0.0000000E+00;  0.0000000E+00;  0.0000000E+00;  0.0000000E+00;
  3.2000000E+00;  9.9999998E-03;  6.0000002E-01;349;  0.0000000E+00;  0.0000000E+00;  0.0000000E+00;  1.0000000E+01;  4.0000001E-01;  0.0000000E+00;3;  0.0000000E+00;  0.0000000E+00;  0.0000000E+00;  0.0000000E+00;  0.0000000E+00;  0.0000000E+00;0;  0.0000000E+00;  1.0000000E+02;  0.0000000E+00;  0.0000000E+00;  1.0000000E+02;  0.0000000E+00;  1.0000000E+02;  0.0000000E+00;  0.0000000E+00;  0.0000000E+00;  0.0000000E+00;
  3.2000000E+00;  9.9999998E-03;  8.0000001E-01;350;  0.0000000E+00;  0.0000000E+00;  0.0000000E+00;  1.0000000E+01;  4.0000001E-01;  0.0000000E+00;3;  0.0000000E+00;  0.0000000E+00;  0.0000000E+00;  0.0000000E+00;  0.0000000E+00;  0.0000000E+00;0;  0.0000000E+00;  1.0000000E+02;  0.0000000E+00;  0.0000000E+00;  1.0000000E+02;  0.0000000E+00;  1.0000000E+02;  0.0000000E+00;  0.0000000E+00;  0.0000000E+00;  0.0000000E+00;
  3.2000000E+00;  9.9999998E-03;  1.0000000E+00;351;  0.0000000E+00;  0.0000000E+00;  0.0000000E+00;  1.0000000E+01;  4.0000001E-01;  0.0000000E+00;3;  0.0000000E+00;  0.0000000E+00;  0.0000000E+00;  0.0000000E+00;  0.0000000E+00;  0.0000000E+00;0;  0.0000000E+00;  1.0000000E+02;  0.0000000E+00;  0.0000000E+00;  1.0000000E+02;  0.0000000E+00;  1.0000000E+02;  0.0000000E+00;  0.0000000E+00;  0.0000000E+00;  0.0000000E+00;
  3.4000001E+00;  9.9999998E-03;  0.0000000E+00;357;  0.0000000E+00;  0.0000000E+00;  0.0000000E+00;  1.0000000E+01;  4.0000001E-01;  0.0000000E+00;3;  0.0000000E+00;  0.0000000E+00;  0.0000000E+00;  0.0000000E+00;  0.0000000E+00;  0.0000000E+00;0;  0.0000000E+00;  1.0000000E+02;  0.0000000E+00;  0.0000000E+00;  1.0000000E+02;  0.0000000E+00;  1.0000000E+02;  0.0000000E+00;  0.0000000E+00;  0.0000000E+00;  0.0000000E+00;
  3.4000001E+00;  9.9999998E-03;  2.0000000E-01;358;  0.0000000E+00;  0.0000000E+00;  0.0000000E+00;  1.0000000E+01;  4.0000001E-01;  0.0000000E+00;3;  0.0000000E+00;  0.0000000E+00;  0.0000000E+00;  0.0000000E+00;  0.0000000E+00;  0.0000000E+00;0;  0.0000000E+00;  1.0000000E+02;  0.0000000E+00;  0.0000000E+00;  1.0000000E+02;  0.0000000E+00;  1.0000000E+02;  0.0000000E+00;  0.0000000E+00;  0.0000000E+00;  0.0000000E+00;
  3.4000001E+00;  9.9999998E-03;  4.0000001E-01;359;  0.0000000E+00;  0.0000000E+00;  0.0000000E+00;  1.0000000E+01;  4.0000001E-01;  0.0000000E+00;3;  0.0000000E+00;  0.0000000E+00;  0.0000000E+00;  0.0000000E+00;  0.0000000E+00;  0.0000000E+00;0;  0.0000000E+00;  1.0000000E+02;  0.0000000E+00;  0.0000000E+00;  1.0000000E+02;  0.0000000E+00;  1.0000000E+02;  0.0000000E+00;  0.0000000E+00;  0.0000000E+00;  0.0000000E+00;
  3.4000001E+00;  9.9999998E-03;  6.0000002E-01;360;  0.0000000E+00;  0.0000000E+00;  0.0000000E+00;  1.0000000E+01;  4.0000001E-01;  0.0000000E+00;3;  0.0000000E+00;  0.0000000E+00;  0.0000000E+00;  0.0000000E+00;  0.0000000E+00;  0.0000000E+00;0;  0.0000000E+00;  1.0000000E+02;  0.0000000E+00;  0.0000000E+00;  1.0000000E+02;  0.0000000E+00;  1.0000000E+02;  0.0000000E+00;  0.0000000E+00;  0.0000000E+00;  0.0000000E+00;
  3.4000001E+00;  9.9999998E-03;  8.0000001E-01;361;  0.0000000E+00;  0.0000000E+00;  0.0000000E+00;  1.0000000E+01;  4.0000001E-01;  0.0000000E+00;3;  0.0000000E+00;  0.0000000E+00;  0.0000000E+00;  0.0000000E+00;  0.0000000E+00;  0.0000000E+00;0;  0.0000000E+00;  1.0000000E+02;  0.0000000E+00;  0.0000000E+00;  1.0000000E+02;  0.0000000E+00;  1.0000000E+02;  0.0000000E+00;  0.0000000E+00;  0.0000000E+00;  0.0000000E+00;
  3.4000001E+00;  9.9999998E-03;  1.0000000E+00;362;  0.0000000E+00;  0.0000000E+00;  0.0000000E+00;  1.0000000E+01;  4.0000001E-01;  0.0000000E+00;3;  0.0000000E+00;  0.0000000E+00;  0.0000000E+00;  0.0000000E+00;  0.0000000E+00;  0.0000000E+00;0;  0.0000000E+00;  1.0000000E+02;  0.0000000E+00;  0.0000000E+00;  1.0000000E+02;  0.0000000E+00;  1.0000000E+02;  0.0000000E+00;  0.0000000E+00;  0.0000000E+00;  0.0000000E+00;
  3.5999999E+00;  9.9999998E-03;  0.0000000E+00;368;  0.0000000E+00;  0.0000000E+00;  0.0000000E+00;  1.0000000E+01;  4.0000001E-01;  0.0000000E+00;3;  0.0000000E+00;  0.0000000E+00;  0.0000000E+00;  0.0000000E+00;  0.0000000E+00;  0.0000000E+00;0;  0.0000000E+00;  1.0000000E+02;  0.0000000E+00;  0.0000000E+00;  1.0000000E+02;  0.0000000E+00;  1.0000000E+02;  0.0000000E+00;  0.0000000E+00;  0.0000000E+00;  0.0000000E+00;
  3.5999999E+00;  9.9999998E-03;  2.0000000E-01;369;  0.0000000E+00;  0.0000000E+00;  0.0000000E+00;  1.0000000E+01;  4.0000001E-01;  0.0000000E+00;3;  0.0000000E+00;  0.0000000E+00;  0.0000000E+00;  0.0000000E+00;  0.0000000E+00;  0.0000000E+00;0;  0.0000000E+00;  1.0000000E+02;  0.0000000E+00;  0.0000000E+00;  1.0000000E+02;  0.0000000E+00;  1.0000000E+02;  0.0000000E+00;  0.0000000E+00;  0.0000000E+00;  0.0000000E+00;
  3.5999999E+00;  9.9999998E-03;  4.0000001E-01;370;  0.0000000E+00;  0.0000000E+00;  0.0000000E+00;  1.0000000E+01;  4.0000001E-01;  0.0000000E+00;3;  0.0000000E+00;  0.0000000E+00;  0.0000000E+00;  0.0000000E+00;  0.0000000E+00;  0.0000000E+00;0;  0.0000000E+00;  1.0000000E+02;  0.0000000E+00;  0.0000000E+00;  1.0000000E+02;  0.0000000E+00;  1.0000000E+02;  0.0000000E+00;  0.0000000E+00;  0.0000000E+00;  0.0000000E+00;
  3.5999999E+00;  9.9999998E-03;  6.0000002E-01;371;  0.0000000E+00;  0.0000000E+00;  0.0000000E+00;  1.0000000E+01;  4.0000001E-01;  0.0000000E+00;3;  0.0000000E+00;  0.0000000E+00;  0.0000000E+00;  0.0000000E+00;  0.0000000E+00;  0.0000000E+00;0;  0.0000000E+00;  1.0000000E+02;  0.0000000E+00;  0.0000000E+00;  1.0000000E+02;  0.0000000E+00;  1.0000000E+02;  0.0000000E+00;  0.0000000E+00;  0.0000000E+00;  0.0000000E+00;
  3.5999999E+00;  9.9999998E-03;  8.0000001E-01;372;  0.0000000E+00;  0.0000000E+00;  0.0000000E+00;  1.0000000E+01;  4.0000001E-01;  0.0000000E+00;3;  0.0000000E+00;  0.0000000E+00;  0.0000000E+00;  0.0000000E+00;  0.0000000E+00;  0.0000000E+00;0;  0.0000000E+00;  1.0000000E+02;  0.0000000E+00;  0.0000000E+00;  1.0000000E+02;  0.0000000E+00;  1.0000000E+02;  0.0000000E+00;  0.0000000E+00;  0.0000000E+00;  0.0000000E+00;
  3.5999999E+00;  9.9999998E-03;  1.0000000E+00;373;  0.0000000E+00;  0.0000000E+00;  0.0000000E+00;  1.0000000E+01;  4.0000001E-01;  0.0000000E+00;3;  0.0000000E+00;  0.0000000E+00;  0.0000000E+00;  0.0000000E+00;  0.0000000E+00;  0.0000000E+00;0;  0.0000000E+00;  1.0000000E+02;  0.0000000E+00;  0.0000000E+00;  1.0000000E+02;  0.0000000E+00;  1.0000000E+02;  0.0000000E+00;  0.0000000E+00;  0.0000000E+00;  0.0000000E+00;
  3.8000000E+00;  9.9999998E-03;  0.0000000E+00;379;  0.0000000E+00;  0.0000000E+00;  0.0000000E+00;  1.0000000E+01;  4.0000001E-01;  0.0000000E+00;3;  0.0000000E+00;  0.0000000E+00;  0.0000000E+00;  0.0000000E+00;  0.0000000E+00;  0.0000000E+00;0;  0.0000000E+00;  1.0000000E+02;  0.0000000E+00;  0.0000000E+00;  1.0000000E+02;  0.0000000E+00;  1.0000000E+02;  0.0000000E+00;  0.0000000E+00;  0.0000000E+00;  0.0000000E+00;
  3.8000000E+00;  9.9999998E-03;  2.0000000E-01;380;  0.0000000E+00;  0.0000000E+00;  0.0000000E+00;  1.0000000E+01;  4.0000001E-01;  0.0000000E+00;3;  0.0000000E+00;  0.0000000E+00;  0.0000000E+00;  0.0000000E+00;  0.0000000E+00;  0.0000000E+00;0;  0.0000000E+00;  1.0000000E+02;  0.0000000E+00;  0.0000000E+00;  1.0000000E+02;  0.0000000E+00;  1.0000000E+02;  0.0000000E+00;  0.0000000E+00;  0.0000000E+00;  0.0000000E+00;
  3.8000000E+00;  9.9999998E-03;  4.0000001E-01;381;  0.0000000E+00;  0.0000000E+00;  0.0000000E+00;  1.0000000E+01;  4.0000001E-01;  0.0000000E+00;3;  0.0000000E+00;  0.0000000E+00;  0.0000000E+00;  0.0000000E+00;  0.0000000E+00;  0.0000000E+00;0;  0.0000000E+00;  1.0000000E+02;  0.0000000E+00;  0.0000000E+00;  1.0000000E+02;  0.0000000E+00;  1.0000000E+02;  0.0000000E+00;  0.0000000E+00;  0.0000000E+00;  0.0000000E+00;
  3.8000000E+00;  9.9999998E-03;  6.0000002E-01;382;  0.0000000E+00;  0.0000000E+00;  0.0000000E+00;  1.0000000E+01;  4.0000001E-01;  0.0000000E+00;3;  0.0000000E+00;  0.0000000E+00;  0.0000000E+00;  0.0000000E+00;  0.0000000E+00;  0.0000000E+00;0;  0.0000000E+00;  1.0000000E+02;  0.0000000E+00;  0.0000000E+00;  1.0000000E+02;  0.0000000E+00;  1.0000000E+02;  0.0000000E+00;  0.0000000E+00;  0.0000000E+00;  0.0000000E+00;
  3.8000000E+00;  9.9999998E-03;  8.0000001E-01;383;  0.0000000E+00;  0.0000000E+00;  0.0000000E+00;  1.0000000E+01;  4.0000001E-01;  0.0000000E+00;3;  0.0000000E+00;  0.0000000E+00;  0.0000000E+00;  0.0000000E+00;  0.0000000E+00;  0.0000000E+00;0;  0.0000000E+00;  1.0000000E+02;  0.0000000E+00;  0.0000000E+00;  1.0000000E+02;  0.0000000E+00;  1.0000000E+02;  0.0000000E+00;  0.0000000E+00;  0.0000000E+00;  0.0000000E+00;
  3.8000000E+00;  9.9999998E-03;  1.0000000E+00;384;  0.0000000E+00;  0.0000000E+00;  0.0000000E+00;  1.0000000E+01;  4.0000001E-01;  0.0000000E+00;3;  0.0000000E+00;  0.0000000E+00;  0.0000000E+00;  0.0000000E+00;  0.0000000E+00;  0.0000000E+00;0;  0.0000000E+00;  1.0000000E+02;  0.0000000E+00;  0.0000000E+00;  1.0000000E+02;  0.0000000E+00;  1.0000000E+02;  0.0000000E+00;  0.0000000E+00;  0.0000000E+00;  0.0000000E+00;
  4.0000000E+00;  9.9999998E-03;  0.0000000E+00;390;  0.0000000E+00;  0.0000000E+00;  0.0000000E+00;  1.0000000E+01;  4.0000001E-01;  0.0000000E+00;3;  0.0000000E+00;  0.0000000E+00;  0.0000000E+00;  0.0000000E+00;  0.0000000E+00;  0.0000000E+00;0;  0.0000000E+00;  1.0000000E+02;  0.0000000E+00;  0.0000000E+00;  1.0000000E+02;  0.0000000E+00;  1.0000000E+02;  0.0000000E+00;  0.0000000E+00;  0.0000000E+00;  0.0000000E+00;
  4.0000000E+00;  9.9999998E-03;  2.0000000E-01;391;  0.0000000E+00;  0.0000000E+00;  0.0000000E+00;  1.0000000E+01;  4.0000001E-01;  0.0000000E+00;3;  0.0000000E+00;  0.0000000E+00;  0.0000000E+00;  0.0000000E+00;  0.0000000E+00;  0.0000000E+00;0;  0.0000000E+00;  1.0000000E+02;  0.0000000E+00;  0.0000000E+00;  1.0000000E+02;  0.0000000E+00;  1.0000000E+02;  0.0000000E+00;  0.0000000E+00;  0.0000000E+00;  0.0000000E+00;
  4.0000000E+00;  9.9999998E-03;  4.0000001E-01;392;  0.0000000E+00;  0.0000000E+00;  0.0000000E+00;  1.0000000E+01;  4.0000001E-01;  0.0000000E+00;3;  0.0000000E+00;  0.0000000E+00;  0.0000000E+00;  0.0000000E+00;  0.0000000E+00;  0.0000000E+00;0;  0.0000000E+00;  1.0000000E+02;  0.0000000E+00;  0.0000000E+00;  1.0000000E+02;  0.0000000E+00;  1.0000000E+02;  0.0000000E+00;  0.0000000E+00;  0.0000000E+00;  0.0000000E+00;
  4.0000000E+00;  9.9999998E-03;  6.0000002E-01;393;  0.0000000E+00;  0.0000000E+00;  0.0000000E+00;  1.0000000E+01;  4.0000001E-01;  0.0000000E+00;3;  0.0000000E+00;  0.0000000E+00;  0.0000000E+00;  0.0000000E+00;  0.0000000E+00;  0.0000000E+00;0;  0.0000000E+00;  1.0000000E+02;  0.0000000E+00;  0.0000000E+00;  1.0000000E+02;  0.0000000E+00;  1.0000000E+02;  0.0000000E+00;  0.0000000E+00;  0.0000000E+00;  0.0000000E+00;
  4.0000000E+00;  9.9999998E-03;  8.0000001E-01;394;  0.0000000E+00;  0.0000000E+00;  0.0000000E+00;  1.0000000E+01;  4.0000001E-01;  0.0000000E+00;3;  0.0000000E+00;  0.0000000E+00;  0.0000000E+00;  0.0000000E+00;  0.0000000E+00;  0.0000000E+00;0;  0.0000000E+00;  1.0000000E+02;  0.0000000E+00;  0.0000000E+00;  1.0000000E+02;  0.0000000E+00;  1.0000000E+02;  0.0000000E+00;  0.0000000E+00;  0.0000000E+00;  0.0000000E+00;
  4.0000000E+00;  9.9999998E-03;  1.0000000E+00;395;  0.0000000E+00;  0.0000000E+00;  0.0000000E+00;  1.0000000E+01;  4.0000001E-01;  0.0000000E+00;3;  0.0000000E+00;  0.0000000E+00;  0.0000000E+00;  0.0000000E+00;  0.0000000E+00;  0.0000000E+00;0;  0.0000000E+00;  1.0000000E+02;  0.0000000E+00;  0.0000000E+00;  1.0000000E+02;  0.0000000E+00;  1.0000000E+02;  0.0000000E+00;  0.0000000E+00;  0.0000000E+00;  0.0000000E+00;
  4.1999998E+00;  9.9999998E-03;  0.0000000E+00;401;  0.0000000E+00;  0.0000000E+00;  0.0000000E+00;  1.0000000E+01;  4.0000001E-01;  0.0000000E+00;3;  0.0000000E+00;  0.0000000E+00;  0.0000000E+00;  0.0000000E+00;  0.0000000E+00;  0.0000000E+00;0;  0.0000000E+00;  1.0000000E+02;  0.0000000E+00;  0.0000000E+00;  1.0000000E+02;  0.0000000E+00;  1.0000000E+02;  0.0000000E+00;  0.0000000E+00;  0.0000000E+00;  0.0000000E+00;
  4.1999998E+00;  9.9999998E-03;  2.0000000E-01;402;  0.0000000E+00;  0.0000000E+00;  0.0000000E+00;  1.0000000E+01;  4.0000001E-01;  0.0000000E+00;3;  0.0000000E+00;  0.0000000E+00;  0.0000000E+00;  0.0000000E+00;  0.0000000E+00;  0.0000000E+00;0;  0.0000000E+00;  1.0000000E+02;  0.0000000E+00;  0.0000000E+00;  1.0000000E+02;  0.0000000E+00;  1.0000000E+02;  0.0000000E+00;  0.0000000E+00;  0.0000000E+00;  0.0000000E+00;
  4.1999998E+00;  9.9999998E-03;  4.0000001E-01;403;  0.0000000E+00;  0.0000000E+00;  0.0000000E+00;  1.0000000E+01;  4.0000001E-01;  0.0000000E+00;3;  0.0000000E+00;  0.0000000E+00;  0.0000000E+00;  0.0000000E+00;  0.0000000E+00;  0.0000000E+00;0;  0.0000000E+00;  1.0000000E+02;  0.0000000E+00;  0.0000000E+00;  1.0000000E+02;  0.0000000E+00;  1.0000000E+02;  0.0000000E+00;  0.0000000E+00;  0.0000000E+00;  0.0000000E+00;
  4.1999998E+00;  9.9999998E-03;  6.0000002E-01;404;  0.0000000E+00;  0.0000000E+00;  0.0000000E+00;  1.0000000E+01;  4.0000001E-01;  0.0000000E+00;3;  0.0000000E+00;  0.0000000E+00;  0.0000000E+00;  0.0000000E+00;  0.0000000E+00;  0.0000000E+00;0;  0.0000000E+00;  1.0000000E+02;  0.0000000E+00;  0.0000000E+00;  1.0000000E+02;  0.0000000E+00;  1.0000000E+02;  0.0000000E+00;  0.0000000E+00;  0.0000000E+00;  0.0000000E+00;
  4.1999998E+00;  9.9999998E-03;  8.0000001E-01;405;  0.0000000E+00;  0.0000000E+00;  0.0000000E+00;  1.0000000E+01;  4.0000001E-01;  0.0000000E+00;3;  0.0000000E+00;  0.0000000E+00;  0.0000000E+00;  0.0000000E+00;  0.0000000E+00;  0.0000000E+00;0;  0.0000000E+00;  1.0000000E+02;  0.0000000E+00;  0.0000000E+00;  1.0000000E+02;  0.0000000E+00;  1.0000000E+02;  0.0000000E+00;  0.0000000E+00;  0.0000000E+00;  0.0000000E+00;
  4.1999998E+00;  9.9999998E-03;  1.0000000E+00;406;  0.0000000E+00;  0.0000000E+00;  0.0000000E+00;  1.0000000E+01;  4.0000001E-01;  0.0000000E+00;3;  0.0000000E+00;  0.0000000E+00;  0.0000000E+00;  0.0000000E+00;  0.0000000E+00;  0.0000000E+00;0;  0.0000000E+00;  1.0000000E+02;  0.0000000E+00;  0.0000000E+00;  1.0000000E+02;  0.0000000E+00;  1.0000000E+02;  0.0000000E+00;  0.0000000E+00;  0.0000000E+00;  0.0000000E+00;
  4.4000001E+00;  9.9999998E-03;  0.0000000E+00;412;  0.0000000E+00;  0.0000000E+00;  0.0000000E+00;  1.0000000E+01;  4.0000001E-01;  0.0000000E+00;3;  0.0000000E+00;  0.0000000E+00;  0.0000000E+00;  0.0000000E+00;  0.0000000E+00;  0.0000000E+00;0;  0.0000000E+00;  1.0000000E+02;  0.0000000E+00;  0.0000000E+00;  1.0000000E+02;  0.0000000E+00;  1.0000000E+02;  0.0000000E+00;  0.0000000E+00;  0.0000000E+00;  0.0000000E+00;
  4.4000001E+00;  9.9999998E-03;  2.0000000E-01;413;  0.0000000E+00;  0.0000000E+00;  0.0000000E+00;  1.0000000E+01;  4.0000001E-01;  0.0000000E+00;3;  0.0000000E+00;  0.0000000E+00;  0.0000000E+00;  0.0000000E+00;  0.0000000E+00;  0.0000000E+00;0;  0.0000000E+00;  1.0000000E+02;  0.0000000E+00;  0.0000000E+00;  1.0000000E+02;  0.0000000E+00;  1.0000000E+02;  0.0000000E+00;  0.0000000E+00;  0.0000000E+00;  0.0000000E+00;
  4.4000001E+00;  9.9999998E-03;  4.0000001E-01;414;  0.0000000E+00;  0.0000000E+00;  0.0000000E+00;  1.0000000E+01;  4.0000001E-01;  0.0000000E+00;3;  0.0000000E+00;  0.0000000E+00;  0.0000000E+00;  0.0000000E+00;  0.0000000E+00;  0.0000000E+00;0;  0.0000000E+00;  1.0000000E+02;  0.0000000E+00;  0.0000000E+00;  1.0000000E+02;  0.0000000E+00;  1.0000000E+02;  0.0000000E+00;  0.0000000E+00;  0.0000000E+00;  0.0000000E+00;
  4.4000001E+00;  9.9999998E-03;  6.0000002E-01;415;  0.0000000E+00;  0.0000000E+00;  0.0000000E+00;  1.0000000E+01;  4.0000001E-01;  0.0000000E+00;3;  0.0000000E+00;  0.0000000E+00;  0.0000000E+00;  0.0000000E+00;  0.0000000E+00;  0.0000000E+00;0;  0.0000000E+00;  1.0000000E+02;  0.0000000E+00;  0.0000000E+00;  1.0000000E+02;  0.0000000E+00;  1.0000000E+02;  0.0000000E+00;  0.0000000E+00;  0.0000000E+00;  0.0000000E+00;
  4.4000001E+00;  9.9999998E-03;  8.0000001E-01;416;  0.0000000E+00;  0.0000000E+00;  0.0000000E+00;  1.0000000E+01;  4.0000001E-01;  0.0000000E+00;3;  0.0000000E+00;  0.0000000E+00;  0.0000000E+00;  0.0000000E+00;  0.0000000E+00;  0.0000000E+00;0;  0.0000000E+00;  1.0000000E+02;  0.0000000E+00;  0.0000000E+00;  1.0000000E+02;  0.0000000E+00;  1.0000000E+02;  0.0000000E+00;  0.0000000E+00;  0.0000000E+00;  0.0000000E+00;
  4.4000001E+00;  9.9999998E-03;  1.0000000E+00;417;  0.0000000E+00;  0.0000000E+00;  0.0000000E+00;  1.0000000E+01;  4.0000001E-01;  0.0000000E+00;3;  0.0000000E+00;  0.0000000E+00;  0.0000000E+00;  0.0000000E+00;  0.0000000E+00;  0.0000000E+00;0;  0.0000000E+00;  1.0000000E+02;  0.0000000E+00;  0.0000000E+00;  1.0000000E+02;  0.0000000E+00;  1.0000000E+02;  0.0000000E+00;  0.0000000E+00;  0.0000000E+00;  0.0000000E+00;
  4.5999999E+00;  9.9999998E-03;  0.0000000E+00;423;  0.0000000E+00;  0.0000000E+00;  0.0000000E+00;  1.0000000E+01;  4.0000001E-01;  0.0000000E+00;3;  0.0000000E+00;  0.0000000E+00;  0.0000000E+00;  0.0000000E+00;  0.0000000E+00;  0.0000000E+00;0;  0.0000000E+00;  1.0000000E+02;  0.0000000E+00;  0.0000000E+00;  1.0000000E+02;  0.0000000E+00;  1.0000000E+02;  0.0000000E+00;  0.0000000E+00;  0.0000000E+00;  0.0000000E+00;
  4.5999999E+00;  9.9999998E-03;  2.0000000E-01;424;  0.0000000E+00;  0.0000000E+00;  0.0000000E+00;  1.0000000E+01;  4.0000001E-01;  0.0000000E+00;3;  0.0000000E+00;  0.0000000E+00;  0.0000000E+00;  0.0000000E+00;  0.0000000E+00;  0.0000000E+00;0;  0.0000000E+00;  1.0000000E+02;  0.0000000E+00;  0.0000000E+00;  1.0000000E+02;  0.0000000E+00;  1.0000000E+02;  0.0000000E+00;  0.0000000E+00;  0.0000000E+00;  0.0000000E+00;
  4.5999999E+00;  9.9999998E-03;  4.0000001E-01;425;  0.0000000E+00;  0.0000000E+00;  0.0000000E+00;  1.0000000E+01;  4.0000001E-01;  0.0000000E+00;3;  0.0000000E+00;  0.0000000E+00;  0.0000000E+00;  0.0000000E+00;  0.0000000E+00;  0.0000000E+00;0;  0.0000000E+00;  1.0000000E+02;  0.0000000E+00;  0.0000000E+00;  1.0000000E+02;  0.0000000E+00;  1.0000000E+02;  0.0000000E+00;  0.0000000E+00;  0.0000000E+00;  0.0000000E+00;
  4.5999999E+00;  9.9999998E-03;  6.0000002E-01;426;  0.0000000E+00;  0.0000000E+00;  0.0000000E+00;  1.0000000E+01;  4.0000001E-01;  0.0000000E+00;3;  0.0000000E+00;  0.0000000E+00;  0.0000000E+00;  0.0000000E+00;  0.0000000E+00;  0.0000000E+00;0;  0.0000000E+00;  1.0000000E+02;  0.0000000E+00;  0.0000000E+00;  1.0000000E+02;  0.0000000E+00;  1.0000000E+02;  0.0000000E+00;  0.0000000E+00;  0.0000000E+00;  0.0000000E+00;
  4.5999999E+00;  9.9999998E-03;  8.0000001E-01;427;  0.0000000E+00;  0.0000000E+00;  0.0000000E+00;  1.0000000E+01;  4.0000001E-01;  0.0000000E+00;3;  0.0000000E+00;  0.0000000E+00;  0.0000000E+00;  0.0000000E+00;  0.0000000E+00;  0.0000000E+00;0;  0.0000000E+00;  1.0000000E+02;  0.0000000E+00;  0.0000000E+00;  1.0000000E+02;  0.0000000E+00;  1.0000000E+02;  0.0000000E+00;  0.0000000E+00;  0.0000000E+00;  0.0000000E+00;
  4.5999999E+00;  9.9999998E-03;  1.0000000E+00;428;  0.0000000E+00;  0.0000000E+00;  0.0000000E+00;  1.0000000E+01;  4.0000001E-01;  0.0000000E+00;3;  0.0000000E+00;  0.0000000E+00;  0.0000000E+00;  0.0000000E+00;  0.0000000E+00;  0.0000000E+00;0;  0.0000000E+00;  1.0000000E+02;  0.0000000E+00;  0.0000000E+00;  1.0000000E+02;  0.0000000E+00;  1.0000000E+02;  0.0000000E+00;  0.0000000E+00;  0.0000000E+00;  0.0000000E+00;
  4.8000002E+00;  9.9999998E-03;  0.0000000E+00;434;  0.0000000E+00;  0.0000000E+00;  0.0000000E+00;  1.0000000E+01;  4.0000001E-01;  0.0000000E+00;3;  0.0000000E+00;  0.0000000E+00;  0.0000000E+00;  0.0000000E+00;  0.0000000E+00;  0.0000000E+00;0;  0.0000000E+00;  1.0000000E+02;  0.0000000E+00;  0.0000000E+00;  1.0000000E+02;  0.0000000E+00;  1.0000000E+02;  0.0000000E+00;  0.0000000E+00;  0.0000000E+00;  0.0000000E+00;
  4.8000002E+00;  9.9999998E-03;  2.0000000E-01;435;  0.0000000E+00;  0.0000000E+00;  0.0000000E+00;  1.0000000E+01;  4.0000001E-01;  0.0000000E+00;3;  0.0000000E+00;  0.0000000E+00;  0.0000000E+00;  0.0000000E+00;  0.0000000E+00;  0.0000000E+00;0;  0.0000000E+00;  1.0000000E+02;  0.0000000E+00;  0.0000000E+00;  1.0000000E+02;  0.0000000E+00;  1.0000000E+02;  0.0000000E+00;  0.0000000E+00;  0.0000000E+00;  0.0000000E+00;
  4.8000002E+00;  9.9999998E-03;  4.0000001E-01;436;  0.0000000E+00;  0.0000000E+00;  0.0000000E+00;  1.0000000E+01;  4.0000001E-01;  0.0000000E+00;3;  0.0000000E+00;  0.0000000E+00;  0.0000000E+00;  0.0000000E+00;  0.0000000E+00;  0.0000000E+00;0;  0.0000000E+00;  1.0000000E+02;  0.0000000E+00;  0.0000000E+00;  1.0000000E+02;  0.0000000E+00;  1.0000000E+02;  0.0000000E+00;  0.0000000E+00;  0.0000000E+00;  0.0000000E+00;
  4.8000002E+00;  9.9999998E-03;  6.0000002E-01;437;  0.0000000E+00;  0.0000000E+00;  0.0000000E+00;  1.0000000E+01;  4.0000001E-01;  0.0000000E+00;3;  0.0000000E+00;  0.0000000E+00;  0.0000000E+00;  0.0000000E+00;  0.0000000E+00;  0.0000000E+00;0;  0.0000000E+00;  1.0000000E+02;  0.0000000E+00;  0.0000000E+00;  1.0000000E+02;  0.0000000E+00;  1.0000000E+02;  0.0000000E+00;  0.0000000E+00;  0.0000000E+00;  0.0000000E+00;
  4.8000002E+00;  9.9999998E-03;  8.0000001E-01;438;  0.0000000E+00;  0.0000000E+00;  0.0000000E+00;  1.0000000E+01;  4.0000001E-01;  0.0000000E+00;3;  0.0000000E+00;  0.0000000E+00;  0.0000000E+00;  0.0000000E+00;  0.0000000E+00;  0.0000000E+00;0;  0.0000000E+00;  1.0000000E+02;  0.0000000E+00;  0.0000000E+00;  1.0000000E+02;  0.0000000E+00;  1.0000000E+02;  0.0000000E+00;  0.0000000E+00;  0.0000000E+00;  0.0000000E+00;
  4.8000002E+00;  9.9999998E-03;  1.0000000E+00;439;  0.0000000E+00;  0.0000000E+00;  0.0000000E+00;  1.0000000E+01;  4.0000001E-01;  0.0000000E+00;3;  0.0000000E+00;  0.0000000E+00;  0.0000000E+00;  0.0000000E+00;  0.0000000E+00;  0.0000000E+00;0;  0.0000000E+00;  1.0000000E+02;  0.0000000E+00;  0.0000000E+00;  1.0000000E+02;  0.0000000E+00;  1.0000000E+02;  0.0000000E+00;  0.0000000E+00;  0.0000000E+00;  0.0000000E+00;
  5.0000000E+00;  9.9999998E-03;  0.0000000E+00;445;  0.0000000E+00;  0.0000000E+00;  0.0000000E+00;  1.0000000E+01;  4.0000001E-01;  0.0000000E+00;3;  0.0000000E+00;  0.0000000E+00;  0.0000000E+00;  0.0000000E+00;  0.0000000E+00;  0.0000000E+00;0;  0.0000000E+00;  1.0000000E+02;  0.0000000E+00;  0.0000000E+00;  1.0000000E+02;  0.0000000E+00;  1.0000000E+02;  0.0000000E+00;  0.0000000E+00;  0.0000000E+00;  0.0000000E+00;
  5.0000000E+00;  9.9999998E-03;  2.0000000E-01;446;  0.0000000E+00;  0.0000000E+00;  0.0000000E+00;  1.0000000E+01;  4.0000001E-01;  0.0000000E+00;3;  0.0000000E+00;  0.0000000E+00;  0.0000000E+00;  0.0000000E+00;  0.0000000E+00;  0.0000000E+00;0;  0.0000000E+00;  1.0000000E+02;  0.0000000E+00;  0.0000000E+00;  1.0000000E+02;  0.0000000E+00;  1.0000000E+02;  0.0000000E+00;  0.0000000E+00;  0.0000000E+00;  0.0000000E+00;
  5.0000000E+00;  9.9999998E-03;  4.0000001E-01;447;  0.0000000E+00;  0.0000000E+00;  0.0000000E+00;  1.0000000E+01;  4.0000001E-01;  0.0000000E+00;3;  0.0000000E+00;  0.0000000E+00;  0.0000000E+00;  0.0000000E+00;  0.0000000E+00;  0.0000000E+00;0;  0.0000000E+00;  1.0000000E+02;  0.0000000E+00;  0.0000000E+00;  1.0000000E+02;  0.0000000E+00;  1.0000000E+02;  0.0000000E+00;  0.0000000E+00;  0.0000000E+00;  0.0000000E+00;
  5.0000000E+00;  9.9999998E-03;  6.0000002E-01;448;  0.0000000E+00;  0.0000000E+00;  0.0000000E+00;  1.0000000E+01;  4.0000001E-01;  0.0000000E+00;3;  0.0000000E+00;  0.0000000E+00;  0.0000000E+00;  0.0000000E+00;  0.0000000E+00;  0.0000000E+00;0;  0.0000000E+00;  1.0000000E+02;  0.0000000E+00;  0.0000000E+00;  1.0000000E+02;  0.0000000E+00;  1.0000000E+02;  0.0000000E+00;  0.0000000E+00;  0.0000000E+00;  0.0000000E+00;
  5.0000000E+00;  9.9999998E-03;  8.0000001E-01;449;  0.0000000E+00;  0.0000000E+00;  0.0000000E+00;  1.0000000E+01;  4.0000001E-01;  0.0000000E+00;3;  0.0000000E+00;  0.0000000E+00;  0.0000000E+00;  0.0000000E+00;  0.0000000E+00;  0.0000000E+00;0;  0.0000000E+00;  1.0000000E+02;  0.0000000E+00;  0.0000000E+00;  1.0000000E+02;  0.0000000E+00;  1.0000000E+02;  0.0000000E+00;  0.0000000E+00;  0.0000000E+00;  0.0000000E+00;
  5.0000000E+00;  9.9999998E-03;  1.0000000E+00;450;  0.0000000E+00;  0.0000000E+00;  0.0000000E+00;  1.0000000E+01;  4.0000001E-01;  0.0000000E+00;3;  0.0000000E+00;  0.0000000E+00;  0.0000000E+00;  0.0000000E+00;  0.0000000E+00;  0.0000000E+00;0;  0.0000000E+00;  1.0000000E+02;  0.0000000E+00;  0.0000000E+00;  1.0000000E+02;  0.0000000E+00;  1.0000000E+02;  0.0000000E+00;  0.0000000E+00;  0.0000000E+00;  0.0000000E+00;
  5.1999998E+00;  9.9999998E-03;  0.0000000E+00;456;  0.0000000E+00;  0.0000000E+00;  0.0000000E+00;  1.0000000E+01;  4.0000001E-01;  0.0000000E+00;3;  0.0000000E+00;  0.0000000E+00;  0.0000000E+00;  0.0000000E+00;  0.0000000E+00;  0.0000000E+00;0;  0.0000000E+00;  1.0000000E+02;  0.0000000E+00;  0.0000000E+00;  1.0000000E+02;  0.0000000E+00;  1.0000000E+02;  0.0000000E+00;  0.0000000E+00;  0.0000000E+00;  0.0000000E+00;
  5.1999998E+00;  9.9999998E-03;  2.0000000E-01;457;  0.0000000E+00;  0.0000000E+00;  0.0000000E+00;  1.0000000E+01;  4.0000001E-01;  0.0000000E+00;3;  0.0000000E+00;  0.0000000E+00;  0.0000000E+00;  0.0000000E+00;  0.0000000E+00;  0.0000000E+00;0;  0.0000000E+00;  1.0000000E+02;  0.0000000E+00;  0.0000000E+00;  1.0000000E+02;  0.0000000E+00;  1.0000000E+02;  0.0000000E+00;  0.0000000E+00;  0.0000000E+00;  0.0000000E+00;
  5.1999998E+00;  9.9999998E-03;  4.0000001E-01;458;  0.0000000E+00;  0.0000000E+00;  0.0000000E+00;  1.0000000E+01;  4.0000001E-01;  0.0000000E+00;3;  0.0000000E+00;  0.0000000E+00;  0.0000000E+00;  0.0000000E+00;  0.0000000E+00;  0.0000000E+00;0;  0.0000000E+00;  1.0000000E+02;  0.0000000E+00;  0.0000000E+00;  1.0000000E+02;  0.0000000E+00;  1.0000000E+02;  0.0000000E+00;  0.0000000E+00;  0.0000000E+00;  0.0000000E+00;
  5.1999998E+00;  9.9999998E-03;  6.0000002E-01;459;  0.0000000E+00;  0.0000000E+00;  0.0000000E+00;  1.0000000E+01;  4.0000001E-01;  0.0000000E+00;3;  0.0000000E+00;  0.0000000E+00;  0.0000000E+00;  0.0000000E+00;  0.0000000E+00;  0.0000000E+00;0;  0.0000000E+00;  1.0000000E+02;  0.0000000E+00;  0.0000000E+00;  1.0000000E+02;  0.0000000E+00;  1.0000000E+02;  0.0000000E+00;  0.0000000E+00;  0.0000000E+00;  0.0000000E+00;
  5.1999998E+00;  9.9999998E-03;  8.0000001E-01;460;  0.0000000E+00;  0.0000000E+00;  0.0000000E+00;  1.0000000E+01;  4.0000001E-01;  0.0000000E+00;3;  0.0000000E+00;  0.0000000E+00;  0.0000000E+00;  0.0000000E+00;  0.0000000E+00;  0.0000000E+00;0;  0.0000000E+00;  1.0000000E+02;  0.0000000E+00;  0.0000000E+00;  1.0000000E+02;  0.0000000E+00;  1.0000000E+02;  0.0000000E+00;  0.0000000E+00;  0.0000000E+00;  0.0000000E+00;
  5.1999998E+00;  9.9999998E-03;  1.0000000E+00;461;  0.0000000E+00;  0.0000000E+00;  0.0000000E+00;  1.0000000E+01;  4.0000001E-01;  0.0000000E+00;3;  0.0000000E+00;  0.0000000E+00;  0.0000000E+00;  0.0000000E+00;  0.0000000E+00;  0.0000000E+00;0;  0.0000000E+00;  1.0000000E+02;  0.0000000E+00;  0.0000000E+00;  1.0000000E+02;  0.0000000E+00;  1.0000000E+02;  0.0000000E+00;  0.0000000E+00;  0.0000000E+00;  0.0000000E+00;
  5.4000001E+00;  9.9999998E-03;  0.0000000E+00;467;  0.0000000E+00;  0.0000000E+00;  0.0000000E+00;  1.0000000E+01;  4.0000001E-01;  0.0000000E+00;3;  0.0000000E+00;  0.0000000E+00;  0.0000000E+00;  0.0000000E+00;  0.0000000E+00;  0.0000000E+00;0;  0.0000000E+00;  1.0000000E+02;  0.0000000E+00;  0.0000000E+00;  1.0000000E+02;  0.0000000E+00;  1.0000000E+02;  0.0000000E+00;  0.0000000E+00;  0.0000000E+00;  0.0000000E+00;
  5.4000001E+00;  9.9999998E-03;  2.0000000E-01;468;  0.0000000E+00;  0.0000000E+00;  0.0000000E+00;  1.0000000E+01;  4.0000001E-01;  0.0000000E+00;3;  0.0000000E+00;  0.0000000E+00;  0.0000000E+00;  0.0000000E+00;  0.0000000E+00;  0.0000000E+00;0;  0.0000000E+00;  1.0000000E+02;  0.0000000E+00;  0.0000000E+00;  1.0000000E+02;  0.0000000E+00;  1.0000000E+02;  0.0000000E+00;  0.0000000E+00;  0.0000000E+00;  0.0000000E+00;
  5.4000001E+00;  9.9999998E-03;  4.0000001E-01;469;  0.0000000E+00;  0.0000000E+00;  0.0000000E+00;  1.0000000E+01;  4.0000001E-01;  0.0000000E+00;3;  0.0000000E+00;  0.0000000E+00;  0.0000000E+00;  0.0000000E+00;  0.0000000E+00;  0.0000000E+00;0;  0.0000000E+00;  1.0000000E+02;  0.0000000E+00;  0.0000000E+00;  1.0000000E+02;  0.0000000E+00;  1.0000000E+02;  0.0000000E+00;  0.0000000E+00;  0.0000000E+00;  0.0000000E+00;
  5.4000001E+00;  9.9999998E-03;  6.0000002E-01;470;  0.0000000E+00;  0.0000000E+00;  0.0000000E+00;  1.0000000E+01;  4.0000001E-01;  0.0000000E+00;3;  0.0000000E+00;  0.0000000E+00;  0.0000000E+00;  0.0000000E+00;  0.0000000E+00;  0.0000000E+00;0;  0.0000000E+00;  1.0000000E+02;  0.0000000E+00;  0.0000000E+00;  1.0000000E+02;  0.0000000E+00;  1.0000000E+02;  0.0000000E+00;  0.0000000E+00;  0.0000000E+00;  0.0000000E+00;
  5.4000001E+00;  9.9999998E-03;  8.0000001E-01;471;  0.0000000E+00;  0.0000000E+00;  0.0000000E+00;  1.0000000E+01;  4.0000001E-01;  0.0000000E+00;3;  0.0000000E+00;  0.0000000E+00;  0.0000000E+00;  0.0000000E+00;  0.0000000E+00;  0.0000000E+00;0;  0.0000000E+00;  1.0000000E+02;  0.0000000E+00;  0.0000000E+00;  1.0000000E+02;  0.0000000E+00;  1.0000000E+02;  0.0000000E+00;  0.0000000E+00;  0.0000000E+00;  0.0000000E+00;
  5.4000001E+00;  9.9999998E-03;  1.0000000E+00;472;  0.0000000E+00;  0.0000000E+00;  0.0000000E+00;  1.0000000E+01;  4.0000001E-01;  0.0000000E+00;3;  0.0000000E+00;  0.0000000E+00;  0.0000000E+00;  0.0000000E+00;  0.0000000E+00;  0.0000000E+00;0;  0.0000000E+00;  1.0000000E+02;  0.0000000E+00;  0.0000000E+00;  1.0000000E+02;  0.0000000E+00;  1.0000000E+02;  0.0000000E+00;  0.0000000E+00;  0.0000000E+00;  0.0000000E+00;
  5.5999999E+00;  9.9999998E-03;  0.0000000E+00;477;  0.0000000E+00;  0.0000000E+00;  0.0000000E+00;  1.0000000E+01;  4.0000001E-01;  0.0000000E+00;3;  0.0000000E+00;  0.0000000E+00;  0.0000000E+00;  0.0000000E+00;  0.0000000E+00;  0.0000000E+00;0;  0.0000000E+00;  1.0000000E+02;  0.0000000E+00;  0.0000000E+00;  1.0000000E+02;  0.0000000E+00;  1.0000000E+02;  0.0000000E+00;  0.0000000E+00;  0.0000000E+00;  0.0000000E+00;
  5.5999999E+00;  9.9999998E-03;  2.0000000E-01;478;  0.0000000E+00;  0.0000000E+00;  0.0000000E+00;  1.0000000E+01;  4.0000001E-01;  0.0000000E+00;3;  0.0000000E+00;  0.0000000E+00;  0.0000000E+00;  0.0000000E+00;  0.0000000E+00;  0.0000000E+00;0;  0.0000000E+00;  1.0000000E+02;  0.0000000E+00;  0.0000000E+00;  1.0000000E+02;  0.0000000E+00;  1.0000000E+02;  0.0000000E+00;  0.0000000E+00;  0.0000000E+00;  0.0000000E+00;
  5.5999999E+00;  9.9999998E-03;  4.0000001E-01;479;  0.0000000E+00;  0.0000000E+00;  0.0000000E+00;  1.0000000E+01;  4.0000001E-01;  0.0000000E+00;3;  0.0000000E+00;  0.0000000E+00;  0.0000000E+00;  0.0000000E+00;  0.0000000E+00;  0.0000000E+00;0;  0.0000000E+00;  1.0000000E+02;  0.0000000E+00;  0.0000000E+00;  1.0000000E+02;  0.0000000E+00;  1.0000000E+02;  0.0000000E+00;  0.0000000E+00;  0.0000000E+00;  0.0000000E+00;
  5.5999999E+00;  9.9999998E-03;  6.0000002E-01;480;  0.0000000E+00;  0.0000000E+00;  0.0000000E+00;  1.0000000E+01;  4.0000001E-01;  0.0000000E+00;3;  0.0000000E+00;  0.0000000E+00;  0.0000000E+00;  0.0000000E+00;  0.0000000E+00;  0.0000000E+00;0;  0.0000000E+00;  1.0000000E+02;  0.0000000E+00;  0.0000000E+00;  1.0000000E+02;  0.0000000E+00;  1.0000000E+02;  0.0000000E+00;  0.0000000E+00;  0.0000000E+00;  0.0000000E+00;
  5.5999999E+00;  9.9999998E-03;  8.0000001E-01;481;  0.0000000E+00;  0.0000000E+00;  0.0000000E+00;  1.0000000E+01;  4.0000001E-01;  0.0000000E+00;3;  0.0000000E+00;  0.0000000E+00;  0.0000000E+00;  0.0000000E+00;  0.0000000E+00;  0.0000000E+00;0;  0.0000000E+00;  1.0000000E+02;  0.0000000E+00;  0.0000000E+00;  1.0000000E+02;  0.0000000E+00;  1.0000000E+02;  0.0000000E+00;  0.0000000E+00;  0.0000000E+00;  0.0000000E+00;
  5.8000002E+00;  9.9999998E-03;  0.0000000E+00;485;  0.0000000E+00;  0.0000000E+00;  0.0000000E+00;  1.0000000E+01;  4.0000001E-01;  0.0000000E+00;3;  0.0000000E+00;  0.0000000E+00;  0.0000000E+00;  0.0000000E+00;  0.0000000E+00;  0.0000000E+00;0;  0.0000000E+00;  1.0000000E+02;  0.0000000E+00;  0.0000000E+00;  1.0000000E+02;  0.0000000E+00;  1.0000000E+02;  0.0000000E+00;  0.0000000E+00;  0.0000000E+00;  0.0000000E+00;
  5.8000002E+00;  9.9999998E-03;  2.0000000E-01;486;  0.0000000E+00;  0.0000000E+00;  0.0000000E+00;  1.0000000E+01;  4.0000001E-01;  0.0000000E+00;3;  0.0000000E+00;  0.0000000E+00;  0.0000000E+00;  0.0000000E+00;  0.0000000E+00;  0.0000000E+00;0;  0.0000000E+00;  1.0000000E+02;  0.0000000E+00;  0.0000000E+00;  1.0000000E+02;  0.0000000E+00;  1.0000000E+02;  0.0000000E+00;  0.0000000E+00;  0.0000000E+00;  0.0000000E+00;
  5.8000002E+00;  9.9999998E-03;  4.0000001E-01;487;  0.0000000E+00;  0.0000000E+00;  0.0000000E+00;  1.0000000E+01;  4.0000001E-01;  0.0000000E+00;3;  0.0000000E+00;  0.0000000E+00;  0.0000000E+00;  0.0000000E+00;  0.0000000E+00;  0.0000000E+00;0;  0.0000000E+00;  1.0000000E+02;  0.0000000E+00;  0.0000000E+00;  1.0000000E+02;  0.0000000E+00;  1.0000000E+02;  0.0000000E+00;  0.0000000E+00;  0.0000000E+00;  0.0000000E+00;
  5.8000002E+00;  9.9999998E-03;  6.0000002E-01;488;  0.0000000E+00;  0.0000000E+00;  0.0000000E+00;  1.0000000E+01;  4.0000001E-01;  0.0000000E+00;3;  0.0000000E+00;  0.0000000E+00;  0.0000000E+00;  0.0000000E+00;  0.0000000E+00;  0.0000000E+00;0;  0.0000000E+00;  1.0000000E+02;  0.0000000E+00;  0.0000000E+00;  1.0000000E+02;  0.0000000E+00;  1.0000000E+02;  0.0000000E+00;  0.0000000E+00;  0.0000000E+00;  0.0000000E+00;
  6.0000000E+00;  9.9999998E-03;  0.0000000E+00;491;  0.0000000E+00;  0.0000000E+00;  0.0000000E+00;  1.0000000E+01;  4.0000001E-01;  0.0000000E+00;3;  0.0000000E+00;  0.0000000E+00;  0.0000000E+00;  0.0000000E+00;  0.0000000E+00;  0.0000000E+00;0;  0.0000000E+00;  1.0000000E+02;  0.0000000E+00;  0.0000000E+00;  1.0000000E+02;  0.0000000E+00;  1.0000000E+02;  0.0000000E+00;  0.0000000E+00;  0.0000000E+00;  0.0000000E+00;
  6.0000000E+00;  9.9999998E-03;  2.0000000E-01;492;  0.0000000E+00;  0.0000000E+00;  0.0000000E+00;  1.0000000E+01;  4.0000001E-01;  0.0000000E+00;3;  0.0000000E+00;  0.0000000E+00;  0.0000000E+00;  0.0000000E+00;  0.0000000E+00;  0.0000000E+00;0;  0.0000000E+00;  1.0000000E+02;  0.0000000E+00;  0.0000000E+00;  1.0000000E+02;  0.0000000E+00;  1.0000000E+02;  0.0000000E+00;  0.0000000E+00;  0.0000000E+00;  0.0000000E+00;
  6.0000000E+00;  9.9999998E-03;  4.0000001E-01;493;  0.0000000E+00;  0.0000000E+00;  0.0000000E+00;  1.0000000E+01;  4.0000001E-01;  0.0000000E+00;3;  0.0000000E+00;  0.0000000E+00;  0.0000000E+00;  0.0000000E+00;  0.0000000E+00;  0.0000000E+00;0;  0.0000000E+00;  1.0000000E+02;  0.0000000E+00;  0.0000000E+00;  1.0000000E+02;  0.0000000E+00;  1.0000000E+02;  0.0000000E+00;  0.0000000E+00;  0.0000000E+00;  0.0000000E+00;
