TimeStep;Np;Nbound;Nfixed;Nmoving;Nfloat;Nfluid
4.00068;504;165;165;0;0;339

Pos.x;Pos.y;Pos.z;Idp;Vel.x;Vel.y;Vel.z;Rhop;Mass;Press;Type;Acec.x;Acec.y;Acec.z;AceVisc.x;AceVisc.y;AceVisc.z;CellOffSpring;GradVel;Qfxx;Qfxy;Qfxz;Qfyy;Qfyz;Qfzz;StrainDot.x;StrainDot.y;StrainDot.z;VonMises3D;
 -1.0000000E+00;  9.9999998E-03; -2.0000000E+00;0;  0.0000000E+00;  0.0000000E+00;  0.0000000E+00;  1.0000000E+01;  4.0000001E-01;  0.0000000E+00;0;  0.0000000E+00;  0.0000000E+00;  0.0000000E+00;  0.0000000E+00;  0.0000000E+00;  0.0000000E+00;0; -1.6165822E-07;  1.0000000E+02;  0.0000000E+00;  0.0000000E+00;  1.0000000E+02;  0.0000000E+00;  1.0000000E+02;  2.6194989E-08;  0.0000000E+00; -1.8785322E-07;  0.0000000E+00;
 -8.0000001E-01;  9.9999998E-03; -2.0000000E+00;21;  0.0000000E+00;  0.0000000E+00;  0.0000000E+00;  1.0000000E+01;  4.0000001E-01;  0.0000000E+00;0;  0.0000000E+00;  0.0000000E+00;  0.0000000E+00;  0.0000000E+00;  0.0000000E+00;  0.0000000E+00;0; -2.4770179E-07;  1.0000000E+02;  0.0000000E+00;  0.0000000E+00;  1.0000000E+02;  0.0000000E+00;  1.0000000E+02;  1.4027968E-07;  0.0000000E+00; -3.8798149E-07;  0.0000000E+00;
 -6.0000002E-01;  9.9999998E-03; -2.0000000E+00;42;  0.0000000E+00;  0.0000000E+00;  0.0000000E+00;  1.0000000E+01;  4.0000001E-01;  0.0000000E+00;0;  0.0000000E+00;  0.0000000E+00;  0.0000000E+00;  0.0000000E+00;  0.0000000E+00;  0.0000000E+00;0;  2.4783816E-08;  1.0000000E+02;  0.0000000E+00;  0.0000000E+00;  1.0000000E+02;  0.0000000E+00;  1.0000000E+02;  3.9574428E-07;  0.0000000E+00; -3.7096046E-07;  0.0000000E+00;
 -4.0000001E-01;  9.9999998E-03; -2.0000000E+00;63;  0.0000000E+00;  0.0000000E+00;  0.0000000E+00;  1.0000092E+01;  4.0000001E-01;  9.8762559E-03;0;  0.0000000E+00;  0.0000000E+00;  0.0000000E+00;  0.0000000E+00;  0.0000000E+00;  0.0000000E+00;0;  1.2411004E-06;  1.0000000E+02;  0.0000000E+00;  0.0000000E+00;  1.0000000E+02;  0.0000000E+00;  1.0000000E+02;  9.0310829E-07;  0.0000000E+00;  3.3799216E-07;  0.0000000E+00;
 -2.0000000E-01;  9.9999998E-03; -2.0000000E+00;84;  0.0000000E+00;  0.0000000E+00;  0.0000000E+00;  1.0000140E+01;  4.0000001E-01;  1.5135032E-02;0;  0.0000000E+00;  0.0000000E+00;  0.0000000E+00;  0.0000000E+00;  0.0000000E+00;  0.0000000E+00;0;  5.1408879E-06;  1.0000000E+02;  0.0000000E+00;  0.0000000E+00;  1.0000000E+02;  0.0000000E+00;  1.0000000E+02;  3.0358217E-06;  0.0000000E+00;  2.1050662E-06;  0.0000000E+00;
  0.0000000E+00;  9.9999998E-03; -2.0000000E+00;105;  0.0000000E+00;  0.0000000E+00;  0.0000000E+00;  1.0000150E+01;  4.0000001E-01;  1.6161108E-02;0;  0.0000000E+00;  0.0000000E+00;  0.0000000E+00;  0.0000000E+00;  0.0000000E+00;  0.0000000E+00;0;  1.5960655E-05;  1.0000000E+02;  0.0000000E+00;  0.0000000E+00;  1.0000000E+02;  0.0000000E+00;  1.0000000E+02;  1.1324836E-05;  0.0000000E+00;  4.6358196E-06;  0.0000000E+00;
  2.0000000E-01;  9.9999998E-03; -2.0000000E+00;115;  0.0000000E+00;  0.0000000E+00;  0.0000000E+00;  1.0000000E+01;  4.0000001E-01;  0.0000000E+00;0;  0.0000000E+00;  0.0000000E+00;  0.0000000E+00;  0.0000000E+00;  0.0000000E+00;  0.0000000E+00;0;  4.0194853E-05;  1.0000000E+02;  0.0000000E+00;  0.0000000E+00;  1.0000000E+02;  0.0000000E+00;  1.0000000E+02;  3.3561671E-05;  0.0000000E+00;  6.6331804E-06;  0.0000000E+00;
  4.0000001E-01;  9.9999998E-03; -2.0000000E+00;125;  0.0000000E+00;  0.0000000E+00;  0.0000000E+00;  1.0000000E+01;  4.0000001E-01;  0.0000000E+00;0;  0.0000000E+00;  0.0000000E+00;  0.0000000E+00;  0.0000000E+00;  0.0000000E+00;  0.0000000E+00;0;  8.8382192E-05;  1.0000000E+02;  0.0000000E+00;  0.0000000E+00;  1.0000000E+02;  0.0000000E+00;  1.0000000E+02;  8.2023362E-05;  0.0000000E+00;  6.3588336E-06;  0.0000000E+00;
  6.0000002E-01;  9.9999998E-03; -2.0000000E+00;135;  0.0000000E+00;  0.0000000E+00;  0.0000000E+00;  1.0000000E+01;  4.0000001E-01;  0.0000000E+00;0;  0.0000000E+00;  0.0000000E+00;  0.0000000E+00;  0.0000000E+00;  0.0000000E+00;  0.0000000E+00;0;  1.7375375E-04;  1.0000000E+02;  0.0000000E+00;  0.0000000E+00;  1.0000000E+02;  0.0000000E+00;  1.0000000E+02;  1.7135944E-04;  0.0000000E+00;  2.3943117E-06;  0.0000000E+00;
  8.0000001E-01;  9.9999998E-03; -2.0000000E+00;145;  0.0000000E+00;  0.0000000E+00;  0.0000000E+00;  1.0000000E+01;  4.0000001E-01;  0.0000000E+00;0;  0.0000000E+00;  0.0000000E+00;  0.0000000E+00;  0.0000000E+00;  0.0000000E+00;  0.0000000E+00;0;  2.9970700E-04;  1.0000000E+02;  0.0000000E+00;  0.0000000E+00;  1.0000000E+02;  0.0000000E+00;  1.0000000E+02;  3.0614581E-04;  0.0000000E+00; -6.4388009E-06;  0.0000000E+00;
  1.0000000E+00;  9.9999998E-03; -2.0000000E+00;155;  0.0000000E+00;  0.0000000E+00;  0.0000000E+00;  1.0000000E+01;  4.0000001E-01;  0.0000000E+00;0;  0.0000000E+00;  0.0000000E+00;  0.0000000E+00;  0.0000000E+00;  0.0000000E+00;  0.0000000E+00;0;  4.3307745E-04;  1.0000000E+02;  0.0000000E+00;  0.0000000E+00;  1.0000000E+02;  0.0000000E+00;  1.0000000E+02;  4.5467541E-04;  0.0000000E+00; -2.1597956E-05;  0.0000000E+00;
 -1.0000000E+00;  9.9999998E-03; -1.8000000E+00;1;  0.0000000E+00;  0.0000000E+00;  0.0000000E+00;  1.0000000E+01;  4.0000001E-01;  0.0000000E+00;0;  0.0000000E+00;  0.0000000E+00;  0.0000000E+00;  0.0000000E+00;  0.0000000E+00;  0.0000000E+00;0; -2.9989866E-07;  1.0000000E+02;  0.0000000E+00;  0.0000000E+00;  1.0000000E+02;  0.0000000E+00;  1.0000000E+02;  1.8467567E-07;  0.0000000E+00; -4.8457434E-07;  0.0000000E+00;
 -1.0000000E+00;  9.9999998E-03; -1.6000000E+00;2;  0.0000000E+00;  0.0000000E+00;  0.0000000E+00;  1.0000038E+01;  4.0000001E-01;  4.1044205E-03;0;  0.0000000E+00;  0.0000000E+00;  0.0000000E+00;  0.0000000E+00;  0.0000000E+00;  0.0000000E+00;0; -7.6085541E-08;  1.0000000E+02;  0.0000000E+00;  0.0000000E+00;  1.0000000E+02;  0.0000000E+00;  1.0000000E+02;  6.9094119E-07;  0.0000000E+00; -7.6702673E-07;  0.0000000E+00;
 -1.0000000E+00;  9.9999998E-03; -1.4000000E+00;3;  0.0000000E+00;  0.0000000E+00;  0.0000000E+00;  1.0000267E+01;  4.0000001E-01;  2.8730944E-02;0;  0.0000000E+00;  0.0000000E+00;  0.0000000E+00;  0.0000000E+00;  0.0000000E+00;  0.0000000E+00;0;  9.8179260E-07;  1.0000000E+02;  0.0000000E+00;  0.0000000E+00;  1.0000000E+02;  0.0000000E+00;  1.0000000E+02;  1.8923479E-06;  0.0000000E+00; -9.1055529E-07;  0.0000000E+00;
 -1.0000000E+00;  9.9999998E-03; -1.2000000E+00;4;  0.0000000E+00;  0.0000000E+00;  0.0000000E+00;  1.0000500E+01;  4.0000001E-01;  5.3742256E-02;0;  0.0000000E+00;  0.0000000E+00;  0.0000000E+00;  0.0000000E+00;  0.0000000E+00;  0.0000000E+00;0;  3.4012373E-06;  1.0000000E+02;  0.0000000E+00;  0.0000000E+00;  1.0000000E+02;  0.0000000E+00;  1.0000000E+02;  4.2623237E-06;  0.0000000E+00; -8.6108633E-07;  0.0000000E+00;
 -1.0000000E+00;  9.9999998E-03; -1.0000000E+00;5;  0.0000000E+00;  0.0000000E+00;  0.0000000E+00;  1.0000754E+01;  4.0000001E-01;  8.1190571E-02;0;  0.0000000E+00;  0.0000000E+00;  0.0000000E+00;  0.0000000E+00;  0.0000000E+00;  0.0000000E+00;0;  7.6010897E-06;  1.0000000E+02;  0.0000000E+00;  0.0000000E+00;  1.0000000E+02;  0.0000000E+00;  1.0000000E+02;  8.2099386E-06;  0.0000000E+00; -6.0884878E-07;  0.0000000E+00;
 -1.0000000E+00;  9.9999998E-03; -8.0000001E-01;6;  0.0000000E+00;  0.0000000E+00;  0.0000000E+00;  1.0001022E+01;  4.0000001E-01;  1.1004978E-01;0;  0.0000000E+00;  0.0000000E+00;  0.0000000E+00;  0.0000000E+00;  0.0000000E+00;  0.0000000E+00;0;  1.3609916E-05;  1.0000000E+02;  0.0000000E+00;  0.0000000E+00;  1.0000000E+02;  0.0000000E+00;  1.0000000E+02;  1.3790626E-05;  0.0000000E+00; -1.8070985E-07;  0.0000000E+00;
 -1.0000000E+00;  9.9999998E-03; -6.0000002E-01;7;  0.0000000E+00;  0.0000000E+00;  0.0000000E+00;  1.0001216E+01;  4.0000001E-01;  1.3082841E-01;0;  0.0000000E+00;  0.0000000E+00;  0.0000000E+00;  0.0000000E+00;  0.0000000E+00;  0.0000000E+00;0;  2.0779395E-05;  1.0000000E+02;  0.0000000E+00;  0.0000000E+00;  1.0000000E+02;  0.0000000E+00;  1.0000000E+02;  2.0441285E-05;  0.0000000E+00;  3.3811014E-07;  0.0000000E+00;
 -1.0000000E+00;  9.9999998E-03; -4.0000001E-01;8;  0.0000000E+00;  0.0000000E+00;  0.0000000E+00;  1.0000930E+01;  4.0000001E-01;  1.0004525E-01;0;  0.0000000E+00;  0.0000000E+00;  0.0000000E+00;  0.0000000E+00;  0.0000000E+00;  0.0000000E+00;0;  2.7766397E-05;  1.0000000E+02;  0.0000000E+00;  0.0000000E+00;  1.0000000E+02;  0.0000000E+00;  1.0000000E+02;  2.6950536E-05;  0.0000000E+00;  8.1586006E-07;  0.0000000E+00;
 -1.0000000E+00;  9.9999998E-03; -2.0000000E-01;9;  0.0000000E+00;  0.0000000E+00;  0.0000000E+00;  1.0000957E+01;  4.0000001E-01;  1.0299531E-01;0;  0.0000000E+00;  0.0000000E+00;  0.0000000E+00;  0.0000000E+00;  0.0000000E+00;  0.0000000E+00;0;  3.2907727E-05;  1.0000000E+02;  0.0000000E+00;  0.0000000E+00;  1.0000000E+02;  0.0000000E+00;  1.0000000E+02;  3.1768661E-05;  0.0000000E+00;  1.1390641E-06;  0.0000000E+00;
 -8.0000001E-01;  9.9999998E-03; -1.8000000E+00;22;  0.0000000E+00;  0.0000000E+00;  0.0000000E+00;  1.0000087E+01;  4.0000001E-01;  9.3632080E-03;0;  0.0000000E+00;  0.0000000E+00;  0.0000000E+00;  0.0000000E+00;  0.0000000E+00;  0.0000000E+00;0; -1.3144000E-07;  1.0000000E+02;  0.0000000E+00;  0.0000000E+00;  1.0000000E+02;  0.0000000E+00;  1.0000000E+02;  6.4738492E-07;  0.0000000E+00; -7.7882493E-07;  0.0000000E+00;
 -8.0000001E-01;  9.9999998E-03; -1.6000000E+00;23;  0.0000000E+00;  0.0000000E+00;  0.0000000E+00;  1.0000361E+01;  4.0000001E-01;  3.8863726E-02;0;  0.0000000E+00;  0.0000000E+00;  0.0000000E+00;  0.0000000E+00;  0.0000000E+00;  0.0000000E+00;0;  8.2241718E-07;  1.0000000E+02;  0.0000000E+00;  0.0000000E+00;  1.0000000E+02;  0.0000000E+00;  1.0000000E+02;  1.8835422E-06;  0.0000000E+00; -1.0611250E-06;  0.0000000E+00;
 -8.0000001E-01;  9.9999998E-03; -1.4000000E+00;24;  0.0000000E+00;  0.0000000E+00;  0.0000000E+00;  1.0000714E+01;  4.0000001E-01;  7.6829612E-02;0;  0.0000000E+00;  0.0000000E+00;  0.0000000E+00;  0.0000000E+00;  0.0000000E+00;  0.0000000E+00;0;  3.2734631E-06;  1.0000000E+02;  0.0000000E+00;  0.0000000E+00;  1.0000000E+02;  0.0000000E+00;  1.0000000E+02;  4.4296553E-06;  0.0000000E+00; -1.1561922E-06;  0.0000000E+00;
 -8.0000001E-01;  9.9999998E-03; -1.2000000E+00;25;  0.0000000E+00;  0.0000000E+00;  0.0000000E+00;  1.0001216E+01;  4.0000001E-01;  1.3082840E-01;0;  0.0000000E+00;  0.0000000E+00;  0.0000000E+00;  0.0000000E+00;  0.0000000E+00;  0.0000000E+00;0;  8.0093796E-06;  1.0000000E+02;  0.0000000E+00;  0.0000000E+00;  1.0000000E+02;  0.0000000E+00;  1.0000000E+02;  9.0830872E-06;  0.0000000E+00; -1.0737075E-06;  0.0000000E+00;
 -8.0000001E-01;  9.9999998E-03; -1.0000000E+00;26;  0.0000000E+00;  0.0000000E+00;  0.0000000E+00;  1.0001770E+01;  4.0000001E-01;  1.9047074E-01;0;  0.0000000E+00;  0.0000000E+00;  0.0000000E+00;  0.0000000E+00;  0.0000000E+00;  0.0000000E+00;0;  1.5676449E-05;  1.0000000E+02;  0.0000000E+00;  0.0000000E+00;  1.0000000E+02;  0.0000000E+00;  1.0000000E+02;  1.6475478E-05;  0.0000000E+00; -7.9902890E-07;  0.0000000E+00;
 -8.0000001E-01;  9.9999998E-03; -8.0000001E-01;27;  0.0000000E+00;  0.0000000E+00;  0.0000000E+00;  1.0001918E+01;  4.0000001E-01;  2.0637538E-01;0;  0.0000000E+00;  0.0000000E+00;  0.0000000E+00;  0.0000000E+00;  0.0000000E+00;  0.0000000E+00;0;  2.6350113E-05;  1.0000000E+02;  0.0000000E+00;  0.0000000E+00;  1.0000000E+02;  0.0000000E+00;  1.0000000E+02;  2.6665188E-05;  0.0000000E+00; -3.1507525E-07;  0.0000000E+00;
 -8.0000001E-01;  9.9999998E-03; -6.0000002E-01;28;  0.0000000E+00;  0.0000000E+00;  0.0000000E+00;  1.0002254E+01;  4.0000001E-01;  2.4254557E-01;0;  0.0000000E+00;  0.0000000E+00;  0.0000000E+00;  0.0000000E+00;  0.0000000E+00;  0.0000000E+00;0;  3.9044455E-05;  1.0000000E+02;  0.0000000E+00;  0.0000000E+00;  1.0000000E+02;  0.0000000E+00;  1.0000000E+02;  3.8695343E-05;  0.0000000E+00;  3.4911253E-07;  0.0000000E+00;
 -8.0000001E-01;  9.9999998E-03; -4.0000001E-01;29;  0.0000000E+00;  0.0000000E+00;  0.0000000E+00;  1.0002481E+01;  4.0000001E-01;  2.6704383E-01;0;  0.0000000E+00;  0.0000000E+00;  0.0000000E+00;  0.0000000E+00;  0.0000000E+00;  0.0000000E+00;0;  5.1528921E-05;  1.0000000E+02;  0.0000000E+00;  0.0000000E+00;  1.0000000E+02;  0.0000000E+00;  1.0000000E+02;  5.0446459E-05;  0.0000000E+00;  1.0824633E-06;  0.0000000E+00;
 -8.0000001E-01;  9.9999998E-03; -2.0000000E-01;30;  0.0000000E+00;  0.0000000E+00;  0.0000000E+00;  1.0002531E+01;  4.0000001E-01;  2.7230263E-01;0;  0.0000000E+00;  0.0000000E+00;  0.0000000E+00;  0.0000000E+00;  0.0000000E+00;  0.0000000E+00;0;  6.0799950E-05;  1.0000000E+02;  0.0000000E+00;  0.0000000E+00;  1.0000000E+02;  0.0000000E+00;  1.0000000E+02;  5.9112030E-05;  0.0000000E+00;  1.6879197E-06;  0.0000000E+00;
 -6.0000002E-01;  9.9999998E-03; -1.8000000E+00;43;  0.0000000E+00;  0.0000000E+00;  0.0000000E+00;  1.0000278E+01;  4.0000001E-01;  3.0013569E-02;0;  0.0000000E+00;  0.0000000E+00;  0.0000000E+00;  0.0000000E+00;  0.0000000E+00;  0.0000000E+00;0;  8.5313752E-07;  1.0000000E+02;  0.0000000E+00;  0.0000000E+00;  1.0000000E+02;  0.0000000E+00;  1.0000000E+02;  1.3405074E-06;  0.0000000E+00; -4.8736990E-07;  0.0000000E+00;
 -6.0000002E-01;  9.9999998E-03; -1.6000000E+00;44;  0.0000000E+00;  0.0000000E+00;  0.0000000E+00;  1.0000634E+01;  4.0000001E-01;  6.8235978E-02;0;  0.0000000E+00;  0.0000000E+00;  0.0000000E+00;  0.0000000E+00;  0.0000000E+00;  0.0000000E+00;0;  3.0153030E-06;  1.0000000E+02;  0.0000000E+00;  0.0000000E+00;  1.0000000E+02;  0.0000000E+00;  1.0000000E+02;  3.5297212E-06;  0.0000000E+00; -5.1441816E-07;  0.0000000E+00;
 -6.0000002E-01;  9.9999998E-03; -1.4000000E+00;45;  0.0000000E+00;  0.0000000E+00;  0.0000000E+00;  1.0001203E+01;  4.0000001E-01;  1.2941748E-01;0;  0.0000000E+00;  0.0000000E+00;  0.0000000E+00;  0.0000000E+00;  0.0000000E+00;  0.0000000E+00;0;  7.0293445E-06;  1.0000000E+02;  0.0000000E+00;  0.0000000E+00;  1.0000000E+02;  0.0000000E+00;  1.0000000E+02;  7.5943722E-06;  0.0000000E+00; -5.6502745E-07;  0.0000000E+00;
 -6.0000002E-01;  9.9999998E-03; -1.2000000E+00;46;  0.0000000E+00;  0.0000000E+00;  0.0000000E+00;  1.0001933E+01;  4.0000001E-01;  2.0804277E-01;0;  0.0000000E+00;  0.0000000E+00;  0.0000000E+00;  0.0000000E+00;  0.0000000E+00;  0.0000000E+00;0;  1.3676509E-05;  1.0000000E+02;  0.0000000E+00;  0.0000000E+00;  1.0000000E+02;  0.0000000E+00;  1.0000000E+02;  1.4332282E-05;  0.0000000E+00; -6.5577336E-07;  0.0000000E+00;
 -6.0000002E-01;  9.9999998E-03; -1.0000000E+00;47;  0.0000000E+00;  0.0000000E+00;  0.0000000E+00;  1.0002494E+01;  4.0000001E-01;  2.6832643E-01;0;  0.0000000E+00;  0.0000000E+00;  0.0000000E+00;  0.0000000E+00;  0.0000000E+00;  0.0000000E+00;0;  2.3596647E-05;  1.0000000E+02;  0.0000000E+00;  0.0000000E+00;  1.0000000E+02;  0.0000000E+00;  1.0000000E+02;  2.4272822E-05;  0.0000000E+00; -6.7617418E-07;  0.0000000E+00;
 -6.0000002E-01;  9.9999998E-03; -8.0000001E-01;48;  0.0000000E+00;  0.0000000E+00;  0.0000000E+00;  1.0003142E+01;  4.0000001E-01;  3.3810157E-01;0;  0.0000000E+00;  0.0000000E+00;  0.0000000E+00;  0.0000000E+00;  0.0000000E+00;  0.0000000E+00;0;  3.6877977E-05;  1.0000000E+02;  0.0000000E+00;  0.0000000E+00;  1.0000000E+02;  0.0000000E+00;  1.0000000E+02;  3.7367237E-05;  0.0000000E+00; -4.8926069E-07;  0.0000000E+00;
 -6.0000002E-01;  9.9999998E-03; -6.0000002E-01;49;  0.0000000E+00;  0.0000000E+00;  0.0000000E+00;  1.0003769E+01;  4.0000001E-01;  4.0556797E-01;0;  0.0000000E+00;  0.0000000E+00;  0.0000000E+00;  0.0000000E+00;  0.0000000E+00;  0.0000000E+00;0;  5.2639509E-05;  1.0000000E+02;  0.0000000E+00;  0.0000000E+00;  1.0000000E+02;  0.0000000E+00;  1.0000000E+02;  5.2654330E-05;  0.0000000E+00; -1.4821267E-08;  0.0000000E+00;
 -6.0000002E-01;  9.9999998E-03; -4.0000001E-01;50;  0.0000000E+00;  0.0000000E+00;  0.0000000E+00;  1.0003800E+01;  4.0000001E-01;  4.0890279E-01;0;  0.0000000E+00;  0.0000000E+00;  0.0000000E+00;  0.0000000E+00;  0.0000000E+00;  0.0000000E+00;0;  6.8483008E-05;  1.0000000E+02;  0.0000000E+00;  0.0000000E+00;  1.0000000E+02;  0.0000000E+00;  1.0000000E+02;  6.7784138E-05;  0.0000000E+00;  6.9886784E-07;  0.0000000E+00;
 -6.0000002E-01;  9.9999998E-03; -2.0000000E-01;51;  0.0000000E+00;  0.0000000E+00;  0.0000000E+00;  1.0004000E+01;  4.0000001E-01;  4.3032274E-01;0;  0.0000000E+00;  0.0000000E+00;  0.0000000E+00;  0.0000000E+00;  0.0000000E+00;  0.0000000E+00;0;  8.0576014E-05;  1.0000000E+02;  0.0000000E+00;  0.0000000E+00;  1.0000000E+02;  0.0000000E+00;  1.0000000E+02;  7.9171281E-05;  0.0000000E+00;  1.4047298E-06;  0.0000000E+00;
 -4.0000001E-01;  9.9999998E-03; -1.8000000E+00;64;  0.0000000E+00;  0.0000000E+00;  0.0000000E+00;  1.0000381E+01;  4.0000001E-01;  4.0915918E-02;0;  0.0000000E+00;  0.0000000E+00;  0.0000000E+00;  0.0000000E+00;  0.0000000E+00;  0.0000000E+00;0;  4.0667187E-06;  1.0000000E+02;  0.0000000E+00;  0.0000000E+00;  1.0000000E+02;  0.0000000E+00;  1.0000000E+02;  2.9994681E-06;  0.0000000E+00;  1.0672507E-06;  0.0000000E+00;
 -4.0000001E-01;  9.9999998E-03; -1.6000000E+00;65;  0.0000000E+00;  0.0000000E+00;  0.0000000E+00;  1.0000803E+01;  4.0000001E-01;  8.6449310E-02;0;  0.0000000E+00;  0.0000000E+00;  0.0000000E+00;  0.0000000E+00;  0.0000000E+00;  0.0000000E+00;0;  9.2449127E-06;  1.0000000E+02;  0.0000000E+00;  0.0000000E+00;  1.0000000E+02;  0.0000000E+00;  1.0000000E+02;  7.6537217E-06;  0.0000000E+00;  1.5911910E-06;  0.0000000E+00;
 -4.0000001E-01;  9.9999998E-03; -1.4000000E+00;66;  0.0000000E+00;  0.0000000E+00;  0.0000000E+00;  1.0001434E+01;  4.0000001E-01;  1.5430047E-01;0;  0.0000000E+00;  0.0000000E+00;  0.0000000E+00;  0.0000000E+00;  0.0000000E+00;  0.0000000E+00;0;  1.6710617E-05;  1.0000000E+02;  0.0000000E+00;  0.0000000E+00;  1.0000000E+02;  0.0000000E+00;  1.0000000E+02;  1.5246861E-05;  0.0000000E+00;  1.4637557E-06;  0.0000000E+00;
 -4.0000001E-01;  9.9999998E-03; -1.2000000E+00;67;  0.0000000E+00;  0.0000000E+00;  0.0000000E+00;  1.0001898E+01;  4.0000001E-01;  2.0419480E-01;0;  0.0000000E+00;  0.0000000E+00;  0.0000000E+00;  0.0000000E+00;  0.0000000E+00;  0.0000000E+00;0;  2.6089228E-05;  1.0000000E+02;  0.0000000E+00;  0.0000000E+00;  1.0000000E+02;  0.0000000E+00;  1.0000000E+02;  2.5292919E-05;  0.0000000E+00;  7.9631019E-07;  0.0000000E+00;
 -4.0000001E-01;  9.9999998E-03; -1.0000000E+00;68;  0.0000000E+00;  0.0000000E+00;  0.0000000E+00;  1.0002842E+01;  4.0000001E-01;  3.0577916E-01;0;  0.0000000E+00;  0.0000000E+00;  0.0000000E+00;  0.0000000E+00;  0.0000000E+00;  0.0000000E+00;0;  3.6874670E-05;  1.0000000E+02;  0.0000000E+00;  0.0000000E+00;  1.0000000E+02;  0.0000000E+00;  1.0000000E+02;  3.6913665E-05;  0.0000000E+00; -3.8994962E-08;  0.0000000E+00;
 -4.0000001E-01;  9.9999998E-03; -8.0000001E-01;69;  0.0000000E+00;  0.0000000E+00;  0.0000000E+00;  1.0003839E+01;  4.0000001E-01;  4.1300708E-01;0;  0.0000000E+00;  0.0000000E+00;  0.0000000E+00;  0.0000000E+00;  0.0000000E+00;  0.0000000E+00;0;  4.8672337E-05;  1.0000000E+02;  0.0000000E+00;  0.0000000E+00;  1.0000000E+02;  0.0000000E+00;  1.0000000E+02;  4.9364651E-05;  0.0000000E+00; -6.9231493E-07;  0.0000000E+00;
 -4.0000001E-01;  9.9999998E-03; -6.0000002E-01;70;  0.0000000E+00;  0.0000000E+00;  0.0000000E+00;  1.0004530E+01;  4.0000001E-01;  4.8739967E-01;0;  0.0000000E+00;  0.0000000E+00;  0.0000000E+00;  0.0000000E+00;  0.0000000E+00;  0.0000000E+00;0;  6.1333689E-05;  1.0000000E+02;  0.0000000E+00;  0.0000000E+00;  1.0000000E+02;  0.0000000E+00;  1.0000000E+02;  6.2298772E-05;  0.0000000E+00; -9.6508461E-07;  0.0000000E+00;
 -4.0000001E-01;  9.9999998E-03; -4.0000001E-01;71;  0.0000000E+00;  0.0000000E+00;  0.0000000E+00;  1.0004885E+01;  4.0000001E-01;  5.2562207E-01;0;  0.0000000E+00;  0.0000000E+00;  0.0000000E+00;  0.0000000E+00;  0.0000000E+00;  0.0000000E+00;0;  7.4108189E-05;  1.0000000E+02;  0.0000000E+00;  0.0000000E+00;  1.0000000E+02;  0.0000000E+00;  1.0000000E+02;  7.4971744E-05;  0.0000000E+00; -8.6355465E-07;  0.0000000E+00;
 -4.0000001E-01;  9.9999998E-03; -2.0000000E-01;72;  0.0000000E+00;  0.0000000E+00;  0.0000000E+00;  1.0005244E+01;  4.0000001E-01;  5.6422925E-01;0;  0.0000000E+00;  0.0000000E+00;  0.0000000E+00;  0.0000000E+00;  0.0000000E+00;  0.0000000E+00;0;  8.4413383E-05;  1.0000000E+02;  0.0000000E+00;  0.0000000E+00;  1.0000000E+02;  0.0000000E+00;  1.0000000E+02;  8.5041349E-05;  0.0000000E+00; -6.2796539E-07;  0.0000000E+00;
 -2.0000000E-01;  9.9999998E-03; -1.8000000E+00;85;  0.0000000E+00;  0.0000000E+00;  0.0000000E+00;  1.0000424E+01;  4.0000001E-01;  4.5661621E-02;0;  0.0000000E+00;  0.0000000E+00;  0.0000000E+00;  0.0000000E+00;  0.0000000E+00;  0.0000000E+00;0;  1.4074083E-05;  1.0000000E+02;  0.0000000E+00;  0.0000000E+00;  1.0000000E+02;  0.0000000E+00;  1.0000000E+02;  9.8420642E-06;  0.0000000E+00;  4.2320194E-06;  0.0000000E+00;
 -2.0000000E-01;  9.9999998E-03; -1.6000000E+00;86;  0.0000000E+00;  0.0000000E+00;  0.0000000E+00;  1.0000227E+01;  4.0000001E-01;  2.4369966E-02;0;  0.0000000E+00;  0.0000000E+00;  0.0000000E+00;  0.0000000E+00;  0.0000000E+00;  0.0000000E+00;0;  2.7645954E-05;  1.0000000E+02;  0.0000000E+00;  0.0000000E+00;  1.0000000E+02;  0.0000000E+00;  1.0000000E+02;  2.2159353E-05;  0.0000000E+00;  5.4866009E-06;  0.0000000E+00;
 -2.0000000E-01;  9.9999998E-03; -1.4000000E+00;87;  0.0000000E+00;  0.0000000E+00;  0.0000000E+00;  1.0000671E+01;  4.0000001E-01;  7.2212055E-02;0;  0.0000000E+00;  0.0000000E+00;  0.0000000E+00;  0.0000000E+00;  0.0000000E+00;  0.0000000E+00;0;  4.4135337E-05;  1.0000000E+02;  0.0000000E+00;  0.0000000E+00;  1.0000000E+02;  0.0000000E+00;  1.0000000E+02;  3.8975337E-05;  0.0000000E+00;  5.1600000E-06;  0.0000000E+00;
 -2.0000000E-01;  9.9999998E-03; -1.2000000E+00;88;  0.0000000E+00;  0.0000000E+00;  0.0000000E+00;  1.0001245E+01;  4.0000001E-01;  1.3403481E-01;0;  0.0000000E+00;  0.0000000E+00;  0.0000000E+00;  0.0000000E+00;  0.0000000E+00;  0.0000000E+00;0;  6.0271195E-05;  1.0000000E+02;  0.0000000E+00;  0.0000000E+00;  1.0000000E+02;  0.0000000E+00;  1.0000000E+02;  5.6740631E-05;  0.0000000E+00;  3.5305654E-06;  0.0000000E+00;
 -2.0000000E-01;  9.9999998E-03; -1.0000000E+00;89;  0.0000000E+00;  0.0000000E+00;  0.0000000E+00;  1.0001940E+01;  4.0000001E-01;  2.0868388E-01;0;  0.0000000E+00;  0.0000000E+00;  0.0000000E+00;  0.0000000E+00;  0.0000000E+00;  0.0000000E+00;0;  7.2355149E-05;  1.0000000E+02;  0.0000000E+00;  0.0000000E+00;  1.0000000E+02;  0.0000000E+00;  1.0000000E+02;  7.1066752E-05;  0.0000000E+00;  1.2883967E-06;  0.0000000E+00;
 -2.0000000E-01;  9.9999998E-03; -8.0000001E-01;90;  0.0000000E+00;  0.0000000E+00;  0.0000000E+00;  1.0002934E+01;  4.0000001E-01;  3.1578347E-01;0;  0.0000000E+00;  0.0000000E+00;  0.0000000E+00;  0.0000000E+00;  0.0000000E+00;  0.0000000E+00;0;  7.9159428E-05;  1.0000000E+02;  0.0000000E+00;  0.0000000E+00;  1.0000000E+02;  0.0000000E+00;  1.0000000E+02;  8.0047437E-05;  0.0000000E+00; -8.8800857E-07;  0.0000000E+00;
 -2.0000000E-01;  9.9999998E-03; -6.0000002E-01;91;  0.0000000E+00;  0.0000000E+00;  0.0000000E+00;  1.0003895E+01;  4.0000001E-01;  4.1903517E-01;0;  0.0000000E+00;  0.0000000E+00;  0.0000000E+00;  0.0000000E+00;  0.0000000E+00;  0.0000000E+00;0;  8.2923449E-05;  1.0000000E+02;  0.0000000E+00;  0.0000000E+00;  1.0000000E+02;  0.0000000E+00;  1.0000000E+02;  8.5551372E-05;  0.0000000E+00; -2.6279245E-06;  0.0000000E+00;
 -2.0000000E-01;  9.9999998E-03; -4.0000001E-01;92;  0.0000000E+00;  0.0000000E+00;  0.0000000E+00;  1.0004498E+01;  4.0000001E-01;  4.8406449E-01;0;  0.0000000E+00;  0.0000000E+00;  0.0000000E+00;  0.0000000E+00;  0.0000000E+00;  0.0000000E+00;0;  8.6485306E-05;  1.0000000E+02;  0.0000000E+00;  0.0000000E+00;  1.0000000E+02;  0.0000000E+00;  1.0000000E+02;  9.0425659E-05;  0.0000000E+00; -3.9403558E-06;  0.0000000E+00;
 -2.0000000E-01;  9.9999998E-03; -2.0000000E-01;93;  0.0000000E+00;  0.0000000E+00;  0.0000000E+00;  1.0004959E+01;  4.0000001E-01;  5.3357399E-01;0;  0.0000000E+00;  0.0000000E+00;  0.0000000E+00;  0.0000000E+00;  0.0000000E+00;  0.0000000E+00;0;  8.9685876E-05;  1.0000000E+02;  0.0000000E+00;  0.0000000E+00;  1.0000000E+02;  0.0000000E+00;  1.0000000E+02;  9.4632152E-05;  0.0000000E+00; -4.9462778E-06;  0.0000000E+00;
  0.0000000E+00;  9.9999998E-03; -1.8000000E+00;106;  0.0000000E+00;  0.0000000E+00;  0.0000000E+00;  1.0000000E+01;  4.0000001E-01;  0.0000000E+00;0;  0.0000000E+00;  0.0000000E+00;  0.0000000E+00;  0.0000000E+00;  0.0000000E+00;  0.0000000E+00;0;  3.8676819E-05;  1.0000000E+02;  0.0000000E+00;  0.0000000E+00;  1.0000000E+02;  0.0000000E+00;  1.0000000E+02;  3.0444922E-05;  0.0000000E+00;  8.2318957E-06;  0.0000000E+00;
  0.0000000E+00;  9.9999998E-03; -1.6000000E+00;107;  0.0000000E+00;  0.0000000E+00;  0.0000000E+00;  1.0000000E+01;  4.0000001E-01;  0.0000000E+00;0;  0.0000000E+00;  0.0000000E+00;  0.0000000E+00;  0.0000000E+00;  0.0000000E+00;  0.0000000E+00;0;  7.1138275E-05;  1.0000000E+02;  0.0000000E+00;  0.0000000E+00;  1.0000000E+02;  0.0000000E+00;  1.0000000E+02;  6.0788232E-05;  0.0000000E+00;  1.0350042E-05;  0.0000000E+00;
  0.0000000E+00;  9.9999998E-03; -1.4000000E+00;108;  0.0000000E+00;  0.0000000E+00;  0.0000000E+00;  1.0000000E+01;  4.0000001E-01;  0.0000000E+00;0;  0.0000000E+00;  0.0000000E+00;  0.0000000E+00;  0.0000000E+00;  0.0000000E+00;  0.0000000E+00;0;  1.0846032E-04;  1.0000000E+02;  0.0000000E+00;  0.0000000E+00;  1.0000000E+02;  0.0000000E+00;  1.0000000E+02;  9.8322693E-05;  0.0000000E+00;  1.0137627E-05;  0.0000000E+00;
  0.0000000E+00;  9.9999998E-03; -1.2000000E+00;109;  0.0000000E+00;  0.0000000E+00;  0.0000000E+00;  1.0000000E+01;  4.0000001E-01;  0.0000000E+00;0;  0.0000000E+00;  0.0000000E+00;  0.0000000E+00;  0.0000000E+00;  0.0000000E+00;  0.0000000E+00;0;  1.4188369E-04;  1.0000000E+02;  0.0000000E+00;  0.0000000E+00;  1.0000000E+02;  0.0000000E+00;  1.0000000E+02;  1.3418475E-04;  0.0000000E+00;  7.6989372E-06;  0.0000000E+00;
  2.0000000E-01;  9.9999998E-03; -1.8000000E+00;116;  0.0000000E+00;  0.0000000E+00;  0.0000000E+00;  1.0000000E+01;  4.0000001E-01;  0.0000000E+00;0;  0.0000000E+00;  0.0000000E+00;  0.0000000E+00;  0.0000000E+00;  0.0000000E+00;  0.0000000E+00;0;  9.0224523E-05;  1.0000000E+02;  0.0000000E+00;  0.0000000E+00;  1.0000000E+02;  0.0000000E+00;  1.0000000E+02;  7.9177677E-05;  0.0000000E+00;  1.1046850E-05;  0.0000000E+00;
  2.0000000E-01;  9.9999998E-03; -1.6000000E+00;117;  0.0000000E+00;  0.0000000E+00;  0.0000000E+00;  1.0000000E+01;  4.0000001E-01;  0.0000000E+00;0;  0.0000000E+00;  0.0000000E+00;  0.0000000E+00;  0.0000000E+00;  0.0000000E+00;  0.0000000E+00;0;  1.6076406E-04;  1.0000000E+02;  0.0000000E+00;  0.0000000E+00;  1.0000000E+02;  0.0000000E+00;  1.0000000E+02;  1.4674841E-04;  0.0000000E+00;  1.4015645E-05;  0.0000000E+00;
  2.0000000E-01;  9.9999998E-03; -1.4000000E+00;118;  0.0000000E+00;  0.0000000E+00;  0.0000000E+00;  1.0000000E+01;  4.0000001E-01;  0.0000000E+00;0;  0.0000000E+00;  0.0000000E+00;  0.0000000E+00;  0.0000000E+00;  0.0000000E+00;  0.0000000E+00;0;  2.4311495E-04;  1.0000000E+02;  0.0000000E+00;  0.0000000E+00;  1.0000000E+02;  0.0000000E+00;  1.0000000E+02;  2.2841519E-04;  0.0000000E+00;  1.4699756E-05;  0.0000000E+00;
  2.0000000E-01;  9.9999998E-03; -1.2000000E+00;119;  0.0000000E+00;  0.0000000E+00;  0.0000000E+00;  1.0000000E+01;  4.0000001E-01;  0.0000000E+00;0;  0.0000000E+00;  0.0000000E+00;  0.0000000E+00;  0.0000000E+00;  0.0000000E+00;  0.0000000E+00;0;  3.2124703E-04;  1.0000000E+02;  0.0000000E+00;  0.0000000E+00;  1.0000000E+02;  0.0000000E+00;  1.0000000E+02;  3.0872610E-04;  0.0000000E+00;  1.2520936E-05;  0.0000000E+00;
  4.0000001E-01;  9.9999998E-03; -1.8000000E+00;126;  0.0000000E+00;  0.0000000E+00;  0.0000000E+00;  1.0000000E+01;  4.0000001E-01;  0.0000000E+00;0;  0.0000000E+00;  0.0000000E+00;  0.0000000E+00;  0.0000000E+00;  0.0000000E+00;  0.0000000E+00;0;  1.8838656E-04;  1.0000000E+02;  0.0000000E+00;  0.0000000E+00;  1.0000000E+02;  0.0000000E+00;  1.0000000E+02;  1.7831172E-04;  0.0000000E+00;  1.0074847E-05;  0.0000000E+00;
  4.0000001E-01;  9.9999998E-03; -1.6000000E+00;127;  0.0000000E+00;  0.0000000E+00;  0.0000000E+00;  1.0000000E+01;  4.0000001E-01;  0.0000000E+00;0;  0.0000000E+00;  0.0000000E+00;  0.0000000E+00;  0.0000000E+00;  0.0000000E+00;  0.0000000E+00;0;  3.3087283E-04;  1.0000000E+02;  0.0000000E+00;  0.0000000E+00;  1.0000000E+02;  0.0000000E+00;  1.0000000E+02;  3.1766773E-04;  0.0000000E+00;  1.3205113E-05;  0.0000000E+00;
  4.0000001E-01;  9.9999998E-03; -1.4000000E+00;128;  0.0000000E+00;  0.0000000E+00;  0.0000000E+00;  1.0000000E+01;  4.0000001E-01;  0.0000000E+00;0;  0.0000000E+00;  0.0000000E+00;  0.0000000E+00;  0.0000000E+00;  0.0000000E+00;  0.0000000E+00;0;  5.0492113E-04;  1.0000000E+02;  0.0000000E+00;  0.0000000E+00;  1.0000000E+02;  0.0000000E+00;  1.0000000E+02;  4.8983964E-04;  0.0000000E+00;  1.5081489E-05;  0.0000000E+00;
  4.0000001E-01;  9.9999998E-03; -1.2000000E+00;129;  0.0000000E+00;  0.0000000E+00;  0.0000000E+00;  1.0000000E+01;  4.0000001E-01;  0.0000000E+00;0;  0.0000000E+00;  0.0000000E+00;  0.0000000E+00;  0.0000000E+00;  0.0000000E+00;  0.0000000E+00;0;  6.8133191E-04;  1.0000000E+02;  0.0000000E+00;  0.0000000E+00;  1.0000000E+02;  0.0000000E+00;  1.0000000E+02;  6.6691078E-04;  0.0000000E+00;  1.4421124E-05;  0.0000000E+00;
  6.0000002E-01;  9.9999998E-03; -1.8000000E+00;136;  0.0000000E+00;  0.0000000E+00;  0.0000000E+00;  1.0000000E+01;  4.0000001E-01;  0.0000000E+00;0;  0.0000000E+00;  0.0000000E+00;  0.0000000E+00;  0.0000000E+00;  0.0000000E+00;  0.0000000E+00;0;  3.5509182E-04;  1.0000000E+02;  0.0000000E+00;  0.0000000E+00;  1.0000000E+02;  0.0000000E+00;  1.0000000E+02;  3.5181426E-04;  0.0000000E+00;  3.2775645E-06;  0.0000000E+00;
  6.0000002E-01;  9.9999998E-03; -1.6000000E+00;137;  0.0000000E+00;  0.0000000E+00;  0.0000000E+00;  1.0000000E+01;  4.0000001E-01;  0.0000000E+00;0;  0.0000000E+00;  0.0000000E+00;  0.0000000E+00;  0.0000000E+00;  0.0000000E+00;  0.0000000E+00;0;  6.1861356E-04;  1.0000000E+02;  0.0000000E+00;  0.0000000E+00;  1.0000000E+02;  0.0000000E+00;  1.0000000E+02;  6.1375159E-04;  0.0000000E+00;  4.8619786E-06;  0.0000000E+00;
  6.0000002E-01;  9.9999998E-03; -1.4000000E+00;138;  0.0000000E+00;  0.0000000E+00;  0.0000000E+00;  1.0000000E+01;  4.0000001E-01;  0.0000000E+00;0;  0.0000000E+00;  0.0000000E+00;  0.0000000E+00;  0.0000000E+00;  0.0000000E+00;  0.0000000E+00;0;  9.5340930E-04;  1.0000000E+02;  0.0000000E+00;  0.0000000E+00;  1.0000000E+02;  0.0000000E+00;  1.0000000E+02;  9.4655709E-04;  0.0000000E+00;  6.8522277E-06;  0.0000000E+00;
  6.0000002E-01;  9.9999998E-03; -1.2000000E+00;139;  0.0000000E+00;  0.0000000E+00;  0.0000000E+00;  1.0000000E+01;  4.0000001E-01;  0.0000000E+00;0;  0.0000000E+00;  0.0000000E+00;  0.0000000E+00;  0.0000000E+00;  0.0000000E+00;  0.0000000E+00;0;  1.3027670E-03;  1.0000000E+02;  0.0000000E+00;  0.0000000E+00;  1.0000000E+02;  0.0000000E+00;  1.0000000E+02;  1.2946358E-03;  0.0000000E+00;  8.1310955E-06;  0.0000000E+00;
  8.0000001E-01;  9.9999998E-03; -1.8000000E+00;146;  0.0000000E+00;  0.0000000E+00;  0.0000000E+00;  1.0000000E+01;  4.0000001E-01;  0.0000000E+00;0;  0.0000000E+00;  0.0000000E+00;  0.0000000E+00;  0.0000000E+00;  0.0000000E+00;  0.0000000E+00;0;  5.8452477E-04;  1.0000000E+02;  0.0000000E+00;  0.0000000E+00;  1.0000000E+02;  0.0000000E+00;  1.0000000E+02;  5.9458689E-04;  0.0000000E+00; -1.0062133E-05;  0.0000000E+00;
  8.0000001E-01;  9.9999998E-03; -1.6000000E+00;147;  0.0000000E+00;  0.0000000E+00;  0.0000000E+00;  1.0000000E+01;  4.0000001E-01;  0.0000000E+00;0;  0.0000000E+00;  0.0000000E+00;  0.0000000E+00;  0.0000000E+00;  0.0000000E+00;  0.0000000E+00;0;  1.0120496E-03;  1.0000000E+02;  0.0000000E+00;  0.0000000E+00;  1.0000000E+02;  0.0000000E+00;  1.0000000E+02;  1.0238013E-03;  0.0000000E+00; -1.1751651E-05;  0.0000000E+00;
  8.0000001E-01;  9.9999998E-03; -1.4000000E+00;148;  0.0000000E+00;  0.0000000E+00;  0.0000000E+00;  1.0000000E+01;  4.0000001E-01;  0.0000000E+00;0;  0.0000000E+00;  0.0000000E+00;  0.0000000E+00;  0.0000000E+00;  0.0000000E+00;  0.0000000E+00;0;  1.5774705E-03;  1.0000000E+02;  0.0000000E+00;  0.0000000E+00;  1.0000000E+02;  0.0000000E+00;  1.0000000E+02;  1.5891262E-03;  0.0000000E+00; -1.1655720E-05;  0.0000000E+00;
  8.0000001E-01;  9.9999998E-03; -1.2000000E+00;149;  0.0000000E+00;  0.0000000E+00;  0.0000000E+00;  1.0000000E+01;  4.0000001E-01;  0.0000000E+00;0;  0.0000000E+00;  0.0000000E+00;  0.0000000E+00;  0.0000000E+00;  0.0000000E+00;  0.0000000E+00;0;  2.1776103E-03;  1.0000000E+02;  0.0000000E+00;  0.0000000E+00;  1.0000000E+02;  0.0000000E+00;  1.0000000E+02;  2.1868374E-03;  0.0000000E+00; -9.2270593E-06;  0.0000000E+00;
  1.0000000E+00;  9.9999998E-03; -1.8000000E+00;156;  0.0000000E+00;  0.0000000E+00;  0.0000000E+00;  1.0000000E+01;  4.0000001E-01;  0.0000000E+00;0;  0.0000000E+00;  0.0000000E+00;  0.0000000E+00;  0.0000000E+00;  0.0000000E+00;  0.0000000E+00;0;  8.1406860E-04;  1.0000000E+02;  0.0000000E+00;  0.0000000E+00;  1.0000000E+02;  0.0000000E+00;  1.0000000E+02;  8.4330252E-04;  0.0000000E+00; -2.9233910E-05;  0.0000000E+00;
  1.0000000E+00;  9.9999998E-03; -1.6000000E+00;157;  0.0000000E+00;  0.0000000E+00;  0.0000000E+00;  1.0000000E+01;  4.0000001E-01;  0.0000000E+00;0;  0.0000000E+00;  0.0000000E+00;  0.0000000E+00;  0.0000000E+00;  0.0000000E+00;  0.0000000E+00;0;  1.4198851E-03;  1.0000000E+02;  0.0000000E+00;  0.0000000E+00;  1.0000000E+02;  0.0000000E+00;  1.0000000E+02;  1.4542922E-03;  0.0000000E+00; -3.4407156E-05;  0.0000000E+00;
  1.0000000E+00;  9.9999998E-03; -1.4000000E+00;158;  0.0000000E+00;  0.0000000E+00;  0.0000000E+00;  1.0000000E+01;  4.0000001E-01;  0.0000000E+00;0;  0.0000000E+00;  0.0000000E+00;  0.0000000E+00;  0.0000000E+00;  0.0000000E+00;  0.0000000E+00;0;  2.2542903E-03;  1.0000000E+02;  0.0000000E+00;  0.0000000E+00;  1.0000000E+02;  0.0000000E+00;  1.0000000E+02;  2.2913490E-03;  0.0000000E+00; -3.7058820E-05;  0.0000000E+00;
  1.0000000E+00;  9.9999998E-03; -1.2000000E+00;159;  0.0000000E+00;  0.0000000E+00;  0.0000000E+00;  1.0000000E+01;  4.0000001E-01;  0.0000000E+00;0;  0.0000000E+00;  0.0000000E+00;  0.0000000E+00;  0.0000000E+00;  0.0000000E+00;  0.0000000E+00;0;  3.1554920E-03;  1.0000000E+02;  0.0000000E+00;  0.0000000E+00;  1.0000000E+02;  0.0000000E+00;  1.0000000E+02;  3.1889700E-03;  0.0000000E+00; -3.3478038E-05;  0.0000000E+00;
 -1.0000000E+00;  9.9999998E-03;  0.0000000E+00;10;  0.0000000E+00;  0.0000000E+00;  0.0000000E+00;  1.0000969E+01;  4.0000001E-01;  1.0427793E-01;0;  0.0000000E+00;  0.0000000E+00;  0.0000000E+00;  0.0000000E+00;  0.0000000E+00;  0.0000000E+00;0;  3.4809822E-05;  1.0000000E+02;  0.0000000E+00;  0.0000000E+00;  1.0000000E+02;  0.0000000E+00;  1.0000000E+02;  3.3557106E-05;  0.0000000E+00;  1.2527156E-06;  0.0000000E+00;
 -1.0000000E+00;  9.9999998E-03;  2.0000000E-01;11;  0.0000000E+00;  0.0000000E+00;  0.0000000E+00;  1.0000957E+01;  4.0000001E-01;  1.0299531E-01;0;  0.0000000E+00;  0.0000000E+00;  0.0000000E+00;  0.0000000E+00;  0.0000000E+00;  0.0000000E+00;0;  3.2907592E-05;  1.0000000E+02;  0.0000000E+00;  0.0000000E+00;  1.0000000E+02;  0.0000000E+00;  1.0000000E+02;  3.1768548E-05;  0.0000000E+00;  1.1390425E-06;  0.0000000E+00;
 -1.0000000E+00;  9.9999998E-03;  4.0000001E-01;12;  0.0000000E+00;  0.0000000E+00;  0.0000000E+00;  1.0000930E+01;  4.0000001E-01;  1.0004525E-01;0;  0.0000000E+00;  0.0000000E+00;  0.0000000E+00;  0.0000000E+00;  0.0000000E+00;  0.0000000E+00;0;  2.7766155E-05;  1.0000000E+02;  0.0000000E+00;  0.0000000E+00;  1.0000000E+02;  0.0000000E+00;  1.0000000E+02;  2.6950334E-05;  0.0000000E+00;  8.1581970E-07;  0.0000000E+00;
 -1.0000000E+00;  9.9999998E-03;  6.0000002E-01;13;  0.0000000E+00;  0.0000000E+00;  0.0000000E+00;  1.0001216E+01;  4.0000001E-01;  1.3082841E-01;0;  0.0000000E+00;  0.0000000E+00;  0.0000000E+00;  0.0000000E+00;  0.0000000E+00;  0.0000000E+00;0;  2.0779098E-05;  1.0000000E+02;  0.0000000E+00;  0.0000000E+00;  1.0000000E+02;  0.0000000E+00;  1.0000000E+02;  2.0441041E-05;  0.0000000E+00;  3.3805676E-07;  0.0000000E+00;
 -1.0000000E+00;  9.9999998E-03;  8.0000001E-01;14;  0.0000000E+00;  0.0000000E+00;  0.0000000E+00;  1.0001022E+01;  4.0000001E-01;  1.1004978E-01;0;  0.0000000E+00;  0.0000000E+00;  0.0000000E+00;  0.0000000E+00;  0.0000000E+00;  0.0000000E+00;0;  1.3609607E-05;  1.0000000E+02;  0.0000000E+00;  0.0000000E+00;  1.0000000E+02;  0.0000000E+00;  1.0000000E+02;  1.3790374E-05;  0.0000000E+00; -1.8076727E-07;  0.0000000E+00;
 -1.0000000E+00;  9.9999998E-03;  1.0000000E+00;15;  0.0000000E+00;  0.0000000E+00;  0.0000000E+00;  1.0000754E+01;  4.0000001E-01;  8.1190571E-02;0;  0.0000000E+00;  0.0000000E+00;  0.0000000E+00;  0.0000000E+00;  0.0000000E+00;  0.0000000E+00;0;  7.6008164E-06;  1.0000000E+02;  0.0000000E+00;  0.0000000E+00;  1.0000000E+02;  0.0000000E+00;  1.0000000E+02;  8.2097176E-06;  0.0000000E+00; -6.0890136E-07;  0.0000000E+00;
 -1.0000000E+00;  9.9999998E-03;  1.2000000E+00;16;  0.0000000E+00;  0.0000000E+00;  0.0000000E+00;  1.0000500E+01;  4.0000001E-01;  5.3742256E-02;0;  0.0000000E+00;  0.0000000E+00;  0.0000000E+00;  0.0000000E+00;  0.0000000E+00;  0.0000000E+00;0;  3.4010307E-06;  1.0000000E+02;  0.0000000E+00;  0.0000000E+00;  1.0000000E+02;  0.0000000E+00;  1.0000000E+02;  4.2621582E-06;  0.0000000E+00; -8.6112755E-07;  0.0000000E+00;
 -1.0000000E+00;  9.9999998E-03;  1.4000000E+00;17;  0.0000000E+00;  0.0000000E+00;  0.0000000E+00;  1.0000267E+01;  4.0000001E-01;  2.8730944E-02;0;  0.0000000E+00;  0.0000000E+00;  0.0000000E+00;  0.0000000E+00;  0.0000000E+00;  0.0000000E+00;0;  9.8165765E-07;  1.0000000E+02;  0.0000000E+00;  0.0000000E+00;  1.0000000E+02;  0.0000000E+00;  1.0000000E+02;  1.8922409E-06;  0.0000000E+00; -9.1058325E-07;  0.0000000E+00;
 -8.0000001E-01;  9.9999998E-03;  0.0000000E+00;31;  0.0000000E+00;  0.0000000E+00;  0.0000000E+00;  1.0002372E+01;  4.0000001E-01;  2.5524363E-01;0;  0.0000000E+00;  0.0000000E+00;  0.0000000E+00;  0.0000000E+00;  0.0000000E+00;  0.0000000E+00;0;  6.4241285E-05;  1.0000000E+02;  0.0000000E+00;  0.0000000E+00;  1.0000000E+02;  0.0000000E+00;  1.0000000E+02;  6.2311839E-05;  0.0000000E+00;  1.9294473E-06;  0.0000000E+00;
 -8.0000001E-01;  9.9999998E-03;  2.0000000E-01;32;  0.0000000E+00;  0.0000000E+00;  0.0000000E+00;  1.0002531E+01;  4.0000001E-01;  2.7230263E-01;0;  0.0000000E+00;  0.0000000E+00;  0.0000000E+00;  0.0000000E+00;  0.0000000E+00;  0.0000000E+00;0;  6.0799735E-05;  1.0000000E+02;  0.0000000E+00;  0.0000000E+00;  1.0000000E+02;  0.0000000E+00;  1.0000000E+02;  5.9111862E-05;  0.0000000E+00;  1.6878748E-06;  0.0000000E+00;
 -8.0000001E-01;  9.9999998E-03;  4.0000001E-01;33;  0.0000000E+00;  0.0000000E+00;  0.0000000E+00;  1.0002481E+01;  4.0000001E-01;  2.6704383E-01;0;  0.0000000E+00;  0.0000000E+00;  0.0000000E+00;  0.0000000E+00;  0.0000000E+00;  0.0000000E+00;0;  5.1528492E-05;  1.0000000E+02;  0.0000000E+00;  0.0000000E+00;  1.0000000E+02;  0.0000000E+00;  1.0000000E+02;  5.0446113E-05;  0.0000000E+00;  1.0823796E-06;  0.0000000E+00;
 -8.0000001E-01;  9.9999998E-03;  6.0000002E-01;34;  0.0000000E+00;  0.0000000E+00;  0.0000000E+00;  1.0002254E+01;  4.0000001E-01;  2.4254557E-01;0;  0.0000000E+00;  0.0000000E+00;  0.0000000E+00;  0.0000000E+00;  0.0000000E+00;  0.0000000E+00;0;  3.9043924E-05;  1.0000000E+02;  0.0000000E+00;  0.0000000E+00;  1.0000000E+02;  0.0000000E+00;  1.0000000E+02;  3.8694921E-05;  0.0000000E+00;  3.4900148E-07;  0.0000000E+00;
 -8.0000001E-01;  9.9999998E-03;  8.0000001E-01;35;  0.0000000E+00;  0.0000000E+00;  0.0000000E+00;  1.0001918E+01;  4.0000001E-01;  2.0637538E-01;0;  0.0000000E+00;  0.0000000E+00;  0.0000000E+00;  0.0000000E+00;  0.0000000E+00;  0.0000000E+00;0;  2.6349539E-05;  1.0000000E+02;  0.0000000E+00;  0.0000000E+00;  1.0000000E+02;  0.0000000E+00;  1.0000000E+02;  2.6664735E-05;  0.0000000E+00; -3.1519676E-07;  0.0000000E+00;
 -8.0000001E-01;  9.9999998E-03;  1.0000000E+00;36;  0.0000000E+00;  0.0000000E+00;  0.0000000E+00;  1.0001770E+01;  4.0000001E-01;  1.9047074E-01;0;  0.0000000E+00;  0.0000000E+00;  0.0000000E+00;  0.0000000E+00;  0.0000000E+00;  0.0000000E+00;0;  1.5675922E-05;  1.0000000E+02;  0.0000000E+00;  0.0000000E+00;  1.0000000E+02;  0.0000000E+00;  1.0000000E+02;  1.6475065E-05;  0.0000000E+00; -7.9914435E-07;  0.0000000E+00;
 -8.0000001E-01;  9.9999998E-03;  1.2000000E+00;37;  0.0000000E+00;  0.0000000E+00;  0.0000000E+00;  1.0001216E+01;  4.0000001E-01;  1.3082840E-01;0;  0.0000000E+00;  0.0000000E+00;  0.0000000E+00;  0.0000000E+00;  0.0000000E+00;  0.0000000E+00;0;  8.0089703E-06;  1.0000000E+02;  0.0000000E+00;  0.0000000E+00;  1.0000000E+02;  0.0000000E+00;  1.0000000E+02;  9.0827743E-06;  0.0000000E+00; -1.0738036E-06;  0.0000000E+00;
 -8.0000001E-01;  9.9999998E-03;  1.4000000E+00;38;  0.0000000E+00;  0.0000000E+00;  0.0000000E+00;  1.0000714E+01;  4.0000001E-01;  7.6829612E-02;0;  0.0000000E+00;  0.0000000E+00;  0.0000000E+00;  0.0000000E+00;  0.0000000E+00;  0.0000000E+00;0;  3.2731846E-06;  1.0000000E+02;  0.0000000E+00;  0.0000000E+00;  1.0000000E+02;  0.0000000E+00;  1.0000000E+02;  4.4294470E-06;  0.0000000E+00; -1.1562623E-06;  0.0000000E+00;
 -6.0000002E-01;  9.9999998E-03;  0.0000000E+00;52;  0.0000000E+00;  0.0000000E+00;  0.0000000E+00;  1.0004065E+01;  4.0000001E-01;  4.3737721E-01;0;  0.0000000E+00;  0.0000000E+00;  0.0000000E+00;  0.0000000E+00;  0.0000000E+00;  0.0000000E+00;0;  8.5178901E-05;  1.0000000E+02;  0.0000000E+00;  0.0000000E+00;  1.0000000E+02;  0.0000000E+00;  1.0000000E+02;  8.3468411E-05;  0.0000000E+00;  1.7104896E-06;  0.0000000E+00;
 -6.0000002E-01;  9.9999998E-03;  2.0000000E-01;53;  0.0000000E+00;  0.0000000E+00;  0.0000000E+00;  1.0004000E+01;  4.0000001E-01;  4.3032274E-01;0;  0.0000000E+00;  0.0000000E+00;  0.0000000E+00;  0.0000000E+00;  0.0000000E+00;  0.0000000E+00;0;  8.0575672E-05;  1.0000000E+02;  0.0000000E+00;  0.0000000E+00;  1.0000000E+02;  0.0000000E+00;  1.0000000E+02;  7.9171019E-05;  0.0000000E+00;  1.4046516E-06;  0.0000000E+00;
 -6.0000002E-01;  9.9999998E-03;  4.0000001E-01;54;  0.0000000E+00;  0.0000000E+00;  0.0000000E+00;  1.0003800E+01;  4.0000001E-01;  4.0890279E-01;0;  0.0000000E+00;  0.0000000E+00;  0.0000000E+00;  0.0000000E+00;  0.0000000E+00;  0.0000000E+00;0;  6.8482419E-05;  1.0000000E+02;  0.0000000E+00;  0.0000000E+00;  1.0000000E+02;  0.0000000E+00;  1.0000000E+02;  6.7783702E-05;  0.0000000E+00;  6.9871771E-07;  0.0000000E+00;
 -6.0000002E-01;  9.9999998E-03;  6.0000002E-01;55;  0.0000000E+00;  0.0000000E+00;  0.0000000E+00;  1.0003769E+01;  4.0000001E-01;  4.0556797E-01;0;  0.0000000E+00;  0.0000000E+00;  0.0000000E+00;  0.0000000E+00;  0.0000000E+00;  0.0000000E+00;0;  5.2638734E-05;  1.0000000E+02;  0.0000000E+00;  0.0000000E+00;  1.0000000E+02;  0.0000000E+00;  1.0000000E+02;  5.2653755E-05;  0.0000000E+00; -1.5021614E-08;  0.0000000E+00;
 -6.0000002E-01;  9.9999998E-03;  8.0000001E-01;56;  0.0000000E+00;  0.0000000E+00;  0.0000000E+00;  1.0003142E+01;  4.0000001E-01;  3.3810157E-01;0;  0.0000000E+00;  0.0000000E+00;  0.0000000E+00;  0.0000000E+00;  0.0000000E+00;  0.0000000E+00;0;  3.6877162E-05;  1.0000000E+02;  0.0000000E+00;  0.0000000E+00;  1.0000000E+02;  0.0000000E+00;  1.0000000E+02;  3.7366644E-05;  0.0000000E+00; -4.8948209E-07;  0.0000000E+00;
 -6.0000002E-01;  9.9999998E-03;  1.0000000E+00;57;  0.0000000E+00;  0.0000000E+00;  0.0000000E+00;  1.0002493E+01;  4.0000001E-01;  2.6819816E-01;0;  0.0000000E+00;  0.0000000E+00;  0.0000000E+00;  0.0000000E+00;  0.0000000E+00;  0.0000000E+00;0;  2.3595900E-05;  1.0000000E+02;  0.0000000E+00;  0.0000000E+00;  1.0000000E+02;  0.0000000E+00;  1.0000000E+02;  2.4272287E-05;  0.0000000E+00; -6.7638786E-07;  0.0000000E+00;
 -6.0000002E-01;  9.9999998E-03;  1.2000000E+00;58;  0.0000000E+00;  0.0000000E+00;  0.0000000E+00;  1.0001933E+01;  4.0000001E-01;  2.0804277E-01;0;  0.0000000E+00;  0.0000000E+00;  0.0000000E+00;  0.0000000E+00;  0.0000000E+00;  0.0000000E+00;0;  1.3675913E-05;  1.0000000E+02;  0.0000000E+00;  0.0000000E+00;  1.0000000E+02;  0.0000000E+00;  1.0000000E+02;  1.4331870E-05;  0.0000000E+00; -6.5595765E-07;  0.0000000E+00;
 -6.0000002E-01;  9.9999998E-03;  1.4000000E+00;59;  0.0000000E+00;  0.0000000E+00;  0.0000000E+00;  1.0001203E+01;  4.0000001E-01;  1.2941748E-01;0;  0.0000000E+00;  0.0000000E+00;  0.0000000E+00;  0.0000000E+00;  0.0000000E+00;  0.0000000E+00;0;  7.0289243E-06;  1.0000000E+02;  0.0000000E+00;  0.0000000E+00;  1.0000000E+02;  0.0000000E+00;  1.0000000E+02;  7.5940925E-06;  0.0000000E+00; -5.6516842E-07;  0.0000000E+00;
 -4.0000001E-01;  9.9999998E-03;  0.0000000E+00;73;  0.0000000E+00;  0.0000000E+00;  0.0000000E+00;  1.0005357E+01;  4.0000001E-01;  5.7641423E-01;0;  0.0000000E+00;  0.0000000E+00;  0.0000000E+00;  0.0000000E+00;  0.0000000E+00;  0.0000000E+00;0;  8.8505854E-05;  1.0000000E+02;  0.0000000E+00;  0.0000000E+00;  1.0000000E+02;  0.0000000E+00;  1.0000000E+02;  8.9035791E-05;  0.0000000E+00; -5.2994034E-07;  0.0000000E+00;
 -4.0000001E-01;  9.9999998E-03;  2.0000000E-01;74;  0.0000000E+00;  0.0000000E+00;  0.0000000E+00;  1.0005244E+01;  4.0000001E-01;  5.6422925E-01;0;  0.0000000E+00;  0.0000000E+00;  0.0000000E+00;  0.0000000E+00;  0.0000000E+00;  0.0000000E+00;0;  8.4412997E-05;  1.0000000E+02;  0.0000000E+00;  0.0000000E+00;  1.0000000E+02;  0.0000000E+00;  1.0000000E+02;  8.5041087E-05;  0.0000000E+00; -6.2809079E-07;  0.0000000E+00;
 -4.0000001E-01;  9.9999998E-03;  4.0000001E-01;75;  0.0000000E+00;  0.0000000E+00;  0.0000000E+00;  1.0004885E+01;  4.0000001E-01;  5.2562207E-01;0;  0.0000000E+00;  0.0000000E+00;  0.0000000E+00;  0.0000000E+00;  0.0000000E+00;  0.0000000E+00;0;  7.4107484E-05;  1.0000000E+02;  0.0000000E+00;  0.0000000E+00;  1.0000000E+02;  0.0000000E+00;  1.0000000E+02;  7.4971278E-05;  0.0000000E+00; -8.6379276E-07;  0.0000000E+00;
 -4.0000001E-01;  9.9999998E-03;  6.0000002E-01;76;  0.0000000E+00;  0.0000000E+00;  0.0000000E+00;  1.0004530E+01;  4.0000001E-01;  4.8739967E-01;0;  0.0000000E+00;  0.0000000E+00;  0.0000000E+00;  0.0000000E+00;  0.0000000E+00;  0.0000000E+00;0;  6.1332765E-05;  1.0000000E+02;  0.0000000E+00;  0.0000000E+00;  1.0000000E+02;  0.0000000E+00;  1.0000000E+02;  6.2298175E-05;  0.0000000E+00; -9.6540703E-07;  0.0000000E+00;
 -4.0000001E-01;  9.9999998E-03;  8.0000001E-01;77;  0.0000000E+00;  0.0000000E+00;  0.0000000E+00;  1.0003839E+01;  4.0000001E-01;  4.1300708E-01;0;  0.0000000E+00;  0.0000000E+00;  0.0000000E+00;  0.0000000E+00;  0.0000000E+00;  0.0000000E+00;0;  4.8671362E-05;  1.0000000E+02;  0.0000000E+00;  0.0000000E+00;  1.0000000E+02;  0.0000000E+00;  1.0000000E+02;  4.9364036E-05;  0.0000000E+00; -6.9267446E-07;  0.0000000E+00;
 -4.0000001E-01;  9.9999998E-03;  1.0000000E+00;78;  0.0000000E+00;  0.0000000E+00;  0.0000000E+00;  1.0002842E+01;  4.0000001E-01;  3.0577916E-01;0;  0.0000000E+00;  0.0000000E+00;  0.0000000E+00;  0.0000000E+00;  0.0000000E+00;  0.0000000E+00;0;  3.6873786E-05;  1.0000000E+02;  0.0000000E+00;  0.0000000E+00;  1.0000000E+02;  0.0000000E+00;  1.0000000E+02;  3.6913130E-05;  0.0000000E+00; -3.9344883E-08;  0.0000000E+00;
 -4.0000001E-01;  9.9999998E-03;  1.2000000E+00;79;  0.0000000E+00;  0.0000000E+00;  0.0000000E+00;  1.0001898E+01;  4.0000001E-01;  2.0419480E-01;0;  0.0000000E+00;  0.0000000E+00;  0.0000000E+00;  0.0000000E+00;  0.0000000E+00;  0.0000000E+00;0;  2.6088510E-05;  1.0000000E+02;  0.0000000E+00;  0.0000000E+00;  1.0000000E+02;  0.0000000E+00;  1.0000000E+02;  2.5292507E-05;  0.0000000E+00;  7.9600278E-07;  0.0000000E+00;
 -4.0000001E-01;  9.9999998E-03;  1.4000000E+00;80;  0.0000000E+00;  0.0000000E+00;  0.0000000E+00;  1.0001434E+01;  4.0000001E-01;  1.5430047E-01;0;  0.0000000E+00;  0.0000000E+00;  0.0000000E+00;  0.0000000E+00;  0.0000000E+00;  0.0000000E+00;0;  1.6710101E-05;  1.0000000E+02;  0.0000000E+00;  0.0000000E+00;  1.0000000E+02;  0.0000000E+00;  1.0000000E+02;  1.5246587E-05;  0.0000000E+00;  1.4635139E-06;  0.0000000E+00;
 -2.0000000E-01;  9.9999998E-03;  0.0000000E+00;94;  0.0000000E+00;  0.0000000E+00;  0.0000000E+00;  1.0005117E+01;  4.0000001E-01;  5.5063295E-01;0;  0.0000000E+00;  0.0000000E+00;  0.0000000E+00;  0.0000000E+00;  0.0000000E+00;  0.0000000E+00;0;  9.0936446E-05;  1.0000000E+02;  0.0000000E+00;  0.0000000E+00;  1.0000000E+02;  0.0000000E+00;  1.0000000E+02;  9.6292344E-05;  0.0000000E+00; -5.3559002E-06;  0.0000000E+00;
 -2.0000000E-01;  9.9999998E-03;  2.0000000E-01;95;  0.0000000E+00;  0.0000000E+00;  0.0000000E+00;  1.0004959E+01;  4.0000001E-01;  5.3357399E-01;0;  0.0000000E+00;  0.0000000E+00;  0.0000000E+00;  0.0000000E+00;  0.0000000E+00;  0.0000000E+00;0;  8.9685454E-05;  1.0000000E+02;  0.0000000E+00;  0.0000000E+00;  1.0000000E+02;  0.0000000E+00;  1.0000000E+02;  9.4631905E-05;  0.0000000E+00; -4.9464534E-06;  0.0000000E+00;
 -2.0000000E-01;  9.9999998E-03;  4.0000001E-01;96;  0.0000000E+00;  0.0000000E+00;  0.0000000E+00;  1.0004498E+01;  4.0000001E-01;  4.8406449E-01;0;  0.0000000E+00;  0.0000000E+00;  0.0000000E+00;  0.0000000E+00;  0.0000000E+00;  0.0000000E+00;0;  8.6484593E-05;  1.0000000E+02;  0.0000000E+00;  0.0000000E+00;  1.0000000E+02;  0.0000000E+00;  1.0000000E+02;  9.0425281E-05;  0.0000000E+00; -3.9406887E-06;  0.0000000E+00;
 -2.0000000E-01;  9.9999998E-03;  6.0000002E-01;97;  0.0000000E+00;  0.0000000E+00;  0.0000000E+00;  1.0003895E+01;  4.0000001E-01;  4.1903517E-01;0;  0.0000000E+00;  0.0000000E+00;  0.0000000E+00;  0.0000000E+00;  0.0000000E+00;  0.0000000E+00;0;  8.2922474E-05;  1.0000000E+02;  0.0000000E+00;  0.0000000E+00;  1.0000000E+02;  0.0000000E+00;  1.0000000E+02;  8.5550855E-05;  0.0000000E+00; -2.6283797E-06;  0.0000000E+00;
 -2.0000000E-01;  9.9999998E-03;  8.0000001E-01;98;  0.0000000E+00;  0.0000000E+00;  0.0000000E+00;  1.0002934E+01;  4.0000001E-01;  3.1578347E-01;0;  0.0000000E+00;  0.0000000E+00;  0.0000000E+00;  0.0000000E+00;  0.0000000E+00;  0.0000000E+00;0;  7.9158490E-05;  1.0000000E+02;  0.0000000E+00;  0.0000000E+00;  1.0000000E+02;  0.0000000E+00;  1.0000000E+02;  8.0047015E-05;  0.0000000E+00; -8.8852443E-07;  0.0000000E+00;
 -2.0000000E-01;  9.9999998E-03;  1.0000000E+00;99;  0.0000000E+00;  0.0000000E+00;  0.0000000E+00;  1.0001940E+01;  4.0000001E-01;  2.0868388E-01;0;  0.0000000E+00;  0.0000000E+00;  0.0000000E+00;  0.0000000E+00;  0.0000000E+00;  0.0000000E+00;0;  7.2354313E-05;  1.0000000E+02;  0.0000000E+00;  0.0000000E+00;  1.0000000E+02;  0.0000000E+00;  1.0000000E+02;  7.1066424E-05;  0.0000000E+00;  1.2878859E-06;  0.0000000E+00;
 -2.0000000E-01;  9.9999998E-03;  1.2000000E+00;100;  0.0000000E+00;  0.0000000E+00;  0.0000000E+00;  1.0001245E+01;  4.0000001E-01;  1.3403481E-01;0;  0.0000000E+00;  0.0000000E+00;  0.0000000E+00;  0.0000000E+00;  0.0000000E+00;  0.0000000E+00;0;  6.0270486E-05;  1.0000000E+02;  0.0000000E+00;  0.0000000E+00;  1.0000000E+02;  0.0000000E+00;  1.0000000E+02;  5.6740377E-05;  0.0000000E+00;  3.5301091E-06;  0.0000000E+00;
 -2.0000000E-01;  9.9999998E-03;  1.4000000E+00;101;  0.0000000E+00;  0.0000000E+00;  0.0000000E+00;  1.0000671E+01;  4.0000001E-01;  7.2212055E-02;0;  0.0000000E+00;  0.0000000E+00;  0.0000000E+00;  0.0000000E+00;  0.0000000E+00;  0.0000000E+00;0;  4.4134817E-05;  1.0000000E+02;  0.0000000E+00;  0.0000000E+00;  1.0000000E+02;  0.0000000E+00;  1.0000000E+02;  3.8975184E-05;  0.0000000E+00;  5.1596307E-06;  0.0000000E+00;
  0.0000000E+00;  9.9999998E-03;  1.2000000E+00;110;  0.0000000E+00;  0.0000000E+00;  0.0000000E+00;  1.0000000E+01;  4.0000001E-01;  0.0000000E+00;0;  0.0000000E+00;  0.0000000E+00;  0.0000000E+00;  0.0000000E+00;  0.0000000E+00;  0.0000000E+00;0;  1.4188315E-04;  1.0000000E+02;  0.0000000E+00;  0.0000000E+00;  1.0000000E+02;  0.0000000E+00;  1.0000000E+02;  1.3418483E-04;  0.0000000E+00;  7.6983279E-06;  0.0000000E+00;
  0.0000000E+00;  9.9999998E-03;  1.4000000E+00;111;  0.0000000E+00;  0.0000000E+00;  0.0000000E+00;  1.0000000E+01;  4.0000001E-01;  0.0000000E+00;0;  0.0000000E+00;  0.0000000E+00;  0.0000000E+00;  0.0000000E+00;  0.0000000E+00;  0.0000000E+00;0;  1.0845991E-04;  1.0000000E+02;  0.0000000E+00;  0.0000000E+00;  1.0000000E+02;  0.0000000E+00;  1.0000000E+02;  9.8322795E-05;  0.0000000E+00;  1.0137114E-05;  0.0000000E+00;
  2.0000000E-01;  9.9999998E-03;  1.2000000E+00;120;  0.0000000E+00;  0.0000000E+00;  0.0000000E+00;  1.0000000E+01;  4.0000001E-01;  0.0000000E+00;0;  0.0000000E+00;  0.0000000E+00;  0.0000000E+00;  0.0000000E+00;  0.0000000E+00;  0.0000000E+00;0;  3.2124692E-04;  1.0000000E+02;  0.0000000E+00;  0.0000000E+00;  1.0000000E+02;  0.0000000E+00;  1.0000000E+02;  3.0872668E-04;  0.0000000E+00;  1.2520229E-05;  0.0000000E+00;
  2.0000000E-01;  9.9999998E-03;  1.4000000E+00;121;  0.0000000E+00;  0.0000000E+00;  0.0000000E+00;  1.0000000E+01;  4.0000001E-01;  0.0000000E+00;0;  0.0000000E+00;  0.0000000E+00;  0.0000000E+00;  0.0000000E+00;  0.0000000E+00;  0.0000000E+00;0;  2.4311489E-04;  1.0000000E+02;  0.0000000E+00;  0.0000000E+00;  1.0000000E+02;  0.0000000E+00;  1.0000000E+02;  2.2841577E-04;  0.0000000E+00;  1.4699124E-05;  0.0000000E+00;
  4.0000001E-01;  9.9999998E-03;  1.2000000E+00;130;  0.0000000E+00;  0.0000000E+00;  0.0000000E+00;  1.0000000E+01;  4.0000001E-01;  0.0000000E+00;0;  0.0000000E+00;  0.0000000E+00;  0.0000000E+00;  0.0000000E+00;  0.0000000E+00;  0.0000000E+00;0;  6.8133237E-04;  1.0000000E+02;  0.0000000E+00;  0.0000000E+00;  1.0000000E+02;  0.0000000E+00;  1.0000000E+02;  6.6691195E-04;  0.0000000E+00;  1.4420425E-05;  0.0000000E+00;
  4.0000001E-01;  9.9999998E-03;  1.4000000E+00;131;  0.0000000E+00;  0.0000000E+00;  0.0000000E+00;  1.0000000E+01;  4.0000001E-01;  0.0000000E+00;0;  0.0000000E+00;  0.0000000E+00;  0.0000000E+00;  0.0000000E+00;  0.0000000E+00;  0.0000000E+00;0;  5.0492160E-04;  1.0000000E+02;  0.0000000E+00;  0.0000000E+00;  1.0000000E+02;  0.0000000E+00;  1.0000000E+02;  4.8984081E-04;  0.0000000E+00;  1.5080786E-05;  0.0000000E+00;
  6.0000002E-01;  9.9999998E-03;  1.2000000E+00;140;  0.0000000E+00;  0.0000000E+00;  0.0000000E+00;  1.0000000E+01;  4.0000001E-01;  0.0000000E+00;0;  0.0000000E+00;  0.0000000E+00;  0.0000000E+00;  0.0000000E+00;  0.0000000E+00;  0.0000000E+00;0;  1.3027680E-03;  1.0000000E+02;  0.0000000E+00;  0.0000000E+00;  1.0000000E+02;  0.0000000E+00;  1.0000000E+02;  1.2946374E-03;  0.0000000E+00;  8.1305543E-06;  0.0000000E+00;
  6.0000002E-01;  9.9999998E-03;  1.4000000E+00;141;  0.0000000E+00;  0.0000000E+00;  0.0000000E+00;  1.0000000E+01;  4.0000001E-01;  0.0000000E+00;0;  0.0000000E+00;  0.0000000E+00;  0.0000000E+00;  0.0000000E+00;  0.0000000E+00;  0.0000000E+00;0;  9.5341029E-04;  1.0000000E+02;  0.0000000E+00;  0.0000000E+00;  1.0000000E+02;  0.0000000E+00;  1.0000000E+02;  9.4655872E-04;  0.0000000E+00;  6.8515446E-06;  0.0000000E+00;
  8.0000001E-01;  9.9999998E-03;  1.2000000E+00;150;  0.0000000E+00;  0.0000000E+00;  0.0000000E+00;  1.0000000E+01;  4.0000001E-01;  0.0000000E+00;0;  0.0000000E+00;  0.0000000E+00;  0.0000000E+00;  0.0000000E+00;  0.0000000E+00;  0.0000000E+00;0;  2.1776119E-03;  1.0000000E+02;  0.0000000E+00;  0.0000000E+00;  1.0000000E+02;  0.0000000E+00;  1.0000000E+02;  2.1868392E-03;  0.0000000E+00; -9.2272676E-06;  0.0000000E+00;
  8.0000001E-01;  9.9999998E-03;  1.4000000E+00;151;  0.0000000E+00;  0.0000000E+00;  0.0000000E+00;  1.0000000E+01;  4.0000001E-01;  0.0000000E+00;0;  0.0000000E+00;  0.0000000E+00;  0.0000000E+00;  0.0000000E+00;  0.0000000E+00;  0.0000000E+00;0;  1.5774721E-03;  1.0000000E+02;  0.0000000E+00;  0.0000000E+00;  1.0000000E+02;  0.0000000E+00;  1.0000000E+02;  1.5891283E-03;  0.0000000E+00; -1.1656216E-05;  0.0000000E+00;
  1.0000000E+00;  9.9999998E-03;  1.2000000E+00;160;  0.0000000E+00;  0.0000000E+00;  0.0000000E+00;  1.0000000E+01;  4.0000001E-01;  0.0000000E+00;0;  0.0000000E+00;  0.0000000E+00;  0.0000000E+00;  0.0000000E+00;  0.0000000E+00;  0.0000000E+00;0;  3.1554941E-03;  1.0000000E+02;  0.0000000E+00;  0.0000000E+00;  1.0000000E+02;  0.0000000E+00;  1.0000000E+02;  3.1889719E-03;  0.0000000E+00; -3.3477754E-05;  0.0000000E+00;
  1.0000000E+00;  9.9999998E-03;  1.4000000E+00;161;  0.0000000E+00;  0.0000000E+00;  0.0000000E+00;  1.0000000E+01;  4.0000001E-01;  0.0000000E+00;0;  0.0000000E+00;  0.0000000E+00;  0.0000000E+00;  0.0000000E+00;  0.0000000E+00;  0.0000000E+00;0;  2.2542917E-03;  1.0000000E+02;  0.0000000E+00;  0.0000000E+00;  1.0000000E+02;  0.0000000E+00;  1.0000000E+02;  2.2913506E-03;  0.0000000E+00; -3.7058937E-05;  0.0000000E+00;
 -1.0000000E+00;  9.9999998E-03;  1.6000000E+00;18;  0.0000000E+00;  0.0000000E+00;  0.0000000E+00;  1.0000038E+01;  4.0000001E-01;  4.1044205E-03;0;  0.0000000E+00;  0.0000000E+00;  0.0000000E+00;  0.0000000E+00;  0.0000000E+00;  0.0000000E+00;0; -7.6159324E-08;  1.0000000E+02;  0.0000000E+00;  0.0000000E+00;  1.0000000E+02;  0.0000000E+00;  1.0000000E+02;  6.9088156E-07;  0.0000000E+00; -7.6704089E-07;  0.0000000E+00;
 -1.0000000E+00;  9.9999998E-03;  1.8000000E+00;19;  0.0000000E+00;  0.0000000E+00;  0.0000000E+00;  1.0000000E+01;  4.0000001E-01;  0.0000000E+00;0;  0.0000000E+00;  0.0000000E+00;  0.0000000E+00;  0.0000000E+00;  0.0000000E+00;  0.0000000E+00;0; -2.9993163E-07;  1.0000000E+02;  0.0000000E+00;  0.0000000E+00;  1.0000000E+02;  0.0000000E+00;  1.0000000E+02;  1.8464748E-07;  0.0000000E+00; -4.8457912E-07;  0.0000000E+00;
 -1.0000000E+00;  9.9999998E-03;  2.0000000E+00;20;  0.0000000E+00;  0.0000000E+00;  0.0000000E+00;  1.0000000E+01;  4.0000001E-01;  0.0000000E+00;0;  0.0000000E+00;  0.0000000E+00;  0.0000000E+00;  0.0000000E+00;  0.0000000E+00;  0.0000000E+00;0; -1.6166867E-07;  1.0000000E+02;  0.0000000E+00;  0.0000000E+00;  1.0000000E+02;  0.0000000E+00;  1.0000000E+02;  2.6185029E-08;  0.0000000E+00; -1.8785370E-07;  0.0000000E+00;
 -8.0000001E-01;  9.9999998E-03;  1.6000000E+00;39;  0.0000000E+00;  0.0000000E+00;  0.0000000E+00;  1.0000361E+01;  4.0000001E-01;  3.8863726E-02;0;  0.0000000E+00;  0.0000000E+00;  0.0000000E+00;  0.0000000E+00;  0.0000000E+00;  0.0000000E+00;0;  8.2225097E-07;  1.0000000E+02;  0.0000000E+00;  0.0000000E+00;  1.0000000E+02;  0.0000000E+00;  1.0000000E+02;  1.8834183E-06;  0.0000000E+00; -1.0611674E-06;  0.0000000E+00;
 -8.0000001E-01;  9.9999998E-03;  1.8000000E+00;40;  0.0000000E+00;  0.0000000E+00;  0.0000000E+00;  1.0000087E+01;  4.0000001E-01;  9.3632080E-03;0;  0.0000000E+00;  0.0000000E+00;  0.0000000E+00;  0.0000000E+00;  0.0000000E+00;  0.0000000E+00;0; -1.3152277E-07;  1.0000000E+02;  0.0000000E+00;  0.0000000E+00;  1.0000000E+02;  0.0000000E+00;  1.0000000E+02;  6.4732075E-07;  0.0000000E+00; -7.7884351E-07;  0.0000000E+00;
 -8.0000001E-01;  9.9999998E-03;  2.0000000E+00;41;  0.0000000E+00;  0.0000000E+00;  0.0000000E+00;  1.0000000E+01;  4.0000001E-01;  0.0000000E+00;0;  0.0000000E+00;  0.0000000E+00;  0.0000000E+00;  0.0000000E+00;  0.0000000E+00;  0.0000000E+00;0; -2.4773317E-07;  1.0000000E+02;  0.0000000E+00;  0.0000000E+00;  1.0000000E+02;  0.0000000E+00;  1.0000000E+02;  1.4025292E-07;  0.0000000E+00; -3.8798609E-07;  0.0000000E+00;
 -6.0000002E-01;  9.9999998E-03;  1.6000000E+00;60;  0.0000000E+00;  0.0000000E+00;  0.0000000E+00;  1.0000634E+01;  4.0000001E-01;  6.8235978E-02;0;  0.0000000E+00;  0.0000000E+00;  0.0000000E+00;  0.0000000E+00;  0.0000000E+00;  0.0000000E+00;0;  3.0150400E-06;  1.0000000E+02;  0.0000000E+00;  0.0000000E+00;  1.0000000E+02;  0.0000000E+00;  1.0000000E+02;  3.5295504E-06;  0.0000000E+00; -5.1451042E-07;  0.0000000E+00;
 -6.0000002E-01;  9.9999998E-03;  1.8000000E+00;61;  0.0000000E+00;  0.0000000E+00;  0.0000000E+00;  1.0000278E+01;  4.0000001E-01;  3.0013569E-02;0;  0.0000000E+00;  0.0000000E+00;  0.0000000E+00;  0.0000000E+00;  0.0000000E+00;  0.0000000E+00;0;  8.5300053E-07;  1.0000000E+02;  0.0000000E+00;  0.0000000E+00;  1.0000000E+02;  0.0000000E+00;  1.0000000E+02;  1.3404164E-06;  0.0000000E+00; -4.8741583E-07;  0.0000000E+00;
 -6.0000002E-01;  9.9999998E-03;  2.0000000E+00;62;  0.0000000E+00;  0.0000000E+00;  0.0000000E+00;  1.0000000E+01;  4.0000001E-01;  0.0000000E+00;0;  0.0000000E+00;  0.0000000E+00;  0.0000000E+00;  0.0000000E+00;  0.0000000E+00;  0.0000000E+00;0;  2.4728052E-08;  1.0000000E+02;  0.0000000E+00;  0.0000000E+00;  1.0000000E+02;  0.0000000E+00;  1.0000000E+02;  3.9570304E-07;  0.0000000E+00; -3.7097499E-07;  0.0000000E+00;
 -4.0000001E-01;  9.9999998E-03;  1.6000000E+00;81;  0.0000000E+00;  0.0000000E+00;  0.0000000E+00;  1.0000803E+01;  4.0000001E-01;  8.6449310E-02;0;  0.0000000E+00;  0.0000000E+00;  0.0000000E+00;  0.0000000E+00;  0.0000000E+00;  0.0000000E+00;0;  9.2445807E-06;  1.0000000E+02;  0.0000000E+00;  0.0000000E+00;  1.0000000E+02;  0.0000000E+00;  1.0000000E+02;  7.6535543E-06;  0.0000000E+00;  1.5910265E-06;  0.0000000E+00;
 -4.0000001E-01;  9.9999998E-03;  1.8000000E+00;82;  0.0000000E+00;  0.0000000E+00;  0.0000000E+00;  1.0000381E+01;  4.0000001E-01;  4.0915918E-02;0;  0.0000000E+00;  0.0000000E+00;  0.0000000E+00;  0.0000000E+00;  0.0000000E+00;  0.0000000E+00;0;  4.0665363E-06;  1.0000000E+02;  0.0000000E+00;  0.0000000E+00;  1.0000000E+02;  0.0000000E+00;  1.0000000E+02;  2.9993732E-06;  0.0000000E+00;  1.0671632E-06;  0.0000000E+00;
 -4.0000001E-01;  9.9999998E-03;  2.0000000E+00;83;  0.0000000E+00;  0.0000000E+00;  0.0000000E+00;  1.0000092E+01;  4.0000001E-01;  9.8762559E-03;0;  0.0000000E+00;  0.0000000E+00;  0.0000000E+00;  0.0000000E+00;  0.0000000E+00;  0.0000000E+00;0;  1.2410238E-06;  1.0000000E+02;  0.0000000E+00;  0.0000000E+00;  1.0000000E+02;  0.0000000E+00;  1.0000000E+02;  9.0306344E-07;  0.0000000E+00;  3.3796042E-07;  0.0000000E+00;
 -2.0000000E-01;  9.9999998E-03;  1.6000000E+00;102;  0.0000000E+00;  0.0000000E+00;  0.0000000E+00;  1.0000227E+01;  4.0000001E-01;  2.4369966E-02;0;  0.0000000E+00;  0.0000000E+00;  0.0000000E+00;  0.0000000E+00;  0.0000000E+00;  0.0000000E+00;0;  2.7645605E-05;  1.0000000E+02;  0.0000000E+00;  0.0000000E+00;  1.0000000E+02;  0.0000000E+00;  1.0000000E+02;  2.2159262E-05;  0.0000000E+00;  5.4863426E-06;  0.0000000E+00;
 -2.0000000E-01;  9.9999998E-03;  1.8000000E+00;103;  0.0000000E+00;  0.0000000E+00;  0.0000000E+00;  1.0000424E+01;  4.0000001E-01;  4.5661621E-02;0;  0.0000000E+00;  0.0000000E+00;  0.0000000E+00;  0.0000000E+00;  0.0000000E+00;  0.0000000E+00;0;  1.4073880E-05;  1.0000000E+02;  0.0000000E+00;  0.0000000E+00;  1.0000000E+02;  0.0000000E+00;  1.0000000E+02;  9.8420060E-06;  0.0000000E+00;  4.2318743E-06;  0.0000000E+00;
 -2.0000000E-01;  9.9999998E-03;  2.0000000E+00;104;  0.0000000E+00;  0.0000000E+00;  0.0000000E+00;  1.0000140E+01;  4.0000001E-01;  1.5135032E-02;0;  0.0000000E+00;  0.0000000E+00;  0.0000000E+00;  0.0000000E+00;  0.0000000E+00;  0.0000000E+00;0;  5.1407987E-06;  1.0000000E+02;  0.0000000E+00;  0.0000000E+00;  1.0000000E+02;  0.0000000E+00;  1.0000000E+02;  3.0357878E-06;  0.0000000E+00;  2.1050109E-06;  0.0000000E+00;
  0.0000000E+00;  9.9999998E-03;  1.6000000E+00;112;  0.0000000E+00;  0.0000000E+00;  0.0000000E+00;  1.0000000E+01;  4.0000001E-01;  0.0000000E+00;0;  0.0000000E+00;  0.0000000E+00;  0.0000000E+00;  0.0000000E+00;  0.0000000E+00;  0.0000000E+00;0;  7.1137976E-05;  1.0000000E+02;  0.0000000E+00;  0.0000000E+00;  1.0000000E+02;  0.0000000E+00;  1.0000000E+02;  6.0788312E-05;  0.0000000E+00;  1.0349666E-05;  0.0000000E+00;
  0.0000000E+00;  9.9999998E-03;  1.8000000E+00;113;  0.0000000E+00;  0.0000000E+00;  0.0000000E+00;  1.0000000E+01;  4.0000001E-01;  0.0000000E+00;0;  0.0000000E+00;  0.0000000E+00;  0.0000000E+00;  0.0000000E+00;  0.0000000E+00;  0.0000000E+00;0;  3.8676626E-05;  1.0000000E+02;  0.0000000E+00;  0.0000000E+00;  1.0000000E+02;  0.0000000E+00;  1.0000000E+02;  3.0444953E-05;  0.0000000E+00;  8.2316710E-06;  0.0000000E+00;
  0.0000000E+00;  9.9999998E-03;  2.0000000E+00;114;  0.0000000E+00;  0.0000000E+00;  0.0000000E+00;  1.0000150E+01;  4.0000001E-01;  1.6161108E-02;0;  0.0000000E+00;  0.0000000E+00;  0.0000000E+00;  0.0000000E+00;  0.0000000E+00;  0.0000000E+00;0;  1.5960579E-05;  1.0000000E+02;  0.0000000E+00;  0.0000000E+00;  1.0000000E+02;  0.0000000E+00;  1.0000000E+02;  1.1324846E-05;  0.0000000E+00;  4.6357327E-06;  0.0000000E+00;
  2.0000000E-01;  9.9999998E-03;  1.6000000E+00;122;  0.0000000E+00;  0.0000000E+00;  0.0000000E+00;  1.0000000E+01;  4.0000001E-01;  0.0000000E+00;0;  0.0000000E+00;  0.0000000E+00;  0.0000000E+00;  0.0000000E+00;  0.0000000E+00;  0.0000000E+00;0;  1.6076400E-04;  1.0000000E+02;  0.0000000E+00;  0.0000000E+00;  1.0000000E+02;  0.0000000E+00;  1.0000000E+02;  1.4674886E-04;  0.0000000E+00;  1.4015144E-05;  0.0000000E+00;
  2.0000000E-01;  9.9999998E-03;  1.8000000E+00;123;  0.0000000E+00;  0.0000000E+00;  0.0000000E+00;  1.0000000E+01;  4.0000001E-01;  0.0000000E+00;0;  0.0000000E+00;  0.0000000E+00;  0.0000000E+00;  0.0000000E+00;  0.0000000E+00;  0.0000000E+00;0;  9.0224479E-05;  1.0000000E+02;  0.0000000E+00;  0.0000000E+00;  1.0000000E+02;  0.0000000E+00;  1.0000000E+02;  7.9177953E-05;  0.0000000E+00;  1.1046523E-05;  0.0000000E+00;
  2.0000000E-01;  9.9999998E-03;  2.0000000E+00;124;  0.0000000E+00;  0.0000000E+00;  0.0000000E+00;  1.0000000E+01;  4.0000001E-01;  0.0000000E+00;0;  0.0000000E+00;  0.0000000E+00;  0.0000000E+00;  0.0000000E+00;  0.0000000E+00;  0.0000000E+00;0;  4.0194827E-05;  1.0000000E+02;  0.0000000E+00;  0.0000000E+00;  1.0000000E+02;  0.0000000E+00;  1.0000000E+02;  3.3561791E-05;  0.0000000E+00;  6.6330354E-06;  0.0000000E+00;
  4.0000001E-01;  9.9999998E-03;  1.6000000E+00;132;  0.0000000E+00;  0.0000000E+00;  0.0000000E+00;  1.0000000E+01;  4.0000001E-01;  0.0000000E+00;0;  0.0000000E+00;  0.0000000E+00;  0.0000000E+00;  0.0000000E+00;  0.0000000E+00;  0.0000000E+00;0;  3.3087310E-04;  1.0000000E+02;  0.0000000E+00;  0.0000000E+00;  1.0000000E+02;  0.0000000E+00;  1.0000000E+02;  3.1766860E-04;  0.0000000E+00;  1.3204489E-05;  0.0000000E+00;
  4.0000001E-01;  9.9999998E-03;  1.8000000E+00;133;  0.0000000E+00;  0.0000000E+00;  0.0000000E+00;  1.0000000E+01;  4.0000001E-01;  0.0000000E+00;0;  0.0000000E+00;  0.0000000E+00;  0.0000000E+00;  0.0000000E+00;  0.0000000E+00;  0.0000000E+00;0;  1.8838669E-04;  1.0000000E+02;  0.0000000E+00;  0.0000000E+00;  1.0000000E+02;  0.0000000E+00;  1.0000000E+02;  1.7831229E-04;  0.0000000E+00;  1.0074401E-05;  0.0000000E+00;
  4.0000001E-01;  9.9999998E-03;  2.0000000E+00;134;  0.0000000E+00;  0.0000000E+00;  0.0000000E+00;  1.0000000E+01;  4.0000001E-01;  0.0000000E+00;0;  0.0000000E+00;  0.0000000E+00;  0.0000000E+00;  0.0000000E+00;  0.0000000E+00;  0.0000000E+00;0;  8.8382265E-05;  1.0000000E+02;  0.0000000E+00;  0.0000000E+00;  1.0000000E+02;  0.0000000E+00;  1.0000000E+02;  8.2023660E-05;  0.0000000E+00;  6.3586035E-06;  0.0000000E+00;
  6.0000002E-01;  9.9999998E-03;  1.6000000E+00;142;  0.0000000E+00;  0.0000000E+00;  0.0000000E+00;  1.0000000E+01;  4.0000001E-01;  0.0000000E+00;0;  0.0000000E+00;  0.0000000E+00;  0.0000000E+00;  0.0000000E+00;  0.0000000E+00;  0.0000000E+00;0;  6.1861414E-04;  1.0000000E+02;  0.0000000E+00;  0.0000000E+00;  1.0000000E+02;  0.0000000E+00;  1.0000000E+02;  6.1375281E-04;  0.0000000E+00;  4.8613156E-06;  0.0000000E+00;
  6.0000002E-01;  9.9999998E-03;  1.8000000E+00;143;  0.0000000E+00;  0.0000000E+00;  0.0000000E+00;  1.0000000E+01;  4.0000001E-01;  0.0000000E+00;0;  0.0000000E+00;  0.0000000E+00;  0.0000000E+00;  0.0000000E+00;  0.0000000E+00;  0.0000000E+00;0;  3.5509231E-04;  1.0000000E+02;  0.0000000E+00;  0.0000000E+00;  1.0000000E+02;  0.0000000E+00;  1.0000000E+02;  3.5181528E-04;  0.0000000E+00;  3.2770249E-06;  0.0000000E+00;
  6.0000002E-01;  9.9999998E-03;  2.0000000E+00;144;  0.0000000E+00;  0.0000000E+00;  0.0000000E+00;  1.0000000E+01;  4.0000001E-01;  0.0000000E+00;0;  0.0000000E+00;  0.0000000E+00;  0.0000000E+00;  0.0000000E+00;  0.0000000E+00;  0.0000000E+00;0;  1.7375400E-04;  1.0000000E+02;  0.0000000E+00;  0.0000000E+00;  1.0000000E+02;  0.0000000E+00;  1.0000000E+02;  1.7136002E-04;  0.0000000E+00;  2.3939779E-06;  0.0000000E+00;
  8.0000001E-01;  9.9999998E-03;  1.6000000E+00;152;  0.0000000E+00;  0.0000000E+00;  0.0000000E+00;  1.0000000E+01;  4.0000001E-01;  0.0000000E+00;0;  0.0000000E+00;  0.0000000E+00;  0.0000000E+00;  0.0000000E+00;  0.0000000E+00;  0.0000000E+00;0;  1.0120509E-03;  1.0000000E+02;  0.0000000E+00;  0.0000000E+00;  1.0000000E+02;  0.0000000E+00;  1.0000000E+02;  1.0238031E-03;  0.0000000E+00; -1.1752262E-05;  0.0000000E+00;
  8.0000001E-01;  9.9999998E-03;  1.8000000E+00;153;  0.0000000E+00;  0.0000000E+00;  0.0000000E+00;  1.0000000E+01;  4.0000001E-01;  0.0000000E+00;0;  0.0000000E+00;  0.0000000E+00;  0.0000000E+00;  0.0000000E+00;  0.0000000E+00;  0.0000000E+00;0;  5.8452552E-04;  1.0000000E+02;  0.0000000E+00;  0.0000000E+00;  1.0000000E+02;  0.0000000E+00;  1.0000000E+02;  5.9458823E-04;  0.0000000E+00; -1.0062710E-05;  0.0000000E+00;
  8.0000001E-01;  9.9999998E-03;  2.0000000E+00;154;  0.0000000E+00;  0.0000000E+00;  0.0000000E+00;  1.0000000E+01;  4.0000001E-01;  0.0000000E+00;0;  0.0000000E+00;  0.0000000E+00;  0.0000000E+00;  0.0000000E+00;  0.0000000E+00;  0.0000000E+00;0;  2.9970746E-04;  1.0000000E+02;  0.0000000E+00;  0.0000000E+00;  1.0000000E+02;  0.0000000E+00;  1.0000000E+02;  3.0614669E-04;  0.0000000E+00; -6.4392293E-06;  0.0000000E+00;
  1.0000000E+00;  9.9999998E-03;  1.6000000E+00;162;  0.0000000E+00;  0.0000000E+00;  0.0000000E+00;  1.0000000E+01;  4.0000001E-01;  0.0000000E+00;0;  0.0000000E+00;  0.0000000E+00;  0.0000000E+00;  0.0000000E+00;  0.0000000E+00;  0.0000000E+00;0;  1.4198862E-03;  1.0000000E+02;  0.0000000E+00;  0.0000000E+00;  1.0000000E+02;  0.0000000E+00;  1.0000000E+02;  1.4542937E-03;  0.0000000E+00; -3.4407498E-05;  0.0000000E+00;
  1.0000000E+00;  9.9999998E-03;  1.8000000E+00;163;  0.0000000E+00;  0.0000000E+00;  0.0000000E+00;  1.0000000E+01;  4.0000001E-01;  0.0000000E+00;0;  0.0000000E+00;  0.0000000E+00;  0.0000000E+00;  0.0000000E+00;  0.0000000E+00;  0.0000000E+00;0;  8.1406953E-04;  1.0000000E+02;  0.0000000E+00;  0.0000000E+00;  1.0000000E+02;  0.0000000E+00;  1.0000000E+02;  8.4330392E-04;  0.0000000E+00; -2.9234368E-05;  0.0000000E+00;
  1.0000000E+00;  9.9999998E-03;  2.0000000E+00;164;  0.0000000E+00;  0.0000000E+00;  0.0000000E+00;  1.0000000E+01;  4.0000001E-01;  0.0000000E+00;0;  0.0000000E+00;  0.0000000E+00;  0.0000000E+00;  0.0000000E+00;  0.0000000E+00;  0.0000000E+00;0;  4.3307795E-04;  1.0000000E+02;  0.0000000E+00;  0.0000000E+00;  1.0000000E+02;  0.0000000E+00;  1.0000000E+02;  4.5467637E-04;  0.0000000E+00; -2.1598407E-05;  0.0000000E+00;
 -5.0698285E-04;  9.9999998E-03; -1.0000967E+00;165;  9.9618330E-07;  0.0000000E+00; -3.6144822E-05;  9.9988527E+00;  4.0000668E-01; -1.2345292E-01;3;  2.9439092E-04;  0.0000000E+00; -4.4498122E-03;  0.0000000E+00;  0.0000000E+00;  0.0000000E+00;0;  1.6424365E-04;  9.9974007E+01;  0.0000000E+00; -1.2368821E-04;  1.0000000E+02;  0.0000000E+00;  9.9998260E+01;  1.5887343E-04;  0.0000000E+00;  5.3702315E-06;  0.0000000E+00;
 -4.8687405E-04;  9.9999998E-03; -8.0008590E-01;166;  4.3104217E-05;  0.0000000E+00; -4.7912261E-05;  9.9988241E+00;  3.9998329E-01; -1.2653123E-01;3; -4.2929919E-04;  0.0000000E+00; -8.1697963E-03;  0.0000000E+00;  0.0000000E+00;  0.0000000E+00;0;  1.6785521E-04;  9.9982162E+01;  0.0000000E+00; -8.7065098E-05;  1.0000000E+02;  0.0000000E+00;  1.0000000E+02;  1.6825763E-04;  0.0000000E+00; -4.0241684E-07;  0.0000000E+00;
 -4.3541618E-04;  9.9999998E-03; -6.0005701E-01;167;  9.2155140E-05;  0.0000000E+00; -4.1490079E-05;  9.9988050E+00;  3.9994916E-01; -1.2858342E-01;3; -2.3203383E-03;  0.0000000E+00; -4.2150081E-03;  0.0000000E+00;  0.0000000E+00;  0.0000000E+00;0;  1.6175301E-04;  9.9995468E+01;  0.0000000E+00; -3.4181518E-05;  1.0000000E+02;  0.0000000E+00;  9.9998749E+01;  1.6663583E-04;  0.0000000E+00; -4.8828233E-06;  0.0000000E+00;
 -3.5797575E-04;  9.9999998E-03; -4.0001509E-01;168;  1.5047134E-04;  0.0000000E+00; -1.4897773E-05;  9.9987965E+00;  3.9991763E-01; -1.2948126E-01;3; -2.4284001E-03;  0.0000000E+00;  6.9866903E-05;  0.0000000E+00;  0.0000000E+00;  0.0000000E+00;0;  1.5177499E-04;  1.0001012E+02;  0.0000000E+00; -5.8556411E-06;  1.0000000E+02;  0.0000000E+00;  1.0000713E+02;  1.6019696E-04;  0.0000000E+00; -8.4219591E-06;  0.0000000E+00;
 -3.0820238E-04;  9.9999998E-03; -2.0000534E-01;169;  1.8727958E-04;  0.0000000E+00; -5.4985762E-06;  9.9987936E+00;  3.9989373E-01; -1.2980191E-01;3; -1.0460370E-03;  0.0000000E+00;  9.9598814E-04;  0.0000000E+00;  0.0000000E+00;  0.0000000E+00;0;  1.4330250E-04;  1.0002081E+02;  0.0000000E+00;  1.2161722E-07;  1.0000000E+02;  0.0000000E+00;  1.0000678E+02;  1.5436522E-04;  0.0000000E+00; -1.1062717E-05;  0.0000000E+00;
  1.9935367E-01;  9.9999998E-03; -9.9990684E-01;176; -5.3328853E-07;  0.0000000E+00;  2.1632421E-05;  9.9978905E+00;  4.0024930E-01; -2.2696018E-01;3;  5.7976963E-03;  0.0000000E+00; -1.3737464E-02;  0.0000000E+00;  0.0000000E+00;  0.0000000E+00;0;  3.7449176E-04;  9.9833900E+01;  0.0000000E+00; -3.3778223E-04;  1.0000000E+02;  0.0000000E+00;  1.0000108E+02;  3.6920165E-04;  0.0000000E+00;  5.2901078E-06;  0.0000000E+00;
  1.9935253E-01;  9.9999998E-03; -7.9995096E-01;177;  1.2384380E-05;  0.0000000E+00; -9.7435884E-07;  9.9977303E+00;  4.0026426E-01; -2.4421147E-01;3;  7.2184978E-03;  0.0000000E+00; -1.5237344E-02;  0.0000000E+00;  0.0000000E+00;  0.0000000E+00;0;  4.0134453E-04;  9.9817619E+01;  0.0000000E+00; -3.6468048E-04;  1.0000000E+02;  0.0000000E+00;  9.9999870E+01;  4.0221179E-04;  0.0000000E+00; -8.6727437E-07;  0.0000000E+00;
  1.9937356E-01;  9.9999998E-03; -5.9997165E-01;178;  4.0123767E-05;  0.0000000E+00; -2.4885135E-06;  9.9976244E+00;  4.0025869E-01; -2.5562683E-01;3;  9.7833071E-03;  0.0000000E+00; -1.2435310E-02;  0.0000000E+00;  0.0000000E+00;  0.0000000E+00;0;  4.0299920E-04;  9.9817284E+01;  0.0000000E+00; -2.1772896E-04;  1.0000000E+02;  0.0000000E+00;  1.0000382E+02;  4.1060965E-04;  0.0000000E+00; -7.6104589E-06;  0.0000000E+00;
  1.9943790E-01;  9.9999998E-03; -3.9997426E-01;179;  9.3502087E-05;  0.0000000E+00;  7.4589466E-06;  9.9975882E+00;  4.0023467E-01; -2.5947469E-01;3;  1.2456855E-02;  0.0000000E+00; -7.1374411E-03;  0.0000000E+00;  0.0000000E+00;  0.0000000E+00;0;  3.9194210E-04;  9.9827484E+01;  0.0000000E+00; -7.4901887E-05;  1.0000000E+02;  0.0000000E+00;  1.0000698E+02;  4.0499176E-04;  0.0000000E+00; -1.3049653E-05;  0.0000000E+00;
  1.9948573E-01;  9.9999998E-03; -1.9998667E-01;180;  1.2958278E-04;  0.0000000E+00;  5.0348444E-06;  9.9976168E+00;  4.0020949E-01; -2.5639638E-01;3;  1.4455304E-02;  0.0000000E+00; -2.8827912E-03;  0.0000000E+00;  0.0000000E+00;  0.0000000E+00;0;  3.7956628E-04;  9.9839577E+01;  0.0000000E+00; -1.1182799E-05;  1.0000000E+02;  0.0000000E+00;  1.0000661E+02;  3.9626079E-04;  0.0000000E+00; -1.6694496E-05;  0.0000000E+00;
  3.9939624E-01;  9.9999998E-03; -9.9977708E-01;187;  5.6432436E-05;  0.0000000E+00;  1.1355170E-04;  9.9964857E+00;  4.0073761E-01; -3.7811437E-01;3; -2.5769414E-02;  0.0000000E+00; -1.1994054E-01;  0.0000000E+00;  0.0000000E+00;  0.0000000E+00;0;  8.1232842E-04;  9.9560555E+01;  0.0000000E+00;  5.9868273E-04;  1.0000000E+02;  0.0000000E+00;  1.0000108E+02;  8.1546564E-04;  0.0000000E+00; -3.1372110E-06;  0.0000000E+00;
  3.9926392E-01;  9.9999998E-03; -7.9982054E-01;188; -3.8462995E-06;  0.0000000E+00;  7.4903546E-05;  9.9961014E+00;  4.0082952E-01; -4.1947865E-01;3; -2.5437593E-02;  0.0000000E+00; -9.5441550E-02;  0.0000000E+00;  0.0000000E+00;  0.0000000E+00;0;  8.8709313E-04;  9.9507851E+01;  0.0000000E+00; -4.2764336E-04;  1.0000000E+02;  0.0000000E+00;  9.9999763E+01;  8.9172315E-04;  0.0000000E+00; -4.6300120E-06;  0.0000000E+00;
  3.9923489E-01;  9.9999998E-03; -5.9988964E-01;189;  7.0398742E-06;  0.0000000E+00;  4.2292711E-05;  9.9959698E+00;  4.0085298E-01; -4.3365154E-01;3; -2.5084572E-02;  0.0000000E+00; -6.5400898E-02;  0.0000000E+00;  0.0000000E+00;  0.0000000E+00;0;  9.1603561E-04;  9.9488861E+01;  0.0000000E+00; -6.0301006E-04;  1.0000000E+02;  0.0000000E+00;  1.0000744E+02;  9.2576491E-04;  0.0000000E+00; -9.7293232E-06;  0.0000000E+00;
  3.9926973E-01;  9.9999998E-03; -3.9993450E-01;190;  5.4667893E-05;  0.0000000E+00;  2.5707288E-05;  9.9959545E+00;  4.0083754E-01; -4.3525481E-01;3; -2.6264550E-02;  0.0000000E+00; -3.7343733E-02;  0.0000000E+00;  0.0000000E+00;  0.0000000E+00;0;  9.1766205E-04;  9.9493271E+01;  0.0000000E+00; -3.1582595E-04;  1.0000000E+02;  0.0000000E+00;  1.0000670E+02;  9.3207369E-04;  0.0000000E+00; -1.4411657E-05;  0.0000000E+00;
  3.9931169E-01;  9.9999998E-03; -1.9996652E-01;191;  9.5829964E-05;  0.0000000E+00;  1.4368324E-05;  9.9959679E+00;  4.0081272E-01; -4.3384391E-01;3; -2.7176604E-02;  0.0000000E+00; -1.6035255E-02;  0.0000000E+00;  0.0000000E+00;  0.0000000E+00;0;  9.1163919E-04;  9.9504921E+01;  0.0000000E+00; -6.9015106E-05;  1.0000000E+02;  0.0000000E+00;  1.0000655E+02;  9.2899136E-04;  0.0000000E+00; -1.7352151E-05;  0.0000000E+00;
  5.9951234E-01;  9.9999998E-03; -9.9967819E-01;198;  5.3358519E-05;  0.0000000E+00;  1.9277267E-04;  9.9948664E+00;  4.0154910E-01; -5.5234772E-01;3;  2.4908798E-02;  0.0000000E+00; -1.6510016E-01;  0.0000000E+00;  0.0000000E+00;  0.0000000E+00;0;  1.5562394E-03;  9.9115959E+01;  0.0000000E+00;  8.2016299E-03;  1.0000000E+02;  0.0000000E+00;  1.0001079E+02;  1.5845869E-03;  0.0000000E+00; -2.8347480E-05;  0.0000000E+00;
  5.9919351E-01;  9.9999998E-03; -7.9973334E-01;199; -6.3873464E-05;  0.0000000E+00;  1.3920332E-04;  9.9943542E+00;  4.0171909E-01; -6.0743499E-01;3;  9.6079689E-03;  0.0000000E+00; -1.2514968E-01;  0.0000000E+00;  0.0000000E+00;  0.0000000E+00;0;  1.7047708E-03;  9.9027145E+01;  0.0000000E+00;  2.3541325E-03;  1.0000000E+02;  0.0000000E+00;  1.0000734E+02;  1.7201462E-03;  0.0000000E+00; -1.5375364E-05;  0.0000000E+00;
  5.9914666E-01;  9.9999998E-03; -5.9984058E-01;200; -3.5317138E-05;  0.0000000E+00;  7.5695527E-05;  9.9940834E+00;  4.0178177E-01; -6.3654983E-01;3; -8.9270138E-04;  0.0000000E+00; -7.8388594E-02;  0.0000000E+00;  0.0000000E+00;  0.0000000E+00;0;  1.7828908E-03;  9.8991768E+01;  0.0000000E+00; -5.2777195E-04;  1.0000000E+02;  0.0000000E+00;  1.0000454E+02;  1.7925644E-03;  0.0000000E+00; -9.6736912E-06;  0.0000000E+00;
  5.9917456E-01;  9.9999998E-03; -3.9991388E-01;201;  2.8765091E-05;  0.0000000E+00;  3.6997179E-05;  9.9939833E+00;  4.0177724E-01; -6.4732361E-01;3; -6.5868231E-03;  0.0000000E+00; -4.1868951E-02;  0.0000000E+00;  0.0000000E+00;  0.0000000E+00;0;  1.8105325E-03;  9.8994652E+01;  0.0000000E+00; -7.0744928E-04;  1.0000000E+02;  0.0000000E+00;  1.0000236E+02;  1.8192577E-03;  0.0000000E+00; -8.7252174E-06;  0.0000000E+00;
  5.9921449E-01;  9.9999998E-03; -1.9995818E-01;202;  8.1502665E-05;  0.0000000E+00;  1.7789065E-05;  9.9939442E+00;  4.0174618E-01; -6.5155613E-01;3; -1.0622261E-02;  0.0000000E+00; -1.7220670E-02;  0.0000000E+00;  0.0000000E+00;  0.0000000E+00;0;  1.8206703E-03;  9.9009674E+01;  0.0000000E+00; -2.0350375E-04;  1.0000000E+02;  0.0000000E+00;  1.0000114E+02;  1.8294118E-03;  0.0000000E+00; -8.7415146E-06;  0.0000000E+00;
  8.0091399E-01;  9.9999998E-03; -9.9998671E-01;209;  7.4501807E-04;  0.0000000E+00; -3.4207595E-05;  9.9925032E+00;  4.0290046E-01; -8.0658960E-01;3;  1.6389790E-01;  0.0000000E+00; -1.1832567E-01;  0.0000000E+00;  0.0000000E+00;  0.0000000E+00;0;  2.9414415E-03;  9.8415154E+01;  0.0000000E+00;  2.6921036E-02;  1.0000000E+02;  0.0000000E+00;  1.0000304E+02;  2.9344554E-03;  0.0000000E+00;  6.9860598E-06;  0.0000000E+00;
  7.9930174E-01;  9.9999998E-03; -7.9987210E-01;210; -1.2195703E-04;  0.0000000E+00;  7.9294470E-05;  9.9926834E+00;  4.0296036E-01; -7.8715950E-01;3;  7.3064364E-02;  0.0000000E+00; -1.1123792E-01;  0.0000000E+00;  0.0000000E+00;  0.0000000E+00;0;  2.8595028E-03;  9.8385185E+01;  0.0000000E+00;  1.3422498E-02;  1.0000000E+02;  0.0000000E+00;  1.0000465E+02;  2.8739111E-03;  0.0000000E+00; -1.4408339E-05;  0.0000000E+00;
  7.9914564E-01;  9.9999998E-03; -5.9990525E-01;211; -9.6408970E-05;  0.0000000E+00;  5.5475433E-05;  9.9923639E+00;  4.0304154E-01; -8.2153165E-01;3;  2.0627573E-02;  0.0000000E+00; -7.4807636E-02;  0.0000000E+00;  0.0000000E+00;  0.0000000E+00;0;  2.9808858E-03;  9.8347748E+01;  0.0000000E+00;  1.9236994E-03;  1.0000000E+02;  0.0000000E+00;  9.9997978E+01;  2.9821943E-03;  0.0000000E+00; -1.3085373E-06;  0.0000000E+00;
  7.9913944E-01;  9.9999998E-03; -3.9995605E-01;212; -3.5474054E-07;  0.0000000E+00;  1.6618815E-05;  9.9922228E+00;  4.0302446E-01; -8.3672976E-01;3;  4.1921595E-03;  0.0000000E+00; -3.8371507E-02;  0.0000000E+00;  0.0000000E+00;  0.0000000E+00;0;  3.0352031E-03;  9.8358406E+01;  0.0000000E+00; -8.3964516E-04;  1.0000000E+02;  0.0000000E+00;  9.9994041E+01;  3.0282571E-03;  0.0000000E+00;  6.9459547E-06;  0.0000000E+00;
  7.9918635E-01;  9.9999998E-03; -1.9997780E-01;213;  7.4036572E-05;  0.0000000E+00;  7.1139580E-06;  9.9922075E+00;  4.0297326E-01; -8.3839709E-01;3; -3.2606837E-03;  0.0000000E+00; -1.5484300E-02;  0.0000000E+00;  0.0000000E+00;  0.0000000E+00;0;  3.0620585E-03;  9.8382607E+01;  0.0000000E+00; -3.7064281E-04;  1.0000000E+02;  0.0000000E+00;  9.9992531E+01;  3.0520048E-03;  0.0000000E+00;  1.0053563E-05;  0.0000000E+00;
  1.0081890E+00;  9.9999998E-03; -1.0004715E+00;220;  3.3225201E-03;  0.0000000E+00; -1.7708026E-04;  9.9889555E+00;  4.0565500E-01; -1.1881649E+00;3;  1.5520497E-02;  0.0000000E+00; -1.2984191E-03;  0.0000000E+00;  0.0000000E+00;  0.0000000E+00;0;  5.5358866E-03;  9.7058990E+01;  0.0000000E+00;  4.7699329E-03;  1.0000000E+02;  0.0000000E+00;  9.9958221E+01;  5.4608253E-03;  0.0000000E+00;  7.5061223E-05;  0.0000000E+00;
  1.0018172E+00;  9.9999998E-03; -8.0042738E-01;221;  8.8805257E-04;  0.0000000E+00; -2.6388027E-04;  9.9907951E+00;  4.0474877E-01; -9.9022686E-01;3;  1.0430660E-01;  0.0000000E+00;  6.8835258E-03;  0.0000000E+00;  0.0000000E+00;  0.0000000E+00;0;  4.6038809E-03;  9.7525681E+01;  0.0000000E+00;  2.4737470E-02;  1.0000000E+02;  0.0000000E+00;  9.9959999E+01;  4.4966685E-03;  0.0000000E+00;  1.0721257E-04;  0.0000000E+00;
  1.0011154E+00;  9.9999998E-03; -6.0011435E-01;222; -1.2886478E-04;  0.0000000E+00; -3.3210406E-06;  9.9911890E+00;  4.0467700E-01; -9.4784307E-01;3;  3.0937001E-02;  0.0000000E+00; -4.7755186E-02;  0.0000000E+00;  0.0000000E+00;  0.0000000E+00;0;  4.4080168E-03;  9.7548294E+01;  0.0000000E+00;  4.7245915E-03;  1.0000000E+02;  0.0000000E+00;  9.9979820E+01;  4.3856786E-03;  0.0000000E+00;  2.2338314E-05;  0.0000000E+00;
  1.0011863E+00;  9.9999998E-03; -4.0015590E-01;223; -2.0791331E-05;  0.0000000E+00; -2.6182750E-05;  9.9910479E+00;  4.0458664E-01; -9.6303982E-01;3;  7.5313020E-03;  0.0000000E+00; -2.7888056E-02;  0.0000000E+00;  0.0000000E+00;  0.0000000E+00;0;  4.4785221E-03;  9.7590256E+01;  0.0000000E+00; -1.3848871E-03;  1.0000000E+02;  0.0000000E+00;  9.9981064E+01;  4.4465251E-03;  0.0000000E+00;  3.1997162E-05;  0.0000000E+00;
  1.0006393E+00;  9.9999998E-03; -2.0009023E-01;224;  6.7005269E-05;  0.0000000E+00; -2.2382295E-05;  9.9910250E+00;  4.0447128E-01; -9.6554089E-01;3;  1.0038081E-04;  0.0000000E+00; -1.2098371E-02;  0.0000000E+00;  0.0000000E+00;  0.0000000E+00;0;  4.5054853E-03;  9.7641304E+01;  0.0000000E+00; -6.0832559E-04;  1.0000000E+02;  0.0000000E+00;  9.9982941E+01;  4.4701099E-03;  0.0000000E+00;  3.5375186E-05;  0.0000000E+00;
  1.2112592E+00;  9.9999998E-03; -1.0003803E+00;231;  4.3266322E-03;  0.0000000E+00; -1.5021539E-04;  9.9885969E+00;  4.0768087E-01; -1.2264524E+00;3; -1.0790608E-02;  0.0000000E+00;  3.4292150E-02;  0.0000000E+00;  0.0000000E+00;  0.0000000E+00;0;  7.2162966E-03;  9.6097763E+01;  0.0000000E+00; -9.7871281E-04;  1.0000000E+02;  0.0000000E+00;  9.9948044E+01;  7.1237627E-03;  0.0000000E+00;  9.2533824E-05;  0.0000000E+00;
  1.2076136E+00;  9.9999998E-03; -8.0031973E-01;232;  2.9502166E-03;  0.0000000E+00; -1.8234592E-04;  9.9896297E+00;  4.0699539E-01; -1.1153588E+00;3;  5.1685743E-02;  0.0000000E+00;  3.1943157E-02;  0.0000000E+00;  0.0000000E+00;  0.0000000E+00;0;  6.5495651E-03;  9.6444221E+01;  0.0000000E+00;  9.9022314E-03;  1.0000000E+02;  0.0000000E+00;  9.9946487E+01;  6.4290259E-03;  0.0000000E+00;  1.2053908E-04;  0.0000000E+00;
  1.2034713E+00;  9.9999998E-03; -6.0001570E-01;233;  2.0287058E-05;  0.0000000E+00;  3.6105914E-05;  9.9906349E+00;  4.0656027E-01; -1.0072778E+00;3;  3.7291512E-02;  0.0000000E+00; -2.4772940E-02;  0.0000000E+00;  0.0000000E+00;  0.0000000E+00;0;  5.9024543E-03;  9.6645363E+01;  0.0000000E+00;  6.7139883E-03;  1.0000000E+02;  0.0000000E+00;  9.9971863E+01;  5.8804061E-03;  0.0000000E+00;  2.2047925E-05;  0.0000000E+00;
  1.2051244E+00;  9.9999998E-03; -4.0021703E-01;234;  2.6935204E-05;  0.0000000E+00;  1.0205937E-05;  9.9905014E+00;  4.0649578E-01; -1.0216359E+00;3;  7.5349030E-03;  0.0000000E+00; -1.5685115E-02;  0.0000000E+00;  0.0000000E+00;  0.0000000E+00;0;  5.9957211E-03;  9.6679703E+01;  0.0000000E+00; -3.8217050E-03;  1.0000000E+02;  0.0000000E+00;  9.9963158E+01;  5.9510204E-03;  0.0000000E+00;  4.4700795E-05;  0.0000000E+00;
  1.2075140E+00;  9.9999998E-03; -2.0014428E-01;235;  2.7937961E-03;  0.0000000E+00; -8.8448825E-05;  9.9904509E+00;  4.0633950E-01; -1.0270817E+00;3; -1.3005226E-03;  0.0000000E+00; -8.6930394E-03;  0.0000000E+00;  0.0000000E+00;  0.0000000E+00;0;  6.0716285E-03;  9.6744057E+01;  0.0000000E+00; -1.6516754E-03;  1.0000000E+02;  0.0000000E+00;  9.9971825E+01;  6.0092360E-03;  0.0000000E+00;  6.2392435E-05;  0.0000000E+00;
  1.4143056E+00;  9.9999998E-03; -1.0003107E+00;242;  5.4093460E-03;  0.0000000E+00; -1.0565629E-04;  9.9892511E+00;  4.0951344E-01; -1.1555980E+00;3; -1.0380487E-02;  0.0000000E+00;  3.3062253E-02;  0.0000000E+00;  0.0000000E+00;  0.0000000E+00;0;  8.5141379E-03;  9.5259377E+01;  0.0000000E+00; -2.3263856E-03;  1.0000000E+02;  0.0000000E+00;  9.9941025E+01;  8.4281173E-03;  0.0000000E+00;  8.6020387E-05;  0.0000000E+00;
  1.4112231E+00;  9.9999998E-03; -8.0018240E-01;243;  4.3580434E-03;  0.0000000E+00; -7.6299701E-05;  9.9897366E+00;  4.0914869E-01; -1.1033850E+00;3;  2.5490060E-02;  0.0000000E+00;  2.2198245E-02;  0.0000000E+00;  0.0000000E+00;  0.0000000E+00;0;  8.1100846E-03;  9.5439636E+01;  0.0000000E+00;  4.2711170E-03;  1.0000000E+02;  0.0000000E+00;  9.9938332E+01;  8.0244998E-03;  0.0000000E+00;  8.5584426E-05;  0.0000000E+00;
  1.4089204E+00;  9.9999998E-03; -6.0010499E-01;244;  2.5110603E-03;  0.0000000E+00;  3.2858850E-05;  9.9901485E+00;  4.0897217E-01; -1.0591139E+00;3;  1.1474392E-02;  0.0000000E+00; -5.1849280E-03;  0.0000000E+00;  0.0000000E+00;  0.0000000E+00;0;  7.7305981E-03;  9.5526665E+01;  0.0000000E+00; -3.5270883E-03;  1.0000000E+02;  0.0000000E+00;  9.9941292E+01;  7.6962565E-03;  0.0000000E+00;  3.4341814E-05;  0.0000000E+00;
  1.4105566E+00;  9.9999998E-03; -4.0031591E-01;245;  3.7588838E-03;  0.0000000E+00; -1.0227519E-04;  9.9901123E+00;  4.0890953E-01; -1.0630171E+00;3;  1.3430118E-04;  0.0000000E+00; -6.3742073E-03;  0.0000000E+00;  0.0000000E+00;  0.0000000E+00;0;  7.7881520E-03;  9.5558128E+01;  0.0000000E+00; -7.3391525E-03;  1.0000000E+02;  0.0000000E+00;  9.9940094E+01;  7.7003655E-03;  0.0000000E+00;  8.7786641E-05;  0.0000000E+00;
  1.4101716E+00;  9.9999998E-03; -2.0033213E-01;246;  5.8240313E-03;  0.0000000E+00; -1.4673265E-04;  9.9902983E+00;  4.0873092E-01; -1.0430256E+00;3;  2.0660199E-03;  0.0000000E+00; -5.3020008E-03;  0.0000000E+00;  0.0000000E+00;  0.0000000E+00;0;  7.6654279E-03;  9.5625420E+01;  0.0000000E+00; -1.8248992E-03;  1.0000000E+02;  0.0000000E+00;  9.9958466E+01;  7.5834249E-03;  0.0000000E+00;  8.2002742E-05;  0.0000000E+00;
  1.6183312E+00;  9.9999998E-03; -1.0003394E+00;253;  6.7920992E-03;  0.0000000E+00; -8.1099075E-05;  9.9899445E+00;  4.1164145E-01; -1.0799004E+00;3; -4.7812280E-03;  0.0000000E+00;  1.6844476E-02;  0.0000000E+00;  0.0000000E+00;  0.0000000E+00;0;  9.8270662E-03;  9.4305603E+01;  0.0000000E+00; -2.7155762E-03;  1.0000000E+02;  0.0000000E+00;  9.9925423E+01;  9.7411107E-03;  0.0000000E+00;  8.5955086E-05;  0.0000000E+00;
  1.6156242E+00;  9.9999998E-03; -8.0009121E-01;254;  6.0196798E-03;  0.0000000E+00; -3.8122234E-05;  9.9899654E+00;  4.1173553E-01; -1.0776812E+00;3;  1.0664579E-02;  0.0000000E+00;  4.1218423E-03;  0.0000000E+00;  0.0000000E+00;  0.0000000E+00;0;  9.7811949E-03;  9.4261429E+01;  0.0000000E+00; -3.3418482E-04;  1.0000000E+02;  0.0000000E+00;  9.9924057E+01;  9.6922275E-03;  0.0000000E+00;  8.8967216E-05;  0.0000000E+00;
  1.6132820E+00;  9.9999998E-03; -5.9993768E-01;255;  5.5002961E-03;  0.0000000E+00; -6.0523911E-05;  9.9899397E+00;  4.1187015E-01; -1.0804521E+00;3;  5.4427544E-03;  0.0000000E+00; -4.8719440E-03;  0.0000000E+00;  0.0000000E+00;  0.0000000E+00;0;  9.7835017E-03;  9.4201721E+01;  0.0000000E+00; -4.7465051E-03;  1.0000000E+02;  0.0000000E+00;  9.9919647E+01;  9.6635772E-03;  0.0000000E+00;  1.1992431E-04;  0.0000000E+00;
  1.6121860E+00;  9.9999998E-03; -4.0004280E-01;256;  6.0246652E-03;  0.0000000E+00; -1.5052315E-04;  9.9899664E+00;  4.1197291E-01; -1.0776438E+00;3;  2.4083168E-03;  0.0000000E+00; -4.8289252E-03;  0.0000000E+00;  0.0000000E+00;  0.0000000E+00;0;  9.7462935E-03;  9.4154449E+01;  0.0000000E+00; -4.1134860E-03;  1.0000000E+02;  0.0000000E+00;  9.9919861E+01;  9.6198414E-03;  0.0000000E+00;  1.2645261E-04;  0.0000000E+00;
  1.6107962E+00;  9.9999998E-03; -2.0012090E-01;257;  5.8872346E-03;  0.0000000E+00; -2.4067517E-04;  9.9901028E+00;  4.1197580E-01; -1.0629947E+00;3;  1.9161614E-03;  0.0000000E+00; -3.4518894E-03;  0.0000000E+00;  0.0000000E+00;  0.0000000E+00;0;  9.6016759E-03;  9.4137863E+01;  0.0000000E+00; -9.7608450E-04;  1.0000000E+02;  0.0000000E+00;  9.9939636E+01;  9.5011406E-03;  0.0000000E+00;  1.0053578E-04;  0.0000000E+00;
  1.8240941E+00;  9.9999998E-03; -1.0005392E+00;264;  8.5303914E-03;  0.0000000E+00; -8.8124158E-05;  9.9904118E+00;  4.1436157E-01; -1.0273371E+00;3; -7.5831398E-04;  0.0000000E+00;  1.2026913E-03;  0.0000000E+00;  0.0000000E+00;  0.0000000E+00;0;  1.1466132E-02;  9.3114014E+01;  0.0000000E+00; -4.4960696E-03;  1.0000000E+02;  0.0000000E+00;  9.9887001E+01;  1.1355665E-02;  0.0000000E+00;  1.1046805E-04;  0.0000000E+00;
  1.8217911E+00;  9.9999998E-03; -8.0012208E-01;265;  8.1404466E-03;  0.0000000E+00; -2.7187552E-05;  9.9900827E+00;  4.1495928E-01; -1.0626303E+00;3;  3.9894418E-03;  0.0000000E+00; -3.6808271E-03;  0.0000000E+00;  0.0000000E+00;  0.0000000E+00;0;  1.1847844E-02;  9.2843567E+01;  0.0000000E+00; -3.0401812E-03;  1.0000000E+02;  0.0000000E+00;  9.9880737E+01;  1.1714493E-02;  0.0000000E+00;  1.3335131E-04;  0.0000000E+00;
  1.8181893E+00;  9.9999998E-03; -5.9975946E-01;266;  7.1822344E-03;  0.0000000E+00; -2.1530017E-05;  9.9898024E+00;  4.1548809E-01; -1.0927751E+00;3;  3.1635852E-03;  0.0000000E+00; -4.5700828E-03;  0.0000000E+00;  0.0000000E+00;  0.0000000E+00;0;  1.2116401E-02;  9.2608124E+01;  0.0000000E+00; -1.4529742E-03;  1.0000000E+02;  0.0000000E+00;  9.9874512E+01;  1.1952762E-02;  0.0000000E+00;  1.6363911E-04;  0.0000000E+00;
  1.8142260E+00;  9.9999998E-03; -3.9958280E-01;267;  6.2088305E-03;  0.0000000E+00; -8.5030675E-05;  9.9896526E+00;  4.1589734E-01; -1.1088763E+00;3;  1.8975424E-03;  0.0000000E+00; -3.4530037E-03;  0.0000000E+00;  0.0000000E+00;  0.0000000E+00;0;  1.2247425E-02;  9.2420097E+01;  0.0000000E+00; -7.1151805E-04;  1.0000000E+02;  0.0000000E+00;  9.9878517E+01;  1.2092819E-02;  0.0000000E+00;  1.5460477E-04;  0.0000000E+00;
  1.8118769E+00;  9.9999998E-03; -1.9974311E-01;268;  5.8262013E-03;  0.0000000E+00; -7.9423116E-05;  9.9896088E+00;  4.1617346E-01; -1.1136439E+00;3;  1.4552816E-03;  0.0000000E+00; -1.6469792E-03;  0.0000000E+00;  0.0000000E+00;  0.0000000E+00;0;  1.2270128E-02;  9.2289833E+01;  0.0000000E+00; -1.9860914E-04;  1.0000000E+02;  0.0000000E+00;  9.9886284E+01;  1.2168598E-02;  0.0000000E+00;  1.0152960E-04;  0.0000000E+00;
  2.0335050E+00;  9.9999998E-03; -1.0010835E+00;275;  1.0573366E-02;  0.0000000E+00; -1.5855744E-04;  9.9906998E+00;  4.1765210E-01; -9.9133527E-01;3; -1.1262689E-03;  0.0000000E+00; -2.8109278E-03;  0.0000000E+00;  0.0000000E+00;  0.0000000E+00;0;  1.3526058E-02;  9.1744232E+01;  0.0000000E+00; -1.1116755E-02;  1.0000000E+02;  0.0000000E+00;  9.9793419E+01;  1.3339851E-02;  0.0000000E+00;  1.8620715E-04;  0.0000000E+00;
  2.0343544E+00;  9.9999998E-03; -8.0039573E-01;276;  1.1454890E-02;  0.0000000E+00; -3.3562581E-05;  9.9901218E+00;  4.1868639E-01; -1.0529323E+00;3; -1.1615889E-03;  0.0000000E+00; -3.3971416E-03;  0.0000000E+00;  0.0000000E+00;  0.0000000E+00;0;  1.4374605E-02;  9.1290703E+01;  0.0000000E+00; -1.0764061E-02;  1.0000000E+02;  0.0000000E+00;  9.9780449E+01;  1.4159863E-02;  0.0000000E+00;  2.1474282E-04;  0.0000000E+00;
  2.0308540E+00;  9.9999998E-03; -5.9966385E-01;277;  9.6940668E-03;  0.0000000E+00;  6.0224414E-05;  9.9896135E+00;  4.1962081E-01; -1.1072632E+00;3; -2.0701727E-03;  0.0000000E+00; -2.4402554E-03;  0.0000000E+00;  0.0000000E+00;  0.0000000E+00;0;  1.5064083E-02;  9.0884796E+01;  0.0000000E+00; -2.6820872E-03;  1.0000000E+02;  0.0000000E+00;  9.9772278E+01;  1.4827935E-02;  0.0000000E+00;  2.3614835E-04;  0.0000000E+00;
  2.0200095E+00;  9.9999998E-03; -3.9908466E-01;278;  7.1986262E-03;  0.0000000E+00;  1.8644713E-04;  9.9892483E+00;  4.2036515E-01; -1.1465795E+00;3;  6.1700988E-04;  0.0000000E+00; -1.4130040E-03;  0.0000000E+00;  0.0000000E+00;  0.0000000E+00;0;  1.5439596E-02;  9.0556595E+01;  0.0000000E+00; -1.2489263E-04;  1.0000000E+02;  0.0000000E+00;  9.9770714E+01;  1.5262133E-02;  0.0000000E+00;  1.7746397E-04;  0.0000000E+00;
  2.0164926E+00;  9.9999998E-03; -1.9946571E-01;279;  5.9347400E-03;  0.0000000E+00;  1.5562461E-04;  9.9889603E+00;  4.2097816E-01; -1.1774842E+00;3;  7.8069326E-04;  0.0000000E+00; -3.0685024E-04;  0.0000000E+00;  0.0000000E+00;  0.0000000E+00;0;  1.5763307E-02;  9.0307114E+01;  0.0000000E+00; -8.0122583E-05;  1.0000000E+02;  0.0000000E+00;  9.9750298E+01;  1.5604108E-02;  0.0000000E+00;  1.5919945E-04;  0.0000000E+00;
  2.2465067E+00;  9.9999998E-03; -1.0022334E+00;286;  1.6560826E-02;  0.0000000E+00; -3.4532999E-04;  9.9909496E+00;  4.2123044E-01; -9.5396137E-01;3;  1.9385986E-03;  0.0000000E+00; -8.8498759E-04;  0.0000000E+00;  0.0000000E+00;  0.0000000E+00;0;  1.5857803E-02;  9.0382362E+01;  0.0000000E+00; -8.3430121E-03;  1.0000000E+02;  0.0000000E+00;  9.9587654E+01;  1.5517454E-02;  0.0000000E+00;  3.4034907E-04;  0.0000000E+00;
  2.2461982E+00;  9.9999998E-03; -8.0112767E-01;287;  1.7170507E-02;  0.0000000E+00; -1.1483722E-04;  9.9903193E+00;  4.2235592E-01; -1.0204551E+00;3;  1.2472257E-03;  0.0000000E+00; -9.3166105E-04;  0.0000000E+00;  0.0000000E+00;  0.0000000E+00;0;  1.6955914E-02;  8.9900337E+01;  0.0000000E+00; -3.0414627E-03;  1.0000000E+02;  0.0000000E+00;  9.9575615E+01;  1.6571013E-02;  0.0000000E+00;  3.8490057E-04;  0.0000000E+00;
  2.2431655E+00;  9.9999998E-03; -5.9987110E-01;288;  1.5863081E-02;  0.0000000E+00;  1.5622871E-04;  9.9896364E+00;  4.2358899E-01; -1.0926350E+00;3;  1.2662737E-03;  0.0000000E+00; -5.0139794E-04;  0.0000000E+00;  0.0000000E+00;  0.0000000E+00;0;  1.8101433E-02;  8.9375221E+01;  0.0000000E+00; -4.4082641E-04;  1.0000000E+02;  0.0000000E+00;  9.9563606E+01;  1.7715074E-02;  0.0000000E+00;  3.8635940E-04;  0.0000000E+00;
  2.2380347E+00;  9.9999998E-03; -3.9896742E-01;289;  1.0118345E-02;  0.0000000E+00;  3.9484570E-04;  9.9889946E+00;  4.2482379E-01; -1.1607447E+00;3; -2.5364738E-03;  0.0000000E+00; -1.6281448E-04;  0.0000000E+00;  0.0000000E+00;  0.0000000E+00;0;  1.9137293E-02;  8.8883018E+01;  0.0000000E+00; -2.2393258E-04;  1.0000000E+02;  0.0000000E+00;  9.9524643E+01;  1.8764002E-02;  0.0000000E+00;  3.7329059E-04;  0.0000000E+00;
  2.2356801E+00;  9.9999998E-03; -1.9939476E-01;290;  8.6181378E-03;  0.0000000E+00;  2.6978969E-04;  9.9885311E+00;  4.2573506E-01; -1.2098564E+00;3; -3.1143320E-03;  0.0000000E+00;  6.2894578E-06;  0.0000000E+00;  0.0000000E+00;  0.0000000E+00;0;  1.9901840E-02;  8.8533524E+01;  0.0000000E+00; -6.4801781E-05;  1.0000000E+02;  0.0000000E+00;  9.9478386E+01;  1.9497640E-02;  0.0000000E+00;  4.0419895E-04;  0.0000000E+00;
  2.4469781E+00;  9.9999998E-03; -1.0042468E+00;297;  1.6521184E-02;  0.0000000E+00; -7.2719384E-04;  9.9910030E+00;  4.2539445E-01; -9.2961615E-01;3;  1.5468404E-03;  0.0000000E+00;  1.6652979E-04;  0.0000000E+00;  0.0000000E+00;  0.0000000E+00;0;  1.8512774E-02;  8.8965591E+01;  0.0000000E+00;  1.2616882E-03;  1.0000000E+02;  0.0000000E+00;  9.9203537E+01;  1.7855123E-02;  0.0000000E+00;  6.5765140E-04;  0.0000000E+00;
  2.4490526E+00;  9.9999998E-03; -8.0269331E-01;298;  1.7124219E-02;  0.0000000E+00; -3.4107993E-04;  9.9904585E+00;  4.2639810E-01; -9.8564678E-01;3;  7.4308005E-04;  0.0000000E+00;  2.2542702E-04;  0.0000000E+00;  0.0000000E+00;  0.0000000E+00;0;  1.9691020E-02;  8.8555168E+01;  0.0000000E+00;  2.5946475E-04;  1.0000000E+02;  0.0000000E+00;  9.9183601E+01;  1.8985312E-02;  0.0000000E+00;  7.0570857E-04;  0.0000000E+00;
  2.4541526E+00;  9.9999998E-03; -6.0091239E-01;299;  1.7766541E-02;  0.0000000E+00;  8.4117550E-05;  9.9898100E+00;  4.2755240E-01; -1.0519459E+00;3; -9.7603118E-04;  0.0000000E+00;  9.8575001E-05;  0.0000000E+00;  0.0000000E+00;  0.0000000E+00;0;  2.1123901E-02;  8.8086060E+01;  0.0000000E+00;  7.6847566E-05;  1.0000000E+02;  0.0000000E+00;  9.9161148E+01;  2.0346653E-02;  0.0000000E+00;  7.7724899E-04;  0.0000000E+00;
  2.4618139E+00;  9.9999998E-03; -3.9939830E-01;300;  1.9633934E-02;  0.0000000E+00;  3.8485025E-04;  9.9891901E+00;  4.2872790E-01; -1.1148221E+00;3; -3.5004867E-03;  0.0000000E+00;  8.5204054E-05;  0.0000000E+00;  0.0000000E+00;  0.0000000E+00;0;  2.2559153E-02;  8.7642334E+01;  0.0000000E+00;  1.0426938E-05;  1.0000000E+02;  0.0000000E+00;  9.9106537E+01;  2.1676442E-02;  0.0000000E+00;  8.8271208E-04;  0.0000000E+00;
  2.4669082E+00;  9.9999998E-03; -1.9954264E-01;301;  2.0419458E-02;  0.0000000E+00;  2.4798384E-04;  9.9887419E+00;  4.2963877E-01; -1.1602638E+00;3; -5.8515784E-03;  0.0000000E+00;  6.0721224E-05;  0.0000000E+00;  0.0000000E+00;  0.0000000E+00;0;  2.3606632E-02;  8.7323685E+01;  0.0000000E+00;  3.2256178E-06;  1.0000000E+02;  0.0000000E+00;  9.9033295E+01;  2.2636095E-02;  0.0000000E+00;  9.7053644E-04;  0.0000000E+00;
  2.6508775E+00;  9.9999998E-03; -1.0074143E+00;308;  1.6464455E-02;  0.0000000E+00; -1.4757268E-03;  9.9906340E+00;  4.3101901E-01; -9.3761331E-01;3;  1.4818533E-03;  0.0000000E+00;  6.2816386E-04;  0.0000000E+00;  0.0000000E+00;  0.0000000E+00;0;  2.2458512E-02;  8.7216919E+01;  0.0000000E+00;  1.6707393E-03;  1.0000000E+02;  0.0000000E+00;  9.8561508E+01;  2.1095853E-02;  0.0000000E+00;  1.3626590E-03;  0.0000000E+00;
  2.6563332E+00;  9.9999998E-03; -8.0536151E-01;309;  1.7083934E-02;  0.0000000E+00; -9.1403269E-04;  9.9902983E+00;  4.3152556E-01; -9.7025377E-01;3;  6.7933311E-04;  0.0000000E+00;  3.5413494E-04;  0.0000000E+00;  0.0000000E+00;  0.0000000E+00;0;  2.3362663E-02;  8.7022392E+01;  0.0000000E+00;  9.3595521E-04;  1.0000000E+02;  0.0000000E+00;  9.8542915E+01;  2.1946054E-02;  0.0000000E+00;  1.4166083E-03;  0.0000000E+00;
  2.6650028E+00;  9.9999998E-03; -6.0309362E-01;310;  2.1023028E-02;  0.0000000E+00; -2.6533630E-04;  9.9899311E+00;  4.3210202E-01; -1.0053940E+00;3; -1.5815712E-03;  0.0000000E+00; -3.0001806E-04;  0.0000000E+00;  0.0000000E+00;  0.0000000E+00;0;  2.4437305E-02;  8.6799477E+01;  0.0000000E+00;  4.9545482E-04;  1.0000000E+02;  0.0000000E+00;  9.8527054E+01;  2.2934590E-02;  0.0000000E+00;  1.5027157E-03;  0.0000000E+00;
  2.6754727E+00;  9.9999998E-03; -4.0075096E-01;311;  2.6265435E-02;  0.0000000E+00;  2.4332067E-04;  9.9895658E+00;  4.3264639E-01; -1.0398880E+00;3; -1.3787902E-03;  0.0000000E+00;  2.0855045E-04;  0.0000000E+00;  0.0000000E+00;  0.0000000E+00;0;  2.5529809E-02;  8.6591644E+01;  0.0000000E+00;  4.3750148E-05;  1.0000000E+02;  0.0000000E+00;  9.8503014E+01;  2.3852963E-02;  0.0000000E+00;  1.6768458E-03;  0.0000000E+00;
  2.6836607E+00;  9.9999998E-03; -1.9981122E-01;312;  2.9543960E-02;  0.0000000E+00;  2.1959626E-04;  9.9893055E+00;  4.3314907E-01; -1.0641841E+00;3; -1.5412701E-03;  0.0000000E+00;  8.8207518E-05;  0.0000000E+00;  0.0000000E+00;  0.0000000E+00;0;  2.6334876E-02;  8.6447052E+01;  0.0000000E+00; -7.5715325E-06;  1.0000000E+02;  0.0000000E+00;  9.8436180E+01;  2.4497649E-02;  0.0000000E+00;  1.8372269E-03;  0.0000000E+00;
  2.8654420E+00;  9.9999998E-03; -1.0117053E+00;319;  1.8086191E-02;  0.0000000E+00; -2.7876536E-03;  9.9898357E+00;  4.3830356E-01; -9.7736716E-01;3; -3.3800309E-03;  0.0000000E+00;  1.0787123E-03;  0.0000000E+00;  0.0000000E+00;  0.0000000E+00;0;  2.8235493E-02;  8.5102409E+01;  0.0000000E+00; -1.8709748E-03;  1.0000000E+02;  0.0000000E+00;  9.7664848E+01;  2.5503157E-02;  0.0000000E+00;  2.7323358E-03;  0.0000000E+00;
  2.8696325E+00;  9.9999998E-03; -8.0907315E-01;320;  2.1130657E-02;  0.0000000E+00; -2.0356248E-03;  9.9898052E+00;  4.3810111E-01; -9.7953326E-01;3; -1.3033078E-04;  0.0000000E+00;  7.9881900E-04;  0.0000000E+00;  0.0000000E+00;  0.0000000E+00;0;  2.8405599E-02;  8.5174698E+01;  0.0000000E+00; -1.1441133E-03;  1.0000000E+02;  0.0000000E+00;  9.7672653E+01;  2.5643582E-02;  0.0000000E+00;  2.7620187E-03;  0.0000000E+00;
  2.8768618E+00;  9.9999998E-03; -6.0636729E-01;321;  2.6235510E-02;  0.0000000E+00; -1.2228912E-03;  9.9897718E+00;  4.3786171E-01; -9.8143721E-01;3;  8.0436446E-05;  0.0000000E+00;  8.4239518E-04;  0.0000000E+00;  0.0000000E+00;  0.0000000E+00;0;  2.8670006E-02;  8.5251366E+01;  0.0000000E+00; -6.9782385E-05;  1.0000000E+02;  0.0000000E+00;  9.7688385E+01;  2.5863463E-02;  0.0000000E+00;  2.8065415E-03;  0.0000000E+00;
  2.8847966E+00;  9.9999998E-03; -4.0344146E-01;322;  3.0530177E-02;  0.0000000E+00; -1.4528661E-04;  9.9897537E+00;  4.3762940E-01; -9.8173076E-01;3;  6.4876355E-04;  0.0000000E+00;  8.0928073E-04;  0.0000000E+00;  0.0000000E+00;  0.0000000E+00;0;  2.8869044E-02;  8.5319077E+01;  0.0000000E+00;  6.5563261E-05;  1.0000000E+02;  0.0000000E+00;  9.7714279E+01;  2.6085990E-02;  0.0000000E+00;  2.7830554E-03;  0.0000000E+00;
  2.8916330E+00;  9.9999998E-03; -2.0077240E-01;323;  3.4602597E-02;  0.0000000E+00;  1.0065883E-04;  9.9896746E+00;  4.3751132E-01; -9.8810118E-01;3;  1.4174358E-03;  0.0000000E+00;  2.3378975E-04;  0.0000000E+00;  0.0000000E+00;  0.0000000E+00;0;  2.9222805E-02;  8.5369423E+01;  0.0000000E+00;  1.6842267E-05;  1.0000000E+02;  0.0000000E+00;  9.7707794E+01;  2.6237413E-02;  0.0000000E+00;  2.9853913E-03;  0.0000000E+00;
  3.0891967E+00;  9.9999998E-03; -1.0165380E+00;330;  2.7821710E-02;  0.0000000E+00; -4.6102353E-03;  9.9889250E+00;  4.4659436E-01; -1.0272182E+00;3; -1.9768344E-03;  0.0000000E+00;  1.3227055E-03;  0.0000000E+00;  0.0000000E+00;  0.0000000E+00;0;  3.5320330E-02;  8.2805374E+01;  0.0000000E+00; -2.6809841E-03;  1.0000000E+02;  0.0000000E+00;  9.6666435E+01;  3.0615196E-02;  0.0000000E+00;  4.7051338E-03;  0.0000000E+00;
  3.0900021E+00;  9.9999998E-03; -8.1322318E-01;331;  2.7941361E-02;  0.0000000E+00; -3.6067187E-03;  9.9891338E+00;  4.4576845E-01; -1.0077070E+00;3; -2.3290063E-03;  0.0000000E+00;  4.5007395E-04;  0.0000000E+00;  0.0000000E+00;  0.0000000E+00;0;  3.4694768E-02;  8.3068001E+01;  0.0000000E+00; -2.4322779E-03;  1.0000000E+02;  0.0000000E+00;  9.6720345E+01;  3.0086381E-02;  0.0000000E+00;  4.6083871E-03;  0.0000000E+00;
  3.0917237E+00;  9.9999998E-03; -6.0997838E-01;332;  2.9165786E-02;  0.0000000E+00; -2.5357988E-03;  9.9893723E+00;  4.4485146E-01; -9.8537338E-01;3; -1.8407938E-03;  0.0000000E+00; -6.7347020E-04;  0.0000000E+00;  0.0000000E+00;  0.0000000E+00;0;  3.3978127E-02;  8.3359291E+01;  0.0000000E+00; -1.0570961E-03;  1.0000000E+02;  0.0000000E+00;  9.6783318E+01;  2.9522799E-02;  0.0000000E+00;  4.4553285E-03;  0.0000000E+00;
  3.0955322E+00;  9.9999998E-03; -4.0676096E-01;333;  3.2684047E-02;  0.0000000E+00; -1.7115714E-03;  9.9895287E+00;  4.4402477E-01; -9.7041196E-01;3;  1.6354495E-03;  0.0000000E+00;  3.9288789E-04;  0.0000000E+00;  0.0000000E+00;  0.0000000E+00;0;  3.3547882E-02;  8.3626419E+01;  0.0000000E+00; -1.9335614E-04;  1.0000000E+02;  0.0000000E+00;  9.6836807E+01;  2.9058591E-02;  0.0000000E+00;  4.4892919E-03;  0.0000000E+00;
  3.0996952E+00;  9.9999998E-03; -2.0296097E-01;334;  3.5912614E-02;  0.0000000E+00; -3.4797596E-04;  9.9896774E+00;  4.4341552E-01; -9.5608795E-01;3;  2.1112077E-03;  0.0000000E+00;  5.5183459E-04;  0.0000000E+00;  0.0000000E+00;  0.0000000E+00;0;  3.3151504E-02;  8.3817108E+01;  0.0000000E+00; -8.6294567E-06;  1.0000000E+02;  0.0000000E+00;  9.6885864E+01;  2.8753497E-02;  0.0000000E+00;  4.3980083E-03;  0.0000000E+00;
  3.3166256E+00;  9.9999998E-03; -1.0210763E+00;341;  3.8350005E-02;  0.0000000E+00; -6.5057972E-03;  9.9883146E+00;  4.5458430E-01; -1.0595220E+00;3; -1.0527878E-03;  0.0000000E+00;  3.3769571E-05;  0.0000000E+00;  0.0000000E+00;  0.0000000E+00;0;  4.2201594E-02;  8.0651596E+01;  0.0000000E+00;  6.2557793E-04;  1.0000000E+02;  0.0000000E+00;  9.5777901E+01;  3.5515282E-02;  0.0000000E+00;  6.6863117E-03;  0.0000000E+00;
  3.3153203E+00;  9.9999998E-03; -8.1710750E-01;342;  3.7543334E-02;  0.0000000E+00; -5.2281534E-03;  9.9885778E+00;  4.5357090E-01; -1.0357302E+00;3; -1.6455001E-03;  0.0000000E+00;  1.0718747E-04;  0.0000000E+00;  0.0000000E+00;  0.0000000E+00;0;  4.1191131E-02;  8.0956062E+01;  0.0000000E+00;  3.0475206E-04;  1.0000000E+02;  0.0000000E+00;  9.5848618E+01;  3.4728676E-02;  0.0000000E+00;  6.4624557E-03;  0.0000000E+00;
  3.3146060E+00;  9.9999998E-03; -6.1332333E-01;343;  3.7593197E-02;  0.0000000E+00; -3.9457264E-03;  9.9888878E+00;  4.5244232E-01; -1.0076761E+00;3; -1.6731091E-03;  0.0000000E+00;  1.2087430E-04;  0.0000000E+00;  0.0000000E+00;  0.0000000E+00;0;  4.0047262E-02;  8.1296867E+01;  0.0000000E+00;  2.2411819E-04;  1.0000000E+02;  0.0000000E+00;  9.5928452E+01;  3.3842724E-02;  0.0000000E+00;  6.2045394E-03;  0.0000000E+00;
  3.3151026E+00;  9.9999998E-03; -4.0959379E-01;344;  3.8655233E-02;  0.0000000E+00; -2.9144727E-03;  9.9891348E+00;  4.5138738E-01; -9.8526418E-01;3; -9.5323997E-04;  0.0000000E+00;  1.6223764E-03;  0.0000000E+00;  0.0000000E+00;  0.0000000E+00;0;  3.9171845E-02;  8.1618294E+01;  0.0000000E+00;  2.3261792E-04;  1.0000000E+02;  0.0000000E+00;  9.6001564E+01;  3.3019286E-02;  0.0000000E+00;  6.1525600E-03;  0.0000000E+00;
  3.3160396E+00;  9.9999998E-03; -2.0565155E-01;345;  4.0108044E-02;  0.0000000E+00; -1.4412295E-03;  9.9893408E+00;  4.5062035E-01; -9.6649921E-01;3;  1.3160156E-04;  0.0000000E+00;  1.1318054E-03;  0.0000000E+00;  0.0000000E+00;  0.0000000E+00;0;  3.8451709E-02;  8.1853844E+01;  0.0000000E+00;  8.5519372E-05;  1.0000000E+02;  0.0000000E+00;  9.6055283E+01;  3.2429989E-02;  0.0000000E+00;  6.0217199E-03;  0.0000000E+00;
  3.5452914E+00;  9.9999998E-03; -1.0247810E+00;352;  4.8627242E-02;  0.0000000E+00; -8.0281068E-03;  9.9881582E+00;  4.6119556E-01; -1.0616560E+00;3; -3.9394389E-04;  0.0000000E+00; -1.1141892E-03;  0.0000000E+00;  0.0000000E+00;  0.0000000E+00;0;  4.7529966E-02;  7.8901917E+01;  0.0000000E+00;  2.1789654E-03;  1.0000000E+02;  0.0000000E+00;  9.5112480E+01;  3.9423481E-02;  0.0000000E+00;  8.1064841E-03;  0.0000000E+00;
  3.5432739E+00;  9.9999998E-03; -8.2020539E-01;353;  4.7603827E-02;  0.0000000E+00; -6.5465039E-03;  9.9883423E+00;  4.6041712E-01; -1.0452117E+00;3; -1.1927652E-03;  0.0000000E+00; -2.7129939E-04;  0.0000000E+00;  0.0000000E+00;  0.0000000E+00;0;  4.6719920E-02;  7.9125336E+01;  0.0000000E+00;  2.8387574E-03;  1.0000000E+02;  0.0000000E+00;  9.5167549E+01;  3.8802296E-02;  0.0000000E+00;  7.9176249E-03;  0.0000000E+00;
  3.5416205E+00;  9.9999998E-03; -6.1582947E-01;354;  4.7388505E-02;  0.0000000E+00; -5.1066251E-03;  9.9885645E+00;  4.5953280E-01; -1.0253863E+00;3; -1.1342150E-03;  0.0000000E+00;  1.9776472E-04;  0.0000000E+00;  0.0000000E+00;  0.0000000E+00;0;  4.5779645E-02;  7.9380676E+01;  0.0000000E+00;  2.0576606E-03;  1.0000000E+02;  0.0000000E+00;  9.5230408E+01;  3.8073678E-02;  0.0000000E+00;  7.7059697E-03;  0.0000000E+00;
  3.5403948E+00;  9.9999998E-03; -4.1149381E-01;355;  4.7524083E-02;  0.0000000E+00; -4.0589673E-03;  9.9887371E+00;  4.5867798E-01; -1.0099277E+00;3; -7.3794666E-04;  0.0000000E+00;  7.6316018E-04;  0.0000000E+00;  0.0000000E+00;  0.0000000E+00;0;  4.5064274E-02;  7.9629410E+01;  0.0000000E+00;  9.9117216E-04;  1.0000000E+02;  0.0000000E+00;  9.5290482E+01;  3.7350148E-02;  0.0000000E+00;  7.7141253E-03;  0.0000000E+00;
  3.5392272E+00;  9.9999998E-03; -2.0712253E-01;356;  4.7607027E-02;  0.0000000E+00; -2.3884536E-03;  9.9889135E+00;  4.5804396E-01; -9.9414551E-01;3; -2.8675288E-04;  0.0000000E+00;  9.5909921E-04;  0.0000000E+00;  0.0000000E+00;  0.0000000E+00;0;  4.4337694E-02;  7.9817932E+01;  0.0000000E+00;  2.4537768E-04;  1.0000000E+02;  0.0000000E+00;  9.5331360E+01;  3.6789626E-02;  0.0000000E+00;  7.5480668E-03;  0.0000000E+00;
  3.7737858E+00;  9.9999998E-03; -1.0275861E+00;363;  5.8398150E-02;  0.0000000E+00; -9.0971356E-03;  9.9883299E+00;  4.6619934E-01; -1.0411112E+00;3; -6.9730682E-05;  0.0000000E+00; -1.7216899E-03;  0.0000000E+00;  0.0000000E+00;  0.0000000E+00;0;  5.1083744E-02;  7.7592232E+01;  0.0000000E+00;  1.1196958E-03;  1.0000000E+02;  0.0000000E+00;  9.4654892E+01;  4.2117152E-02;  0.0000000E+00;  8.9665893E-03;  0.0000000E+00;
  3.7722478E+00;  9.9999998E-03; -8.2245308E-01;364;  5.7935052E-02;  0.0000000E+00; -7.4449619E-03;  9.9883957E+00;  4.6583492E-01; -1.0352837E+00;3; -5.3270563E-04;  0.0000000E+00; -2.9238331E-04;  0.0000000E+00;  0.0000000E+00;  0.0000000E+00;0;  5.0726682E-02;  7.7693848E+01;  0.0000000E+00;  2.5102701E-03;  1.0000000E+02;  0.0000000E+00;  9.4680313E+01;  4.1850608E-02;  0.0000000E+00;  8.8760741E-03;  0.0000000E+00;
  3.7706921E+00;  9.9999998E-03; -6.1741942E-01;365;  5.7899851E-02;  0.0000000E+00; -5.8294823E-03;  9.9884853E+00;  4.6539530E-01; -1.0272760E+00;3; -3.6253681E-04;  0.0000000E+00;  1.2882835E-04;  0.0000000E+00;  0.0000000E+00;  0.0000000E+00;0;  5.0288968E-02;  7.7816208E+01;  0.0000000E+00;  2.0140379E-03;  1.0000000E+02;  0.0000000E+00;  9.4711571E+01;  4.1513752E-02;  0.0000000E+00;  8.7752137E-03;  0.0000000E+00;
  3.7689667E+00;  9.9999998E-03; -4.1226840E-01;366;  5.7737250E-02;  0.0000000E+00; -4.3990016E-03;  9.9885578E+00;  4.6493897E-01; -1.0208659E+00;3; -7.9404570E-05;  0.0000000E+00; -2.5014678E-04;  0.0000000E+00;  0.0000000E+00;  0.0000000E+00;0;  4.9943157E-02;  7.7942558E+01;  0.0000000E+00;  9.2364772E-04;  1.0000000E+02;  0.0000000E+00;  9.4745293E+01;  4.1150920E-02;  0.0000000E+00;  8.7922383E-03;  0.0000000E+00;
  3.7667880E+00;  9.9999998E-03; -2.0676394E-01;367;  5.7057660E-02;  0.0000000E+00; -2.7544566E-03;  9.9886293E+00;  4.6457726E-01; -1.0145153E+00;3; -6.3940708E-05;  0.0000000E+00;  2.5215483E-04;  0.0000000E+00;  0.0000000E+00;  0.0000000E+00;0;  4.9590908E-02;  7.8044388E+01;  0.0000000E+00;  2.0257266E-04;  1.0000000E+02;  0.0000000E+00;  9.4769547E+01;  4.0842969E-02;  0.0000000E+00;  8.7479372E-03;  0.0000000E+00;
  4.0013223E+00;  9.9999998E-03; -1.0297313E+00;374;  6.7732386E-02;  0.0000000E+00; -9.7982790E-03;  9.9885864E+00;  4.7019336E-01; -1.0161599E+00;3; -2.0129065E-04;  0.0000000E+00; -1.9504038E-03;  0.0000000E+00;  0.0000000E+00;  0.0000000E+00;0;  5.3372629E-02;  7.6552223E+01;  0.0000000E+00;  4.3341401E-04;  1.0000000E+02;  0.0000000E+00;  9.4321747E+01;  4.3918118E-02;  0.0000000E+00;  9.4545111E-03;  0.0000000E+00;
  4.0007772E+00;  9.9999998E-03; -8.2411104E-01;375;  6.8048321E-02;  0.0000000E+00; -8.0093965E-03;  9.9885683E+00;  4.7013557E-01; -1.0177550E+00;3; -7.4288466E-05;  0.0000000E+00; -3.1220203E-05;  0.0000000E+00;  0.0000000E+00;  0.0000000E+00;0;  5.3411119E-02;  7.6567848E+01;  0.0000000E+00;  1.1119636E-03;  1.0000000E+02;  0.0000000E+00;  9.4325180E+01;  4.3943692E-02;  0.0000000E+00;  9.4674286E-03;  0.0000000E+00;
  4.0000129E+00;  9.9999998E-03; -6.1843431E-01;376;  6.8420924E-02;  0.0000000E+00; -6.1941440E-03;  9.9885645E+00;  4.7005612E-01; -1.0181308E+00;3;  3.0180797E-04;  0.0000000E+00;  1.9930000E-04;  0.0000000E+00;  0.0000000E+00;  0.0000000E+00;0;  5.3409647E-02;  7.6588959E+01;  0.0000000E+00;  8.7373704E-04;  1.0000000E+02;  0.0000000E+00;  9.4331062E+01;  4.3952562E-02;  0.0000000E+00;  9.4570844E-03;  0.0000000E+00;
  3.9989030E+00;  9.9999998E-03; -4.1238987E-01;377;  6.8482406E-02;  0.0000000E+00; -4.2587309E-03;  9.9885626E+00;  4.6994862E-01; -1.0182964E+00;3;  6.4679323E-04;  0.0000000E+00; -3.5816210E-04;  0.0000000E+00;  0.0000000E+00;  0.0000000E+00;0;  5.3407140E-02;  7.6615829E+01;  0.0000000E+00;  3.5731037E-04;  1.0000000E+02;  0.0000000E+00;  9.4341454E+01;  4.3940380E-02;  0.0000000E+00;  9.4667580E-03;  0.0000000E+00;
  3.9971299E+00;  9.9999998E-03; -2.0516376E-01;378;  6.7922346E-02;  0.0000000E+00; -2.5276777E-03;  9.9885416E+00;  4.6982896E-01; -1.0201639E+00;3;  6.7335798E-04;  0.0000000E+00; -4.9640692E-04;  0.0000000E+00;  0.0000000E+00;  0.0000000E+00;0;  5.3477064E-02;  7.6641739E+01;  0.0000000E+00;  6.4899818E-05;  1.0000000E+02;  0.0000000E+00;  9.4357071E+01;  4.3913625E-02;  0.0000000E+00;  9.5634395E-03;  0.0000000E+00;
  4.2271175E+00;  9.9999998E-03; -1.0315119E+00;385;  7.6816604E-02;  0.0000000E+00; -1.0272465E-02;  9.9887238E+00;  4.7403395E-01; -1.0030645E+00;3; -1.2757434E-04;  0.0000000E+00; -1.7720748E-03;  0.0000000E+00;  0.0000000E+00;  0.0000000E+00;0;  5.5150066E-02;  7.5554581E+01;  0.0000000E+00;  7.0698014E-05;  1.0000000E+02;  0.0000000E+00;  9.4025917E+01;  4.5361489E-02;  0.0000000E+00;  9.7885774E-03;  0.0000000E+00;
  4.2277036E+00;  9.9999998E-03; -8.2554102E-01;386;  7.7621192E-02;  0.0000000E+00; -8.3973603E-03;  9.9886742E+00;  4.7404063E-01; -1.0075170E+00;3;  3.0068817E-04;  0.0000000E+00;  3.0420299E-04;  0.0000000E+00;  0.0000000E+00;  0.0000000E+00;0;  5.5372950E-02;  7.5552910E+01;  0.0000000E+00;  2.7664955E-04;  1.0000000E+02;  0.0000000E+00;  9.4024788E+01;  4.5497276E-02;  0.0000000E+00;  9.8756747E-03;  0.0000000E+00;
  4.2282901E+00;  9.9999998E-03; -6.1941659E-01;387;  7.8449637E-02;  0.0000000E+00; -6.4332099E-03;  9.9886370E+00;  4.7406986E-01; -1.0108029E+00;3;  8.2258938E-04;  0.0000000E+00;  5.2766321E-04;  0.0000000E+00;  0.0000000E+00;  0.0000000E+00;0;  5.5556297E-02;  7.5544571E+01;  0.0000000E+00;  2.2724154E-04;  1.0000000E+02;  0.0000000E+00;  9.4023125E+01;  4.5646474E-02;  0.0000000E+00;  9.9098235E-03;  0.0000000E+00;
  4.2288942E+00;  9.9999998E-03; -4.1270965E-01;388;  7.9206824E-02;  0.0000000E+00; -4.1300622E-03;  9.9886093E+00;  4.7409236E-01; -1.0132406E+00;3;  1.3356711E-03;  0.0000000E+00; -4.8293150E-05;  0.0000000E+00;  0.0000000E+00;  0.0000000E+00;0;  5.5700526E-02;  7.5536301E+01;  0.0000000E+00;  9.1524860E-05;  1.0000000E+02;  0.0000000E+00;  9.4024170E+01;  4.5794006E-02;  0.0000000E+00;  9.9065183E-03;  0.0000000E+00;
  4.2290134E+00;  9.9999998E-03; -2.0405963E-01;389;  7.9586782E-02;  0.0000000E+00; -2.0649203E-03;  9.9885540E+00;  4.7407299E-01; -1.0181712E+00;3;  1.6402969E-03;  0.0000000E+00; -7.8550371E-04;  0.0000000E+00;  0.0000000E+00;  0.0000000E+00;0;  5.5976275E-02;  7.5530594E+01;  0.0000000E+00;  1.7283461E-05;  1.0000000E+02;  0.0000000E+00;  9.4037949E+01;  4.5911975E-02;  0.0000000E+00;  1.0064300E-02;  0.0000000E+00;
  4.4605441E+00;  9.9999998E-03; -2.0515217E-01;400;  9.1269605E-02;  0.0000000E+00; -2.0098253E-03;  9.9885349E+00;  4.7754508E-01; -1.0195184E+00;3;  2.9931001E-03;  0.0000000E+00; -5.9455022E-04;  0.0000000E+00;  0.0000000E+00;  0.0000000E+00;0;  5.7367034E-02;  7.4644089E+01;  0.0000000E+00;  1.6203719E-05;  1.0000000E+02;  0.0000000E+00;  9.3776360E+01;  4.7013033E-02;  0.0000000E+00;  1.0354000E-02;  0.0000000E+00;
  4.4532967E+00;  9.9999998E-03; -8.2688767E-01;397;  8.6737737E-02;  0.0000000E+00; -8.7091643E-03;  9.9886055E+00;  4.7781217E-01; -1.0132707E+00;3;  9.9415332E-04;  0.0000000E+00;  7.1275898E-04;  0.0000000E+00;  0.0000000E+00;  0.0000000E+00;0;  5.6963034E-02;  7.4584045E+01;  0.0000000E+00; -1.1809663E-03;  1.0000000E+02;  0.0000000E+00;  9.3747650E+01;  4.6756305E-02;  0.0000000E+00;  1.0206729E-02;  0.0000000E+00;
  4.4554090E+00;  9.9999998E-03; -6.2067348E-01;398;  8.7943599E-02;  0.0000000E+00; -6.7254612E-03;  9.9885826E+00;  4.7770089E-01; -1.0152828E+00;3;  1.5296272E-03;  0.0000000E+00;  9.1757119E-04;  0.0000000E+00;  0.0000000E+00;  0.0000000E+00;0;  5.7089075E-02;  7.4612190E+01;  0.0000000E+00; -2.7629911E-04;  1.0000000E+02;  0.0000000E+00;  9.3755020E+01;  4.6839774E-02;  0.0000000E+00;  1.0249301E-02;  0.0000000E+00;
  4.4580097E+00;  9.9999998E-03; -4.1388121E-01;399;  8.9543127E-02;  0.0000000E+00; -4.3426249E-03;  9.9885750E+00;  4.7761607E-01; -1.0159695E+00;3;  2.2508320E-03;  0.0000000E+00;  1.0850022E-04;  0.0000000E+00;  0.0000000E+00;  0.0000000E+00;0;  5.7151802E-02;  7.4633232E+01;  0.0000000E+00; -8.4854737E-06;  1.0000000E+02;  0.0000000E+00;  9.3762726E+01;  4.6930965E-02;  0.0000000E+00;  1.0220835E-02;  0.0000000E+00;
  4.4517288E+00;  9.9999998E-03; -1.0330039E+00;396;  8.5859470E-02;  0.0000000E+00; -1.0602787E-02;  9.9886465E+00;  4.7794697E-01; -1.0096149E+00;3;  8.2324533E-04;  0.0000000E+00; -1.2084218E-03;  0.0000000E+00;  0.0000000E+00;  0.0000000E+00;0;  5.6771386E-02;  7.4549622E+01;  0.0000000E+00; -2.9860791E-03;  1.0000000E+02;  0.0000000E+00;  9.3739059E+01;  4.6686299E-02;  0.0000000E+00;  1.0085088E-02;  0.0000000E+00;
  4.7393498E+00;  9.9999998E-03; -1.0338887E+00;407;  9.6327372E-02;  0.0000000E+00; -1.0730620E-02;  9.9883766E+00;  2.4045758E-01; -1.0334606E+00;3;  2.6673940E-03;  0.0000000E+00;  4.7410614E-04;  0.0000000E+00;  0.0000000E+00;  0.0000000E+00;1;  5.7759315E-02;  2.9518716E+02;  0.0000000E+00;  5.8265530E-02;  1.0000000E+02;  0.0000000E+00;  9.3525848E+01;  4.7449376E-02;  0.0000000E+00;  1.0309939E-02;  0.0000000E+00;
  4.7402143E+00;  9.9999998E-03; -8.2785010E-01;408;  9.6714735E-02;  0.0000000E+00; -8.9113656E-03;  9.9883747E+00;  2.4029915E-01; -1.0336193E+00;3;  2.5075534E-03;  0.0000000E+00;  1.0298289E-03;  0.0000000E+00;  0.0000000E+00;  0.0000000E+00;1;  5.7796624E-02;  2.9550961E+02;  0.0000000E+00;  2.1879897E-02;  1.0000000E+02;  0.0000000E+00;  9.3547119E+01;  4.7355678E-02;  0.0000000E+00;  1.0440947E-02;  0.0000000E+00;
  4.7420397E+00;  9.9999998E-03; -6.2190199E-01;409;  9.7768918E-02;  0.0000000E+00; -7.0352103E-03;  9.9884081E+00;  2.4011727E-01; -1.0306511E+00;3;  2.9148252E-03;  0.0000000E+00;  3.1025847E-04;  0.0000000E+00;  0.0000000E+00;  0.0000000E+00;1;  5.7655975E-02;  2.9588077E+02;  0.0000000E+00;  9.0551935E-03;  1.0000000E+02;  0.0000000E+00;  9.3571129E+01;  4.7232233E-02;  0.0000000E+00;  1.0423740E-02;  0.0000000E+00;
  4.6867714E+00;  9.9999998E-03; -4.1566372E-01;410;  9.9523313E-02;  0.0000000E+00; -4.8366482E-03;  9.9884529E+00;  4.7991034E-01; -1.0266950E+00;3;  3.3209331E-03;  0.0000000E+00; -5.2114617E-04;  0.0000000E+00;  0.0000000E+00;  0.0000000E+00;0;  5.7621259E-02;  7.4053101E+01;  0.0000000E+00; -4.4933977E-04;  1.0000000E+02;  0.0000000E+00;  9.3593887E+01;  4.7245707E-02;  0.0000000E+00;  1.0375552E-02;  0.0000000E+00;
  4.6901660E+00;  9.9999998E-03; -2.0848396E-01;411;  1.0189509E-01;  0.0000000E+00; -2.6327637E-03;  9.9884558E+00;  4.7969535E-01; -1.0264287E+00;3;  4.4393479E-03;  0.0000000E+00; -3.9961451E-04;  0.0000000E+00;  0.0000000E+00;  0.0000000E+00;0;  5.7608016E-02;  7.4109039E+01;  0.0000000E+00; -1.1230654E-04;  1.0000000E+02;  0.0000000E+00;  9.3606956E+01;  4.7167126E-02;  0.0000000E+00;  1.0440890E-02;  0.0000000E+00;
  4.9862137E+00;  9.9999998E-03; -1.0336170E+00;418;  1.1178560E-01;  0.0000000E+00; -1.0440418E-02;  9.9881506E+00;  2.4048796E-01; -1.0534968E+00;3;  4.2880448E-03;  0.0000000E+00;  3.8689245E-03;  0.0000000E+00;  0.0000000E+00;  0.0000000E+00;1;  5.6429531E-02;  2.9512573E+02;  0.0000000E+00; -2.9560116E-03;  1.0000000E+02;  0.0000000E+00;  9.3518196E+01;  4.6206295E-02;  0.0000000E+00;  1.0223235E-02;  0.0000000E+00;
  4.9825807E+00;  9.9999998E-03; -8.2776684E-01;419;  1.1115185E-01;  0.0000000E+00; -8.7666959E-03;  9.9881783E+00;  2.4026564E-01; -1.0510596E+00;3;  4.6143513E-03;  0.0000000E+00;  2.0188994E-03;  0.0000000E+00;  0.0000000E+00;  0.0000000E+00;1;  5.6433778E-02;  2.9557794E+02;  0.0000000E+00; -7.4761808E-03;  1.0000000E+02;  0.0000000E+00;  9.3548714E+01;  4.6059649E-02;  0.0000000E+00;  1.0374128E-02;  0.0000000E+00;
  4.9206443E+00;  9.9999998E-03; -6.2221324E-01;420;  1.1040927E-01;  0.0000000E+00; -7.0712743E-03;  9.9882574E+00;  4.7999737E-01; -1.0440197E+00;3;  4.1517159E-03;  0.0000000E+00;  3.7667449E-04;  0.0000000E+00;  0.0000000E+00;  0.0000000E+00;0;  5.6790315E-02;  7.4031143E+01;  0.0000000E+00;  1.7560392E-03;  1.0000000E+02;  0.0000000E+00;  9.3584778E+01;  4.6463806E-02;  0.0000000E+00;  1.0326509E-02;  0.0000000E+00;
  4.9190202E+00;  9.9999998E-03; -4.1681767E-01;421;  1.1034957E-01;  0.0000000E+00; -5.3715566E-03;  9.9883347E+00;  4.7950971E-01; -1.0371310E+00;3;  4.2558648E-03;  0.0000000E+00; -8.3885156E-04;  0.0000000E+00;  0.0000000E+00;  0.0000000E+00;0;  5.6459226E-02;  7.4157677E+01;  0.0000000E+00;  6.5116741E-04;  1.0000000E+02;  0.0000000E+00;  9.3616478E+01;  4.6187431E-02;  0.0000000E+00;  1.0271796E-02;  0.0000000E+00;
  4.9182763E+00;  9.9999998E-03; -2.1163470E-01;422;  1.1079703E-01;  0.0000000E+00; -3.5723601E-03;  9.9884024E+00;  4.7915545E-01; -1.0311428E+00;3;  4.6185665E-03;  0.0000000E+00; -8.9721847E-04;  0.0000000E+00;  0.0000000E+00;  0.0000000E+00;0;  5.6144595E-02;  7.4253693E+01;  0.0000000E+00;  5.0771381E-05;  1.0000000E+02;  0.0000000E+00;  9.3634674E+01;  4.5923568E-02;  0.0000000E+00;  1.0221028E-02;  0.0000000E+00;
  5.1873722E+00;  9.9999998E-03; -1.0318224E+00;429;  1.2974530E-01;  0.0000000E+00; -9.6608866E-03;  9.9880905E+00;  4.7734326E-01; -1.0588330E+00;3;  7.7390666E-03;  0.0000000E+00;  3.0287639E-03;  0.0000000E+00;  0.0000000E+00;  0.0000000E+00;0;  5.3218570E-02;  7.4704697E+01;  0.0000000E+00;  2.5600832E-02;  1.0000000E+02;  0.0000000E+00;  9.3773582E+01;  4.3704603E-02;  0.0000000E+00;  9.5139667E-03;  0.0000000E+00;
  5.1819172E+00;  9.9999998E-03; -8.2608962E-01;430;  1.2657797E-01;  0.0000000E+00; -8.0029890E-03;  9.9882193E+00;  4.7637323E-01; -1.0473871E+00;3;  3.0468437E-03;  0.0000000E+00;  1.7955592E-03;  0.0000000E+00;  0.0000000E+00;  0.0000000E+00;0;  5.2823022E-02;  7.4955818E+01;  0.0000000E+00; -1.7968941E-02;  1.0000000E+02;  0.0000000E+00;  9.3841576E+01;  4.3199342E-02;  0.0000000E+00;  9.6236784E-03;  0.0000000E+00;
  5.1698995E+00;  9.9999998E-03; -6.2069672E-01;431;  1.2724023E-01;  0.0000000E+00; -6.4190850E-03;  9.9883127E+00;  4.7546861E-01; -1.0390680E+00;3;  6.7981891E-03;  0.0000000E+00;  8.1859522E-05;  0.0000000E+00;  0.0000000E+00;  0.0000000E+00;0;  5.2673191E-02;  7.5191414E+01;  0.0000000E+00; -3.6724130E-04;  1.0000000E+02;  0.0000000E+00;  9.3905281E+01;  4.3056477E-02;  0.0000000E+00;  9.6167130E-03;  0.0000000E+00;
  5.1623483E+00;  9.9999998E-03; -4.1566440E-01;432;  1.2575708E-01;  0.0000000E+00; -4.7306470E-03;  9.9884491E+00;  4.7485888E-01; -1.0269332E+00;3;  6.1010369E-03;  0.0000000E+00; -3.1399479E-04;  0.0000000E+00;  0.0000000E+00;  0.0000000E+00;0;  5.2204743E-02;  7.5353363E+01;  0.0000000E+00;  6.4404351E-03;  1.0000000E+02;  0.0000000E+00;  9.3946014E+01;  4.2718649E-02;  0.0000000E+00;  9.4860950E-03;  0.0000000E+00;
  5.1538916E+00;  9.9999998E-03; -2.1119462E-01;433;  1.2196276E-01;  0.0000000E+00; -3.2913527E-03;  9.9885454E+00;  4.7447395E-01; -1.0184020E+00;3;  4.1574705E-03;  0.0000000E+00; -7.7874458E-04;  0.0000000E+00;  0.0000000E+00;  0.0000000E+00;0;  5.1949099E-02;  7.5458496E+01;  0.0000000E+00;  3.0119522E-03;  1.0000000E+02;  0.0000000E+00;  9.3968979E+01;  4.2491544E-02;  0.0000000E+00;  9.4575565E-03;  0.0000000E+00;
  5.3918357E+00;  9.9999998E-03; -1.0283418E+00;440;  1.2971608E-01;  0.0000000E+00; -8.4760152E-03;  9.9885664E+00;  4.6781155E-01; -1.0164855E+00;3;  7.7224346E-03;  0.0000000E+00;  4.0997383E-03;  0.0000000E+00;  0.0000000E+00;  0.0000000E+00;0;  4.6380606E-02;  7.7223793E+01;  0.0000000E+00;  2.4544464E-02;  1.0000000E+02;  0.0000000E+00;  9.4456436E+01;  3.8046531E-02;  0.0000000E+00;  8.3340751E-03;  0.0000000E+00;
  5.4070401E+00;  9.9999998E-03; -8.2308012E-01;441;  1.3525788E-01;  0.0000000E+00; -6.9240020E-03;  9.9883881E+00;  4.6861506E-01; -1.0323826E+00;3;  3.8146656E-03;  0.0000000E+00;  2.0213611E-03;  0.0000000E+00;  0.0000000E+00;  0.0000000E+00;0;  4.6763908E-02;  7.7001999E+01;  0.0000000E+00; -1.5619863E-02;  1.0000000E+02;  0.0000000E+00;  9.4400192E+01;  3.8151640E-02;  0.0000000E+00;  8.6122686E-03;  0.0000000E+00;
  5.4037447E+00;  9.9999998E-03; -6.1761105E-01;442;  1.3757308E-01;  0.0000000E+00; -5.2333833E-03;  9.9885349E+00;  4.6744370E-01; -1.0192937E+00;3;  1.2236084E-02;  0.0000000E+00; -6.2179781E-04;  0.0000000E+00;  0.0000000E+00;  0.0000000E+00;0;  4.6312630E-02;  7.7318077E+01;  0.0000000E+00;  5.0964030E-03;  1.0000000E+02;  0.0000000E+00;  9.4488052E+01;  3.7833918E-02;  0.0000000E+00;  8.4787104E-03;  0.0000000E+00;
  5.4153352E+00;  9.9999998E-03; -4.1290009E-01;443;  1.4338183E-01;  0.0000000E+00; -3.5986127E-03;  9.9886770E+00;  4.6697637E-01; -1.0066814E+00;3;  7.9131331E-03;  0.0000000E+00; -2.7107791E-04;  0.0000000E+00;  0.0000000E+00;  0.0000000E+00;0;  4.5390867E-02;  7.7443932E+01;  0.0000000E+00; -8.4102497E-04;  1.0000000E+02;  0.0000000E+00;  9.4526047E+01;  3.7098788E-02;  0.0000000E+00;  8.2920780E-03;  0.0000000E+00;
  5.4080887E+00;  9.9999998E-03; -2.0787933E-01;444;  1.4082226E-01;  0.0000000E+00; -1.0600837E-03;  9.9889603E+00;  4.6596995E-01; -9.8151064E-01;3;  5.3051771E-03;  0.0000000E+00;  1.0380985E-03;  0.0000000E+00;  0.0000000E+00;  0.0000000E+00;0;  4.4442840E-02;  7.7727074E+01;  0.0000000E+00;  4.8193256E-03;  1.0000000E+02;  0.0000000E+00;  9.4594162E+01;  3.6412880E-02;  0.0000000E+00;  8.0299620E-03;  0.0000000E+00;
  5.6102920E+00;  9.9999998E-03; -1.0241141E+00;451;  1.3852854E-01;  0.0000000E+00; -7.2479150E-03;  9.9885979E+00;  4.5684755E-01; -1.0137267E+00;3;  9.7281458E-03;  0.0000000E+00;  5.7418561E-03;  0.0000000E+00;  0.0000000E+00;  0.0000000E+00;0;  3.9786920E-02;  8.0279816E+01;  0.0000000E+00; -1.5687618E-03;  1.0000000E+02;  0.0000000E+00;  9.5273338E+01;  3.2534473E-02;  0.0000000E+00;  7.2524473E-03;  0.0000000E+00;
  5.6269588E+00;  9.9999998E-03; -8.1954348E-01;452;  1.4352863E-01;  0.0000000E+00; -5.8627608E-03;  9.9882030E+00;  4.5952952E-01; -1.0488068E+00;3;  8.1530353E-03;  0.0000000E+00;  1.0568865E-03;  0.0000000E+00;  0.0000000E+00;  0.0000000E+00;0;  4.0752139E-02;  7.9504517E+01;  0.0000000E+00;  2.1510299E-04;  1.0000000E+02;  0.0000000E+00;  9.5076485E+01;  3.3133868E-02;  0.0000000E+00;  7.6182722E-03;  0.0000000E+00;
  5.6269202E+00;  9.9999998E-03; -6.1413002E-01;453;  1.4410755E-01;  0.0000000E+00; -4.1157845E-03;  9.9885798E+00;  4.5813501E-01; -1.0153162E+00;3;  8.2491543E-03;  0.0000000E+00; -3.0585739E-04;  0.0000000E+00;  0.0000000E+00;  0.0000000E+00;0;  3.9439149E-02;  7.9901062E+01;  0.0000000E+00;  1.3259214E-02;  1.0000000E+02;  0.0000000E+00;  9.5187180E+01;  3.2133851E-02;  0.0000000E+00;  7.3052980E-03;  0.0000000E+00;
  5.6314917E+00;  9.9999998E-03; -4.0957487E-01;454;  1.4578815E-01;  0.0000000E+00; -2.8457320E-03;  9.9887857E+00;  4.5754829E-01; -9.9698114E-01;3;  8.3871745E-03;  0.0000000E+00;  5.4889312E-04;  0.0000000E+00;  0.0000000E+00;  0.0000000E+00;0;  3.8549162E-02;  8.0074348E+01;  0.0000000E+00;  2.1558763E-02;  1.0000000E+02;  0.0000000E+00;  9.5230080E+01;  3.1320620E-02;  0.0000000E+00;  7.2285421E-03;  0.0000000E+00;
  5.6314974E+00;  9.9999998E-03; -2.0492953E-01;455;  1.4492562E-01;  0.0000000E+00; -1.2444751E-03;  9.9891529E+00;  4.5651549E-01; -9.6433842E-01;3;  3.9100624E-03;  0.0000000E+00; -1.9575534E-03;  0.0000000E+00;  0.0000000E+00;  0.0000000E+00;0;  3.7286140E-02;  8.0367821E+01;  0.0000000E+00;  1.1203793E-02;  1.0000000E+02;  0.0000000E+00;  9.5318909E+01;  3.0336931E-02;  0.0000000E+00;  6.9492082E-03;  0.0000000E+00;
  5.8254433E+00;  9.9999998E-03; -1.0194632E+00;462;  1.4350231E-01;  0.0000000E+00; -6.0142879E-03;  9.9884548E+00;  4.4552097E-01; -1.0264432E+00;3;  1.2756379E-02;  0.0000000E+00;  6.7495955E-03;  0.0000000E+00;  0.0000000E+00;  0.0000000E+00;0;  3.2647781E-02;  8.3636436E+01;  0.0000000E+00; -1.4112037E-02;  1.0000000E+02;  0.0000000E+00;  9.6155983E+01;  2.6429148E-02;  0.0000000E+00;  6.2186322E-03;  0.0000000E+00;
  5.8318186E+00;  9.9999998E-03; -8.1485903E-01;463;  1.4350356E-01;  0.0000000E+00; -4.3113003E-03;  9.9891520E+00;  4.4629857E-01; -9.6444327E-01;3;  9.7344154E-03;  0.0000000E+00;  2.1721777E-03;  0.0000000E+00;  0.0000000E+00;  0.0000000E+00;0;  3.0486248E-02;  8.3411575E+01;  0.0000000E+00;  1.0622746E-03;  1.0000000E+02;  0.0000000E+00;  9.6093773E+01;  2.4642149E-02;  0.0000000E+00;  5.8441004E-03;  0.0000000E+00;
  5.8367424E+00;  9.9999998E-03; -6.1032528E-01;464;  1.4630018E-01;  0.0000000E+00; -2.9623772E-03;  9.9887085E+00;  4.4702467E-01; -1.0038688E+00;3;  8.3000641E-03;  0.0000000E+00; -1.3696526E-03;  0.0000000E+00;  0.0000000E+00;  0.0000000E+00;0;  3.1552557E-02;  8.3182083E+01;  0.0000000E+00;  2.9389981E-02;  1.0000000E+02;  0.0000000E+00;  9.6037224E+01;  2.5602113E-02;  0.0000000E+00;  5.9504430E-03;  0.0000000E+00;
  5.8365421E+00;  9.9999998E-03; -4.0551499E-01;465;  1.4681634E-01;  0.0000000E+00; -1.6230303E-03;  9.9889622E+00;  4.4608277E-01; -9.8129451E-01;3;  9.2102382E-03;  0.0000000E+00; -1.6600881E-03;  0.0000000E+00;  0.0000000E+00;  0.0000000E+00;0;  3.0869627E-02;  8.3474564E+01;  0.0000000E+00;  5.6988526E-02;  1.0000000E+02;  0.0000000E+00;  9.6109703E+01;  2.5028264E-02;  0.0000000E+00;  5.8413637E-03;  0.0000000E+00;
  5.8361940E+00;  9.9999998E-03; -2.0066805E-01;466;  1.4644222E-01;  0.0000000E+00; -3.1690803E-04;  9.9892864E+00;  4.4538537E-01; -9.5246720E-01;3;  7.6059820E-03;  0.0000000E+00; -1.1875504E-03;  0.0000000E+00;  0.0000000E+00;  0.0000000E+00;0;  2.9948922E-02;  8.3696487E+01;  0.0000000E+00;  2.7784282E-02;  1.0000000E+02;  0.0000000E+00;  9.6161652E+01;  2.4243588E-02;  0.0000000E+00;  5.7053342E-03;  0.0000000E+00;
  4.8699813E+00;  9.9999998E-03; -1.0336159E+00;494;  1.1173997E-01;  0.0000000E+00; -1.0512284E-02;  9.9882250E+00;  2.4049754E-01; -1.0468899E+00;3;  2.9771246E-03;  0.0000000E+00; -9.4125327E-04; -4.3160208E+08; -4.3160208E+08; -4.3160208E+08;1;  5.7412315E-02;  2.9510242E+02;  0.0000000E+00; -2.7583574E-03;  1.0000000E+02;  0.0000000E+00;  9.3519585E+01;  4.7313362E-02;  0.0000000E+00;  1.0098953E-02;  0.0000000E+00;
  4.6231222E+00;  9.9999998E-03; -1.0339226E+00;496;  9.6303254E-02;  0.0000000E+00; -1.0741070E-02;  9.9884520E+00;  2.4045908E-01; -1.0267752E+00;3;  2.0165578E-03;  0.0000000E+00; -6.1128929E-04; -4.3160208E+08; -4.3160208E+08; -4.3160208E+08;1;  5.7735153E-02;  2.9518686E+02;  0.0000000E+00;  5.8819309E-02;  1.0000000E+02;  0.0000000E+00;  9.3526222E+01;  4.7468442E-02;  0.0000000E+00;  1.0266712E-02;  0.0000000E+00;
  4.6239853E+00;  9.9999998E-03; -8.2786256E-01;498;  9.6699134E-02;  0.0000000E+00; -8.8974452E-03;  9.9884253E+00;  2.4030064E-01; -1.0291597E+00;3;  1.8011646E-03;  0.0000000E+00;  1.3614956E-03; -4.3160208E+08; -4.3160208E+08; -4.3160208E+08;1;  5.7834793E-02;  2.9550888E+02;  0.0000000E+00;  2.2003874E-02;  1.0000000E+02;  0.0000000E+00;  9.3547195E+01;  4.7417615E-02;  0.0000000E+00;  1.0417179E-02;  0.0000000E+00;
  4.8663497E+00;  9.9999998E-03; -8.2776237E-01;500;  1.1112878E-01;  0.0000000E+00; -8.7627694E-03;  9.9882212E+00;  2.4027118E-01; -1.0472615E+00;3;  3.3874190E-03;  0.0000000E+00;  1.3422039E-03; -4.3160208E+08; -4.3160208E+08; -4.3160208E+08;1;  5.7433777E-02;  2.9556577E+02;  0.0000000E+00; -7.5945701E-03;  1.0000000E+02;  0.0000000E+00;  9.3549026E+01;  4.7146149E-02;  0.0000000E+00;  1.0287627E-02;  0.0000000E+00;
  4.6258073E+00;  9.9999998E-03; -6.2190717E-01;502;  9.7764418E-02;  0.0000000E+00; -7.0270738E-03;  9.9884233E+00;  2.4011794E-01; -1.0293177E+00;3;  2.2806488E-03;  0.0000000E+00;  1.4401514E-03; -4.3160208E+08; -4.3160208E+08; -4.3160208E+08;1;  5.7827741E-02;  2.9588022E+02;  0.0000000E+00;  9.0664253E-03;  1.0000000E+02;  0.0000000E+00;  9.3571075E+01;  4.7363423E-02;  0.0000000E+00;  1.0464320E-02;  0.0000000E+00;
  6.0388441E+00;  9.9999998E-03; -4.0102631E-01;475;  1.4669065E-01;  0.0000000E+00; -5.2411309E-05;  9.9897690E+00;  4.3254846E-01; -9.0959674E-01;3;  9.7358506E-03;  0.0000000E+00;  7.6860748E-04;  0.0000000E+00;  0.0000000E+00;  0.0000000E+00;0;  2.1244671E-02;  8.7801666E+01;  0.0000000E+00;  4.2348463E-02;  1.0000000E+02;  0.0000000E+00;  9.7197624E+01;  1.7223952E-02;  0.0000000E+00;  4.0207179E-03;  0.0000000E+00;
  6.0387683E+00;  9.9999998E-03; -6.0569930E-01;474;  1.4608155E-01;  0.0000000E+00; -1.5191835E-03;  9.9898243E+00;  4.3284550E-01; -9.0466857E-01;3;  8.7522632E-03;  0.0000000E+00; -8.6536771E-04;  0.0000000E+00;  0.0000000E+00;  0.0000000E+00;0;  2.1173904E-02;  8.7691498E+01;  0.0000000E+00; -3.4885731E-02;  1.0000000E+02;  0.0000000E+00;  9.7185966E+01;  1.7072976E-02;  0.0000000E+00;  4.1009281E-03;  0.0000000E+00;
  6.0415339E+00;  9.9999998E-03; -8.1102574E-01;473;  1.4809471E-01;  0.0000000E+00; -3.5707697E-03;  9.9875879E+00;  4.3594989E-01; -1.1034921E+00;3;  1.2831058E-02;  0.0000000E+00;  2.7823746E-03;  0.0000000E+00;  0.0000000E+00;  0.0000000E+00;0;  2.5669077E-02;  8.6638306E+01;  0.0000000E+00; -3.6963817E-02;  1.0000000E+02;  0.0000000E+00;  9.6930023E+01;  2.0512599E-02;  0.0000000E+00;  5.1564784E-03;  0.0000000E+00;
  6.0458484E+00;  9.9999998E-03; -1.9966251E-01;476;  1.4905028E-01;  0.0000000E+00;  1.9389529E-04;  9.9885511E+00;  4.3575093E-01; -1.0178581E+00;3;  7.8493981E-03;  0.0000000E+00;  2.8972514E-05;  0.0000000E+00;  0.0000000E+00;  0.0000000E+00;0;  2.3392420E-02;  8.6754753E+01;  0.0000000E+00;  1.9921936E-02;  1.0000000E+02;  0.0000000E+00;  9.6906815E+01;  1.8895989E-02;  0.0000000E+00;  4.4964310E-03;  0.0000000E+00;
  6.2464428E+00;  9.9999998E-03; -3.9961353E-01;483;  1.4892776E-01;  0.0000000E+00;  2.0620965E-04;  9.9879923E+00;  4.2311877E-01; -1.0675638E+00;3;  9.5922407E-03;  0.0000000E+00;  8.8149961E-04;  0.0000000E+00;  0.0000000E+00;  0.0000000E+00;0;  1.5157711E-02;  9.1010101E+01;  0.0000000E+00; -8.9137368E-02;  1.0000000E+02;  0.0000000E+00;  9.7964577E+01;  1.2209524E-02;  0.0000000E+00;  2.9481864E-03;  0.0000000E+00;
  6.2509069E+00;  9.9999998E-03; -6.0460794E-01;482;  1.5123343E-01;  0.0000000E+00; -1.3590478E-03;  9.9838810E+00;  4.2738503E-01; -1.4330451E+00;3;  2.0623431E-03;  0.0000000E+00; -5.5500874E-03;  0.0000000E+00;  0.0000000E+00;  0.0000000E+00;0;  2.0015841E-02;  8.9444046E+01;  0.0000000E+00; -7.6818980E-02;  1.0000000E+02;  0.0000000E+00;  9.7622162E+01;  1.6437963E-02;  0.0000000E+00;  3.5778792E-03;  0.0000000E+00;
  6.2516532E+00;  9.9999998E-03; -1.9858310E-01;484;  1.5043877E-01;  0.0000000E+00;  5.9010880E-04;  9.9862089E+00;  4.2645913E-01; -1.2261139E+00;3;  9.1197528E-03;  0.0000000E+00;  3.9011426E-04;  0.0000000E+00;  0.0000000E+00;  0.0000000E+00;0;  1.7154520E-02;  8.9863411E+01;  0.0000000E+00; -1.3522691E-02;  1.0000000E+02;  0.0000000E+00;  9.7634293E+01;  1.3778099E-02;  0.0000000E+00;  3.3764211E-03;  0.0000000E+00;
  6.4536624E+00;  9.9999998E-03; -4.0035400E-01;489;  1.5180054E-01;  0.0000000E+00; -6.5857393E-04;  9.9661674E+00;  4.1744772E-01; -3.0078948E+00;3;  1.7293287E-02;  0.0000000E+00;  3.3621863E-04;  0.0000000E+00;  0.0000000E+00;  0.0000000E+00;0;  1.4144833E-02;  9.2807762E+01;  0.0000000E+00; -1.4326493E-01;  1.0000000E+02;  0.0000000E+00;  9.8277313E+01;  1.0995309E-02;  0.0000000E+00;  3.1495241E-03;  0.0000000E+00;
  6.4531426E+00;  9.9999998E-03; -1.9712628E-01;490;  1.5120323E-01;  0.0000000E+00;  7.9914765E-04;  9.9723053E+00;  4.1634947E-01; -2.4621899E+00;3;  1.0914180E-02;  0.0000000E+00;  3.9411429E-04;  0.0000000E+00;  0.0000000E+00;  0.0000000E+00;0;  1.1780152E-02;  9.3335823E+01;  0.0000000E+00; -8.8464826E-02;  1.0000000E+02;  0.0000000E+00;  9.8355988E+01;  9.3393717E-03;  0.0000000E+00;  2.4407806E-03;  0.0000000E+00;
 -2.8893488E-04;  9.9999998E-03;  2.1149672E-10;170;  2.0089389E-04;  0.0000000E+00;  9.9318853E-10;  9.9987946E+00;  3.9988342E-01; -1.2967366E-01;3; -3.2849316E-04;  0.0000000E+00; -7.7417297E-08;  0.0000000E+00;  0.0000000E+00;  0.0000000E+00;0;  1.3994350E-04;  1.0002535E+02;  0.0000000E+00;  2.1319645E-16;  1.0000000E+02;  0.0000000E+00;  1.0000654E+02;  1.5200890E-04;  0.0000000E+00; -1.2065405E-05;  0.0000000E+00;
 -3.0820217E-04;  9.9999998E-03;  2.0000534E-01;171;  1.8727909E-04;  0.0000000E+00;  5.5005057E-06;  9.9987936E+00;  3.9989373E-01; -1.2980191E-01;3; -1.0460024E-03;  0.0000000E+00; -9.9611690E-04;  0.0000000E+00;  0.0000000E+00;  0.0000000E+00;0;  1.4330217E-04;  1.0002081E+02;  0.0000000E+00;  1.2164442E-07;  1.0000000E+02;  0.0000000E+00;  1.0000678E+02;  1.5436509E-04;  0.0000000E+00; -1.1062912E-05;  0.0000000E+00;
 -3.5797540E-04;  9.9999998E-03;  4.0001509E-01;172;  1.5047021E-04;  0.0000000E+00;  1.4899628E-05;  9.9987965E+00;  3.9991763E-01; -1.2948126E-01;3; -2.4282928E-03;  0.0000000E+00; -7.0000307E-05;  0.0000000E+00;  0.0000000E+00;  0.0000000E+00;0;  1.5177448E-04;  1.0001012E+02;  0.0000000E+00; -5.8556125E-06;  1.0000000E+02;  0.0000000E+00;  1.0000713E+02;  1.6019683E-04;  0.0000000E+00; -8.4223393E-06;  0.0000000E+00;
 -4.3541632E-04;  9.9999998E-03;  6.0005701E-01;173;  9.2152986E-05;  0.0000000E+00;  4.1491730E-05;  9.9988050E+00;  3.9994916E-01; -1.2858342E-01;3; -2.3201932E-03;  0.0000000E+00;  4.2149383E-03;  0.0000000E+00;  0.0000000E+00;  0.0000000E+00;0;  1.6175237E-04;  9.9995468E+01;  0.0000000E+00; -3.4181379E-05;  1.0000000E+02;  0.0000000E+00;  9.9998749E+01;  1.6663573E-04;  0.0000000E+00; -4.8833549E-06;  0.0000000E+00;
 -4.8687428E-04;  9.9999998E-03;  8.0008590E-01;174;  4.3102307E-05;  0.0000000E+00;  4.7912687E-05;  9.9988241E+00;  3.9998329E-01; -1.2653123E-01;3; -4.2921276E-04;  0.0000000E+00;  8.1697349E-03;  0.0000000E+00;  0.0000000E+00;  0.0000000E+00;0;  1.6785454E-04;  9.9982162E+01;  0.0000000E+00; -8.7064960E-05;  1.0000000E+02;  0.0000000E+00;  1.0000000E+02;  1.6825760E-04;  0.0000000E+00; -4.0305531E-07;  0.0000000E+00;
 -5.0698384E-04;  9.9999998E-03;  1.0000967E+00;175;  9.9440263E-07;  0.0000000E+00;  3.6144804E-05;  9.9988527E+00;  4.0000668E-01; -1.2345292E-01;3;  2.9435949E-04;  0.0000000E+00;  4.4497675E-03;  0.0000000E+00;  0.0000000E+00;  0.0000000E+00;0;  1.6424309E-04;  9.9974007E+01;  0.0000000E+00; -1.2368766E-04;  1.0000000E+02;  0.0000000E+00;  9.9998260E+01;  1.5887352E-04;  0.0000000E+00;  5.3695749E-06;  0.0000000E+00;
  1.9950324E-01;  9.9999998E-03; -7.4071568E-11;181;  1.4308727E-04;  0.0000000E+00;  8.3367968E-10;  9.9976473E+00;  4.0019777E-01; -2.5312570E-01;3;  1.5115095E-02;  0.0000000E+00; -1.7675131E-08;  0.0000000E+00;  0.0000000E+00;  0.0000000E+00;0;  3.7447643E-04;  9.9844849E+01;  0.0000000E+00; -2.9332092E-16;  1.0000000E+02;  0.0000000E+00;  1.0000756E+02;  3.9247796E-04;  0.0000000E+00; -1.8001538E-05;  0.0000000E+00;
  1.9948573E-01;  9.9999998E-03;  1.9998667E-01;182;  1.2958249E-04;  0.0000000E+00; -5.0332492E-06;  9.9976168E+00;  4.0020949E-01; -2.5639638E-01;3;  1.4455331E-02;  0.0000000E+00;  2.8827365E-03;  0.0000000E+00;  0.0000000E+00;  0.0000000E+00;0;  3.7956619E-04;  9.9839577E+01;  0.0000000E+00; -1.1182786E-05;  1.0000000E+02;  0.0000000E+00;  1.0000661E+02;  3.9626082E-04;  0.0000000E+00; -1.6694636E-05;  0.0000000E+00;
  1.9943790E-01;  9.9999998E-03;  3.9997426E-01;183;  9.3501338E-05;  0.0000000E+00; -7.4572895E-06;  9.9975882E+00;  4.0023467E-01; -2.5947469E-01;3;  1.2456922E-02;  0.0000000E+00;  7.1373712E-03;  0.0000000E+00;  0.0000000E+00;  0.0000000E+00;0;  3.9194181E-04;  9.9827484E+01;  0.0000000E+00; -7.4901887E-05;  1.0000000E+02;  0.0000000E+00;  1.0000698E+02;  4.0499179E-04;  0.0000000E+00; -1.3049972E-05;  0.0000000E+00;
  1.9937356E-01;  9.9999998E-03;  5.9997165E-01;184;  4.0122159E-05;  0.0000000E+00;  2.4902072E-06;  9.9976244E+00;  4.0025869E-01; -2.5562683E-01;3;  9.7833816E-03;  0.0000000E+00;  1.2435252E-02;  0.0000000E+00;  0.0000000E+00;  0.0000000E+00;0;  4.0299891E-04;  9.9817284E+01;  0.0000000E+00; -2.1772867E-04;  1.0000000E+02;  0.0000000E+00;  1.0000382E+02;  4.1060985E-04;  0.0000000E+00; -7.6109377E-06;  0.0000000E+00;
  1.9935253E-01;  9.9999998E-03;  7.9995096E-01;185;  1.2382829E-05;  0.0000000E+00;  9.7549071E-07;  9.9977303E+00;  4.0026426E-01; -2.4421147E-01;3;  7.2186063E-03;  0.0000000E+00;  1.5237277E-02;  0.0000000E+00;  0.0000000E+00;  0.0000000E+00;0;  4.0134427E-04;  9.9817619E+01;  0.0000000E+00; -3.6467999E-04;  1.0000000E+02;  0.0000000E+00;  9.9999870E+01;  4.0221214E-04;  0.0000000E+00; -8.6788702E-07;  0.0000000E+00;
  1.9935367E-01;  9.9999998E-03;  9.9990684E-01;186; -5.3482859E-07;  0.0000000E+00; -2.1631413E-05;  9.9978905E+00;  4.0024930E-01; -2.2696018E-01;3;  5.7976972E-03;  0.0000000E+00;  1.3737349E-02;  0.0000000E+00;  0.0000000E+00;  0.0000000E+00;0;  3.7449170E-04;  9.9833908E+01;  0.0000000E+00; -3.3778002E-04;  1.0000000E+02;  0.0000000E+00;  1.0000108E+02;  3.6920226E-04;  0.0000000E+00;  5.2894593E-06;  0.0000000E+00;
  3.9932558E-01;  9.9999998E-03; -3.4667508E-10;192;  1.0915734E-04;  0.0000000E+00;  4.8465293E-10;  9.9959745E+00;  4.0080214E-01; -4.3313849E-01;3; -2.7354212E-02;  0.0000000E+00; -6.6422530E-08;  0.0000000E+00;  0.0000000E+00;  0.0000000E+00;0;  9.0874830E-04;  9.9510765E+01;  0.0000000E+00; -1.1333879E-15;  1.0000000E+02;  0.0000000E+00;  1.0000654E+02;  9.2707865E-04;  0.0000000E+00; -1.8330358E-05;  0.0000000E+00;
  3.9931169E-01;  9.9999998E-03;  1.9996652E-01;193;  9.5829870E-05;  0.0000000E+00; -1.4367181E-05;  9.9959679E+00;  4.0081272E-01; -4.3384391E-01;3; -2.7176607E-02;  0.0000000E+00;  1.6035220E-02;  0.0000000E+00;  0.0000000E+00;  0.0000000E+00;0;  9.1163907E-04;  9.9504921E+01;  0.0000000E+00; -6.9015630E-05;  1.0000000E+02;  0.0000000E+00;  1.0000655E+02;  9.2899124E-04;  0.0000000E+00; -1.7352168E-05;  0.0000000E+00;
  3.9926973E-01;  9.9999998E-03;  3.9993450E-01;194;  5.4667355E-05;  0.0000000E+00; -2.5705942E-05;  9.9959545E+00;  4.0083754E-01; -4.3525481E-01;3; -2.6264597E-02;  0.0000000E+00;  3.7343673E-02;  0.0000000E+00;  0.0000000E+00;  0.0000000E+00;0;  9.1766182E-04;  9.9493271E+01;  0.0000000E+00; -3.1582720E-04;  1.0000000E+02;  0.0000000E+00;  1.0000670E+02;  9.3207357E-04;  0.0000000E+00; -1.4411778E-05;  0.0000000E+00;
  3.9923489E-01;  9.9999998E-03;  5.9988964E-01;195;  7.0391252E-06;  0.0000000E+00; -4.2291365E-05;  9.9959698E+00;  4.0085298E-01; -4.3365154E-01;3; -2.5084587E-02;  0.0000000E+00;  6.5400861E-02;  0.0000000E+00;  0.0000000E+00;  0.0000000E+00;0;  9.1603526E-04;  9.9488861E+01;  0.0000000E+00; -6.0301111E-04;  1.0000000E+02;  0.0000000E+00;  1.0000744E+02;  9.2576485E-04;  0.0000000E+00; -9.7295870E-06;  0.0000000E+00;
  3.9926392E-01;  9.9999998E-03;  7.9982054E-01;196; -3.8469334E-06;  0.0000000E+00; -7.4902571E-05;  9.9961014E+00;  4.0082952E-01; -4.1947865E-01;3; -2.5437599E-02;  0.0000000E+00;  9.5441431E-02;  0.0000000E+00;  0.0000000E+00;  0.0000000E+00;0;  8.8709319E-04;  9.9507851E+01;  0.0000000E+00; -4.2764211E-04;  1.0000000E+02;  0.0000000E+00;  9.9999763E+01;  8.9172361E-04;  0.0000000E+00; -4.6304085E-06;  0.0000000E+00;
  3.9939624E-01;  9.9999998E-03;  9.9977708E-01;197;  5.6432029E-05;  0.0000000E+00; -1.1355124E-04;  9.9964857E+00;  4.0073761E-01; -3.7811437E-01;3; -2.5769375E-02;  0.0000000E+00;  1.1994047E-01;  0.0000000E+00;  0.0000000E+00;  0.0000000E+00;0;  8.1232877E-04;  9.9560555E+01;  0.0000000E+00;  5.9868634E-04;  1.0000000E+02;  0.0000000E+00;  1.0000108E+02;  8.1546657E-04;  0.0000000E+00; -3.1377931E-06;  0.0000000E+00;
  5.9922510E-01;  9.9999998E-03; -6.2555722E-10;203;  9.7820768E-05;  0.0000000E+00;  3.6270323E-10;  9.9939308E+00;  4.0173090E-01; -6.5296698E-01;3; -1.1619266E-02;  0.0000000E+00;  1.7469803E-08;  0.0000000E+00;  0.0000000E+00;  0.0000000E+00;0;  1.8239644E-03;  9.9017372E+01;  0.0000000E+00; -2.2437708E-15;  1.0000000E+02;  0.0000000E+00;  1.0000091E+02;  1.8326390E-03;  0.0000000E+00; -8.6745285E-06;  0.0000000E+00;
  5.9921449E-01;  9.9999998E-03;  1.9995818E-01;204;  8.1502731E-05;  0.0000000E+00; -1.7788087E-05;  9.9939442E+00;  4.0174618E-01; -6.5155613E-01;3; -1.0622257E-02;  0.0000000E+00;  1.7220717E-02;  0.0000000E+00;  0.0000000E+00;  0.0000000E+00;0;  1.8206694E-03;  9.9009674E+01;  0.0000000E+00; -2.0350593E-04;  1.0000000E+02;  0.0000000E+00;  1.0000114E+02;  1.8294108E-03;  0.0000000E+00; -8.7413782E-06;  0.0000000E+00;
  5.9917456E-01;  9.9999998E-03;  3.9991388E-01;205;  2.8764953E-05;  0.0000000E+00; -3.6996251E-05;  9.9939833E+00;  4.0177724E-01; -6.4732361E-01;3; -6.5868534E-03;  0.0000000E+00;  4.1868955E-02;  0.0000000E+00;  0.0000000E+00;  0.0000000E+00;0;  1.8105331E-03;  9.8994652E+01;  0.0000000E+00; -7.0745125E-04;  1.0000000E+02;  0.0000000E+00;  1.0000236E+02;  1.8192581E-03;  0.0000000E+00; -8.7250073E-06;  0.0000000E+00;
  5.9914666E-01;  9.9999998E-03;  5.9984058E-01;206; -3.5317451E-05;  0.0000000E+00; -7.5694807E-05;  9.9940834E+00;  4.0178177E-01; -6.3654983E-01;3; -8.9276698E-04;  0.0000000E+00;  7.8388542E-02;  0.0000000E+00;  0.0000000E+00;  0.0000000E+00;0;  1.7828901E-03;  9.8991776E+01;  0.0000000E+00; -5.2777654E-04;  1.0000000E+02;  0.0000000E+00;  1.0000454E+02;  1.7925636E-03;  0.0000000E+00; -9.6735566E-06;  0.0000000E+00;
  5.9919351E-01;  9.9999998E-03;  7.9973334E-01;207; -6.3873791E-05;  0.0000000E+00; -1.3920275E-04;  9.9943542E+00;  4.0171909E-01; -6.0743499E-01;3;  9.6078943E-03;  0.0000000E+00;  1.2514961E-01;  0.0000000E+00;  0.0000000E+00;  0.0000000E+00;0;  1.7047710E-03;  9.9027145E+01;  0.0000000E+00;  2.3541325E-03;  1.0000000E+02;  0.0000000E+00;  1.0000734E+02;  1.7201464E-03;  0.0000000E+00; -1.5375415E-05;  0.0000000E+00;
  5.9951234E-01;  9.9999998E-03;  9.9967819E-01;208;  5.3359032E-05;  0.0000000E+00; -1.9277264E-04;  9.9948664E+00;  4.0154910E-01; -5.5234772E-01;3;  2.4908688E-02;  0.0000000E+00;  1.6510001E-01;  0.0000000E+00;  0.0000000E+00;  0.0000000E+00;0;  1.5562410E-03;  9.9115952E+01;  0.0000000E+00;  8.2016233E-03;  1.0000000E+02;  0.0000000E+00;  1.0001079E+02;  1.5845888E-03;  0.0000000E+00; -2.8347829E-05;  0.0000000E+00;
  7.9923183E-01;  9.9999998E-03; -9.0989744E-10;214;  9.8540440E-05;  0.0000000E+00;  2.0123322E-10;  9.9921846E+00;  4.0295187E-01; -8.4083390E-01;3; -5.0723092E-03;  0.0000000E+00;  9.8583577E-09;  0.0000000E+00;  0.0000000E+00;  0.0000000E+00;0;  3.0725524E-03;  9.8393867E+01;  0.0000000E+00;  1.0038781E-15;  1.0000000E+02;  0.0000000E+00;  9.9992416E+01;  3.0611812E-03;  0.0000000E+00;  1.1371262E-05;  0.0000000E+00;
  7.9918635E-01;  9.9999998E-03;  1.9997780E-01;215;  7.4036659E-05;  0.0000000E+00; -7.1134918E-06;  9.9922075E+00;  4.0297326E-01; -8.3839709E-01;3; -3.2606868E-03;  0.0000000E+00;  1.5484318E-02;  0.0000000E+00;  0.0000000E+00;  0.0000000E+00;0;  3.0620585E-03;  9.8382607E+01;  0.0000000E+00; -3.7064741E-04;  1.0000000E+02;  0.0000000E+00;  9.9992531E+01;  3.0520046E-03;  0.0000000E+00;  1.0053916E-05;  0.0000000E+00;
  7.9913944E-01;  9.9999998E-03;  3.9995605E-01;216; -3.5489873E-07;  0.0000000E+00; -1.6618049E-05;  9.9922228E+00;  4.0302446E-01; -8.3672976E-01;3;  4.1921535E-03;  0.0000000E+00;  3.8371563E-02;  0.0000000E+00;  0.0000000E+00;  0.0000000E+00;0;  3.0352012E-03;  9.8358398E+01;  0.0000000E+00; -8.3965325E-04;  1.0000000E+02;  0.0000000E+00;  9.9994034E+01;  3.0282547E-03;  0.0000000E+00;  6.9465723E-06;  0.0000000E+00;
  7.9914564E-01;  9.9999998E-03;  5.9990525E-01;217; -9.6409189E-05;  0.0000000E+00; -5.5474837E-05;  9.9923639E+00;  4.0304154E-01; -8.2153165E-01;3;  2.0627549E-02;  0.0000000E+00;  7.4807778E-02;  0.0000000E+00;  0.0000000E+00;  0.0000000E+00;0;  2.9808858E-03;  9.8347740E+01;  0.0000000E+00;  1.9236937E-03;  1.0000000E+02;  0.0000000E+00;  9.9997978E+01;  2.9821936E-03;  0.0000000E+00; -1.3078334E-06;  0.0000000E+00;
  7.9930174E-01;  9.9999998E-03;  7.9987210E-01;218; -1.2195721E-04;  0.0000000E+00; -7.9294477E-05;  9.9926834E+00;  4.0296036E-01; -7.8715950E-01;3;  7.3064357E-02;  0.0000000E+00;  1.1123817E-01;  0.0000000E+00;  0.0000000E+00;  0.0000000E+00;0;  2.8595033E-03;  9.8385193E+01;  0.0000000E+00;  1.3422504E-02;  1.0000000E+02;  0.0000000E+00;  1.0000465E+02;  2.8739111E-03;  0.0000000E+00; -1.4407833E-05;  0.0000000E+00;
  8.0091405E-01;  9.9999998E-03;  9.9998671E-01;219;  7.4501522E-04;  0.0000000E+00;  3.4207591E-05;  9.9925032E+00;  4.0290046E-01; -8.0658960E-01;3;  1.6389781E-01;  0.0000000E+00;  1.1832581E-01;  0.0000000E+00;  0.0000000E+00;  0.0000000E+00;0;  2.9414420E-03;  9.8415161E+01;  0.0000000E+00;  2.6920998E-02;  1.0000000E+02;  0.0000000E+00;  1.0000304E+02;  2.9344556E-03;  0.0000000E+00;  6.9862544E-06;  0.0000000E+00;
  1.0011958E+00;  9.9999998E-03;  3.2112517E-09;225;  1.2650237E-04;  0.0000000E+00; -5.0736637E-10;  9.9910088E+00;  4.0443221E-01; -9.6727186E-01;3; -1.9317956E-03;  0.0000000E+00;  2.9833256E-08;  0.0000000E+00;  0.0000000E+00;  0.0000000E+00;0;  4.5209485E-03;  9.7658546E+01;  0.0000000E+00;  3.4710650E-15;  1.0000000E+02;  0.0000000E+00;  9.9984016E+01;  4.4839806E-03;  0.0000000E+00;  3.6967795E-05;  0.0000000E+00;
  1.0006393E+00;  9.9999998E-03;  2.0009023E-01;226;  6.7005276E-05;  0.0000000E+00;  2.2382143E-05;  9.9910250E+00;  4.0447128E-01; -9.6554089E-01;3;  1.0036858E-04;  0.0000000E+00;  1.2098430E-02;  0.0000000E+00;  0.0000000E+00;  0.0000000E+00;0;  4.5054820E-03;  9.7641296E+01;  0.0000000E+00; -6.0833117E-04;  1.0000000E+02;  0.0000000E+00;  9.9982941E+01;  4.4701062E-03;  0.0000000E+00;  3.5375775E-05;  0.0000000E+00;
  1.0011863E+00;  9.9999998E-03;  4.0015590E-01;227; -2.0791700E-05;  0.0000000E+00;  2.6183270E-05;  9.9910479E+00;  4.0458664E-01; -9.6303982E-01;3;  7.5313258E-03;  0.0000000E+00;  2.7888186E-02;  0.0000000E+00;  0.0000000E+00;  0.0000000E+00;0;  4.4785207E-03;  9.7590263E+01;  0.0000000E+00; -1.3848925E-03;  1.0000000E+02;  0.0000000E+00;  9.9981064E+01;  4.4465223E-03;  0.0000000E+00;  3.1998221E-05;  0.0000000E+00;
  1.0011154E+00;  9.9999998E-03;  6.0011435E-01;228; -1.2886546E-04;  0.0000000E+00;  3.3214640E-06;  9.9911890E+00;  4.0467700E-01; -9.4784307E-01;3;  3.0936968E-02;  0.0000000E+00;  4.7755461E-02;  0.0000000E+00;  0.0000000E+00;  0.0000000E+00;0;  4.4080168E-03;  9.7548286E+01;  0.0000000E+00;  4.7245594E-03;  1.0000000E+02;  0.0000000E+00;  9.9979820E+01;  4.3856772E-03;  0.0000000E+00;  2.2339716E-05;  0.0000000E+00;
  1.0018172E+00;  9.9999998E-03;  8.0042738E-01;229;  8.8804285E-04;  0.0000000E+00;  2.6387884E-04;  9.9907951E+00;  4.0474877E-01; -9.9022686E-01;3;  1.0430662E-01;  0.0000000E+00; -6.8830885E-03;  0.0000000E+00;  0.0000000E+00;  0.0000000E+00;0;  4.6038786E-03;  9.7525688E+01;  0.0000000E+00;  2.4737438E-02;  1.0000000E+02;  0.0000000E+00;  9.9959999E+01;  4.4966652E-03;  0.0000000E+00;  1.0721342E-04;  0.0000000E+00;
  1.0081890E+00;  9.9999998E-03;  1.0004715E+00;230;  3.3225410E-03;  0.0000000E+00;  1.7708360E-04;  9.9889555E+00;  4.0565500E-01; -1.1881649E+00;3;  1.5520945E-02;  0.0000000E+00;  1.2984372E-03;  0.0000000E+00;  0.0000000E+00;  0.0000000E+00;0;  5.5359011E-03;  9.7058998E+01;  0.0000000E+00;  4.7700075E-03;  1.0000000E+02;  0.0000000E+00;  9.9958229E+01;  5.4608369E-03;  0.0000000E+00;  7.5063916E-05;  0.0000000E+00;
  1.2080147E+00;  9.9999998E-03; -4.1694126E-10;236;  4.1866731E-03;  0.0000000E+00; -4.2531982E-09;  9.9905176E+00;  4.0626338E-01; -1.0199008E+00;3; -3.3110175E-03;  0.0000000E+00;  2.3763569E-08;  0.0000000E+00;  0.0000000E+00;  0.0000000E+00;0;  6.0408516E-03;  9.6778969E+01;  0.0000000E+00; -1.8550426E-15;  1.0000000E+02;  0.0000000E+00;  9.9975441E+01;  5.9813159E-03;  0.0000000E+00;  5.9535709E-05;  0.0000000E+00;
  1.2075140E+00;  9.9999998E-03;  2.0014428E-01;237;  2.7937868E-03;  0.0000000E+00;  8.8446417E-05;  9.9904509E+00;  4.0633950E-01; -1.0270817E+00;3; -1.3005068E-03;  0.0000000E+00;  8.6931204E-03;  0.0000000E+00;  0.0000000E+00;  0.0000000E+00;0;  6.0716262E-03;  9.6744049E+01;  0.0000000E+00; -1.6516708E-03;  1.0000000E+02;  0.0000000E+00;  9.9971825E+01;  6.0092332E-03;  0.0000000E+00;  6.2393017E-05;  0.0000000E+00;
  1.2051244E+00;  9.9999998E-03;  4.0021703E-01;238;  2.6935188E-05;  0.0000000E+00; -1.0206831E-05;  9.9905014E+00;  4.0649578E-01; -1.0216359E+00;3;  7.5348783E-03;  0.0000000E+00;  1.5685152E-02;  0.0000000E+00;  0.0000000E+00;  0.0000000E+00;0;  5.9957206E-03;  9.6679703E+01;  0.0000000E+00; -3.8217166E-03;  1.0000000E+02;  0.0000000E+00;  9.9963158E+01;  5.9510185E-03;  0.0000000E+00;  4.4701996E-05;  0.0000000E+00;
  1.2034713E+00;  9.9999998E-03;  6.0001570E-01;239;  2.0286432E-05;  0.0000000E+00; -3.6108308E-05;  9.9906349E+00;  4.0656027E-01; -1.0072778E+00;3;  3.7291337E-02;  0.0000000E+00;  2.4772877E-02;  0.0000000E+00;  0.0000000E+00;  0.0000000E+00;0;  5.9024538E-03;  9.6645355E+01;  0.0000000E+00;  6.7139301E-03;  1.0000000E+02;  0.0000000E+00;  9.9971863E+01;  5.8804047E-03;  0.0000000E+00;  2.2048996E-05;  0.0000000E+00;
  1.2076136E+00;  9.9999998E-03;  8.0031973E-01;240;  2.9502304E-03;  0.0000000E+00;  1.8234452E-04;  9.9896297E+00;  4.0699539E-01; -1.1153588E+00;3;  5.1685572E-02;  0.0000000E+00; -3.1943597E-02;  0.0000000E+00;  0.0000000E+00;  0.0000000E+00;0;  6.5495730E-03;  9.6444237E+01;  0.0000000E+00;  9.9022305E-03;  1.0000000E+02;  0.0000000E+00;  9.9946487E+01;  6.4290324E-03;  0.0000000E+00;  1.2054054E-04;  0.0000000E+00;
  1.2112592E+00;  9.9999998E-03;  1.0003803E+00;241;  4.3266378E-03;  0.0000000E+00;  1.5023370E-04;  9.9885969E+00;  4.0768087E-01; -1.2264524E+00;3; -1.0788538E-02;  0.0000000E+00; -3.4292556E-02;  0.0000000E+00;  0.0000000E+00;  0.0000000E+00;0;  7.2163153E-03;  9.6097748E+01;  0.0000000E+00; -9.7853923E-04;  1.0000000E+02;  0.0000000E+00;  9.9948044E+01;  7.1237646E-03;  0.0000000E+00;  9.2550639E-05;  0.0000000E+00;
  1.4095564E+00;  9.9999998E-03;  3.6247672E-10;247;  5.8115921E-03;  0.0000000E+00; -4.3989630E-09;  9.9904184E+00;  4.0865663E-01; -1.0300835E+00;3;  1.2456219E-03;  0.0000000E+00;  4.4519616E-08;  0.0000000E+00;  0.0000000E+00;  0.0000000E+00;0;  7.5667840E-03;  9.5653099E+01;  0.0000000E+00;  8.3230373E-16;  1.0000000E+02;  0.0000000E+00;  9.9969467E+01;  7.4969321E-03;  0.0000000E+00;  6.9851776E-05;  0.0000000E+00;
  1.4101716E+00;  9.9999998E-03;  2.0033213E-01;248;  5.8240243E-03;  0.0000000E+00;  1.4672881E-04;  9.9902983E+00;  4.0873092E-01; -1.0430256E+00;3;  2.0660623E-03;  0.0000000E+00;  5.3019910E-03;  0.0000000E+00;  0.0000000E+00;  0.0000000E+00;0;  7.6654311E-03;  9.5625427E+01;  0.0000000E+00; -1.8248936E-03;  1.0000000E+02;  0.0000000E+00;  9.9958481E+01;  7.5834282E-03;  0.0000000E+00;  8.2003098E-05;  0.0000000E+00;
  1.4105566E+00;  9.9999998E-03;  4.0031591E-01;249;  3.7588486E-03;  0.0000000E+00;  1.0227719E-04;  9.9901123E+00;  4.0890953E-01; -1.0630171E+00;3;  1.3431566E-04;  0.0000000E+00;  6.3741435E-03;  0.0000000E+00;  0.0000000E+00;  0.0000000E+00;0;  7.7881529E-03;  9.5558128E+01;  0.0000000E+00; -7.3391488E-03;  1.0000000E+02;  0.0000000E+00;  9.9940094E+01;  7.7003641E-03;  0.0000000E+00;  8.7788831E-05;  0.0000000E+00;
  1.4089204E+00;  9.9999998E-03;  6.0010499E-01;250;  2.5110578E-03;  0.0000000E+00; -3.2862365E-05;  9.9901485E+00;  4.0897217E-01; -1.0591139E+00;3;  1.1474541E-02;  0.0000000E+00;  5.1849284E-03;  0.0000000E+00;  0.0000000E+00;  0.0000000E+00;0;  7.7306037E-03;  9.5526672E+01;  0.0000000E+00; -3.5270522E-03;  1.0000000E+02;  0.0000000E+00;  9.9941284E+01;  7.6962612E-03;  0.0000000E+00;  3.4342542E-05;  0.0000000E+00;
  1.4112231E+00;  9.9999998E-03;  8.0018240E-01;251;  4.3580378E-03;  0.0000000E+00;  7.6304008E-05;  9.9897366E+00;  4.0914869E-01; -1.1033850E+00;3;  2.5490513E-02;  0.0000000E+00; -2.2199066E-02;  0.0000000E+00;  0.0000000E+00;  0.0000000E+00;0;  8.1100911E-03;  9.5439651E+01;  0.0000000E+00;  4.2712148E-03;  1.0000000E+02;  0.0000000E+00;  9.9938347E+01;  8.0244988E-03;  0.0000000E+00;  8.5591841E-05;  0.0000000E+00;
  1.4143056E+00;  9.9999998E-03;  1.0003107E+00;252;  5.4093772E-03;  0.0000000E+00;  1.0564408E-04;  9.9892511E+00;  4.0951344E-01; -1.1555980E+00;3; -1.0382225E-02;  0.0000000E+00; -3.3061475E-02;  0.0000000E+00;  0.0000000E+00;  0.0000000E+00;0;  8.5141473E-03;  9.5259369E+01;  0.0000000E+00; -2.3265646E-03;  1.0000000E+02;  0.0000000E+00;  9.9941017E+01;  8.4281377E-03;  0.0000000E+00;  8.6009793E-05;  0.0000000E+00;
  1.6102636E+00;  9.9999998E-03;  4.9568936E-09;258;  5.7703718E-03;  0.0000000E+00;  9.2518695E-09;  9.9901714E+00;  4.1196471E-01; -1.0556368E+00;3;  1.3731031E-03;  0.0000000E+00;  3.1056416E-08;  0.0000000E+00;  0.0000000E+00;  0.0000000E+00;0;  9.5173893E-03;  9.4133308E+01;  0.0000000E+00; -9.0698721E-15;  1.0000000E+02;  0.0000000E+00;  9.9950806E+01;  9.4485898E-03;  0.0000000E+00;  6.8799556E-05;  0.0000000E+00;
  1.6107962E+00;  9.9999998E-03;  2.0012090E-01;259;  5.8872290E-03;  0.0000000E+00;  2.4066739E-04;  9.9901028E+00;  4.1197580E-01; -1.0629947E+00;3;  1.9161552E-03;  0.0000000E+00;  3.4520107E-03;  0.0000000E+00;  0.0000000E+00;  0.0000000E+00;0;  9.6016694E-03;  9.4137863E+01;  0.0000000E+00; -9.7608147E-04;  1.0000000E+02;  0.0000000E+00;  9.9939636E+01;  9.5011340E-03;  0.0000000E+00;  1.0053542E-04;  0.0000000E+00;
  1.6121860E+00;  9.9999998E-03;  4.0004280E-01;260;  6.0246550E-03;  0.0000000E+00;  1.5051656E-04;  9.9899664E+00;  4.1197291E-01; -1.0776438E+00;3;  2.4083683E-03;  0.0000000E+00;  4.8290719E-03;  0.0000000E+00;  0.0000000E+00;  0.0000000E+00;0;  9.7463010E-03;  9.4154442E+01;  0.0000000E+00; -4.1134860E-03;  1.0000000E+02;  0.0000000E+00;  9.9919861E+01;  9.6198488E-03;  0.0000000E+00;  1.2645226E-04;  0.0000000E+00;
  1.6132820E+00;  9.9999998E-03;  5.9993768E-01;261;  5.5002705E-03;  0.0000000E+00;  6.0518723E-05;  9.9899397E+00;  4.1187018E-01; -1.0804521E+00;3;  5.4428056E-03;  0.0000000E+00;  4.8722094E-03;  0.0000000E+00;  0.0000000E+00;  0.0000000E+00;0;  9.7835073E-03;  9.4201721E+01;  0.0000000E+00; -4.7465083E-03;  1.0000000E+02;  0.0000000E+00;  9.9919647E+01;  9.6635828E-03;  0.0000000E+00;  1.1992411E-04;  0.0000000E+00;
  1.6156242E+00;  9.9999998E-03;  8.0009121E-01;262;  6.0196626E-03;  0.0000000E+00;  3.8116890E-05;  9.9899654E+00;  4.1173556E-01; -1.0776812E+00;3;  1.0664663E-02;  0.0000000E+00; -4.1216891E-03;  0.0000000E+00;  0.0000000E+00;  0.0000000E+00;0;  9.7811949E-03;  9.4261414E+01;  0.0000000E+00; -3.3414830E-04;  1.0000000E+02;  0.0000000E+00;  9.9924057E+01;  9.6922293E-03;  0.0000000E+00;  8.8965724E-05;  0.0000000E+00;
  1.6183311E+00;  9.9999998E-03;  1.0003394E+00;263;  6.7921034E-03;  0.0000000E+00;  8.1094586E-05;  9.9899445E+00;  4.1164145E-01; -1.0799004E+00;3; -4.7810553E-03;  0.0000000E+00; -1.6844403E-02;  0.0000000E+00;  0.0000000E+00;  0.0000000E+00;0;  9.8270793E-03;  9.4305611E+01;  0.0000000E+00; -2.7155394E-03;  1.0000000E+02;  0.0000000E+00;  9.9925423E+01;  9.7411266E-03;  0.0000000E+00;  8.5953063E-05;  0.0000000E+00;
  1.8113810E+00;  9.9999998E-03;  1.4623860E-09;269;  5.6997831E-03;  0.0000000E+00;  2.3870798E-11;  9.9895906E+00;  4.1626686E-01; -1.1155688E+00;3;  1.1438862E-03;  0.0000000E+00;  2.8636123E-08;  0.0000000E+00;  0.0000000E+00;  0.0000000E+00;0;  1.2272464E-02;  9.2241821E+01;  0.0000000E+00; -9.6962691E-15;  1.0000000E+02;  0.0000000E+00;  9.9892052E+01;  1.2194829E-02;  0.0000000E+00;  7.7635385E-05;  0.0000000E+00;
  1.8118769E+00;  9.9999998E-03;  1.9974311E-01;270;  5.8261948E-03;  0.0000000E+00;  7.9417892E-05;  9.9896088E+00;  4.1617346E-01; -1.1136439E+00;3;  1.4552885E-03;  0.0000000E+00;  1.6470387E-03;  0.0000000E+00;  0.0000000E+00;  0.0000000E+00;0;  1.2270127E-02;  9.2289833E+01;  0.0000000E+00; -1.9860745E-04;  1.0000000E+02;  0.0000000E+00;  9.9886284E+01;  1.2168597E-02;  0.0000000E+00;  1.0152987E-04;  0.0000000E+00;
  1.8142260E+00;  9.9999998E-03;  3.9958280E-01;271;  6.2088231E-03;  0.0000000E+00;  8.5024316E-05;  9.9896526E+00;  4.1589731E-01; -1.1088763E+00;3;  1.8975500E-03;  0.0000000E+00;  3.4530894E-03;  0.0000000E+00;  0.0000000E+00;  0.0000000E+00;0;  1.2247431E-02;  9.2420090E+01;  0.0000000E+00; -7.1151601E-04;  1.0000000E+02;  0.0000000E+00;  9.9878517E+01;  1.2092826E-02;  0.0000000E+00;  1.5460498E-04;  0.0000000E+00;
  1.8181893E+00;  9.9999998E-03;  5.9975946E-01;272;  7.1822177E-03;  0.0000000E+00;  2.1523172E-05;  9.9898024E+00;  4.1548815E-01; -1.0927751E+00;3;  3.1635843E-03;  0.0000000E+00;  4.5701708E-03;  0.0000000E+00;  0.0000000E+00;  0.0000000E+00;0;  1.2116406E-02;  9.2608109E+01;  0.0000000E+00; -1.4529623E-03;  1.0000000E+02;  0.0000000E+00;  9.9874512E+01;  1.1952767E-02;  0.0000000E+00;  1.6363856E-04;  0.0000000E+00;
  1.8217911E+00;  9.9999998E-03;  8.0012208E-01;273;  8.1404336E-03;  0.0000000E+00;  2.7181659E-05;  9.9900827E+00;  4.1495937E-01; -1.0626303E+00;3;  3.9894660E-03;  0.0000000E+00;  3.6809121E-03;  0.0000000E+00;  0.0000000E+00;  0.0000000E+00;0;  1.1847851E-02;  9.2843575E+01;  0.0000000E+00; -3.0401309E-03;  1.0000000E+02;  0.0000000E+00;  9.9880745E+01;  1.1714501E-02;  0.0000000E+00;  1.3334982E-04;  0.0000000E+00;
  1.8240941E+00;  9.9999998E-03;  1.0005392E+00;274;  8.5304109E-03;  0.0000000E+00;  8.8120847E-05;  9.9904118E+00;  4.1436157E-01; -1.0273371E+00;3; -7.5818622E-04;  0.0000000E+00; -1.2028116E-03;  0.0000000E+00;  0.0000000E+00;  0.0000000E+00;0;  1.1466146E-02;  9.3114014E+01;  0.0000000E+00; -4.4959937E-03;  1.0000000E+02;  0.0000000E+00;  9.9887001E+01;  1.1355678E-02;  0.0000000E+00;  1.1046847E-04;  0.0000000E+00;
  2.0156538E+00;  9.9999998E-03;  1.1219927E-09;280;  5.7564629E-03;  0.0000000E+00; -8.5060053E-10;  9.9888639E+00;  4.2118555E-01; -1.1877526E+00;3;  9.4843528E-04;  0.0000000E+00;  2.9667206E-08;  0.0000000E+00;  0.0000000E+00;  0.0000000E+00;0;  1.5886690E-02;  9.0215790E+01;  0.0000000E+00; -3.2949324E-14;  1.0000000E+02;  0.0000000E+00;  9.9751968E+01;  1.5733639E-02;  0.0000000E+00;  1.5305186E-04;  0.0000000E+00;
  2.0164926E+00;  9.9999998E-03;  1.9946571E-01;281;  5.9347395E-03;  0.0000000E+00; -1.5562685E-04;  9.9889603E+00;  4.2097816E-01; -1.1774842E+00;3;  7.8066974E-04;  0.0000000E+00;  3.0690341E-04;  0.0000000E+00;  0.0000000E+00;  0.0000000E+00;0;  1.5763311E-02;  9.0307114E+01;  0.0000000E+00; -8.0117527E-05;  1.0000000E+02;  0.0000000E+00;  9.9750305E+01;  1.5604110E-02;  0.0000000E+00;  1.5920047E-04;  0.0000000E+00;
  2.0200095E+00;  9.9999998E-03;  3.9908466E-01;282;  7.1986183E-03;  0.0000000E+00; -1.8645036E-04;  9.9892483E+00;  4.2036515E-01; -1.1465795E+00;3;  6.1707257E-04;  0.0000000E+00;  1.4130437E-03;  0.0000000E+00;  0.0000000E+00;  0.0000000E+00;0;  1.5439606E-02;  9.0556595E+01;  0.0000000E+00; -1.2488685E-04;  1.0000000E+02;  0.0000000E+00;  9.9770721E+01;  1.5262140E-02;  0.0000000E+00;  1.7746590E-04;  0.0000000E+00;
  2.0308537E+00;  9.9999998E-03;  5.9966385E-01;283;  9.6940724E-03;  0.0000000E+00; -6.0227005E-05;  9.9896135E+00;  4.1962081E-01; -1.1072632E+00;3; -2.0702113E-03;  0.0000000E+00;  2.4402747E-03;  0.0000000E+00;  0.0000000E+00;  0.0000000E+00;0;  1.5064092E-02;  9.0884796E+01;  0.0000000E+00; -2.6820479E-03;  1.0000000E+02;  0.0000000E+00;  9.9772278E+01;  1.4827941E-02;  0.0000000E+00;  2.3615187E-04;  0.0000000E+00;
  2.0343544E+00;  9.9999998E-03;  8.0039573E-01;284;  1.1454881E-02;  0.0000000E+00;  3.3559696E-05;  9.9901218E+00;  4.1868615E-01; -1.0529323E+00;3; -1.1616863E-03;  0.0000000E+00;  3.3970890E-03;  0.0000000E+00;  0.0000000E+00;  0.0000000E+00;0;  1.4374614E-02;  9.1290695E+01;  0.0000000E+00; -1.0764209E-02;  1.0000000E+02;  0.0000000E+00;  9.9780457E+01;  1.4159868E-02;  0.0000000E+00;  2.1474621E-04;  0.0000000E+00;
  2.0335050E+00;  9.9999998E-03;  1.0010835E+00;285;  1.0573409E-02;  0.0000000E+00;  1.5855914E-04;  9.9906998E+00;  4.1765219E-01; -9.9133527E-01;3; -1.1261532E-03;  0.0000000E+00;  2.8111241E-03;  0.0000000E+00;  0.0000000E+00;  0.0000000E+00;0;  1.3526076E-02;  9.1744225E+01;  0.0000000E+00; -1.1116675E-02;  1.0000000E+02;  0.0000000E+00;  9.9793427E+01;  1.3339860E-02;  0.0000000E+00;  1.8621559E-04;  0.0000000E+00;
  2.2350178E+00;  9.9999998E-03; -2.6751727E-09;291;  7.9453979E-03;  0.0000000E+00; -1.2305651E-10;  9.9883709E+00;  4.2603898E-01; -1.2267648E+00;3; -3.3004230E-03;  0.0000000E+00;  7.9164693E-09;  0.0000000E+00;  0.0000000E+00;  0.0000000E+00;0;  2.0168841E-02;  8.8406639E+01;  0.0000000E+00; -3.4750858E-14;  1.0000000E+02;  0.0000000E+00;  9.9476074E+01;  1.9764744E-02;  0.0000000E+00;  4.0409720E-04;  0.0000000E+00;
  2.2356801E+00;  9.9999998E-03;  1.9939476E-01;292;  8.6181434E-03;  0.0000000E+00; -2.6978971E-04;  9.9885311E+00;  4.2573506E-01; -1.2098564E+00;3; -3.1142791E-03;  0.0000000E+00; -6.2689442E-06;  0.0000000E+00;  0.0000000E+00;  0.0000000E+00;0;  1.9901846E-02;  8.8533524E+01;  0.0000000E+00; -6.4798180E-05;  1.0000000E+02;  0.0000000E+00;  9.9478394E+01;  1.9497644E-02;  0.0000000E+00;  4.0420066E-04;  0.0000000E+00;
  2.2380347E+00;  9.9999998E-03;  3.9896742E-01;293;  1.0118339E-02;  0.0000000E+00; -3.9484439E-04;  9.9889946E+00;  4.2482382E-01; -1.1607447E+00;3; -2.5363753E-03;  0.0000000E+00;  1.6283157E-04;  0.0000000E+00;  0.0000000E+00;  0.0000000E+00;0;  1.9137295E-02;  8.8883018E+01;  0.0000000E+00; -2.2393049E-04;  1.0000000E+02;  0.0000000E+00;  9.9524643E+01;  1.8764000E-02;  0.0000000E+00;  3.7329490E-04;  0.0000000E+00;
  2.2431655E+00;  9.9999998E-03;  5.9987110E-01;294;  1.5863096E-02;  0.0000000E+00; -1.5622527E-04;  9.9896364E+00;  4.2358899E-01; -1.0926350E+00;3;  1.2663956E-03;  0.0000000E+00;  5.0139992E-04;  0.0000000E+00;  0.0000000E+00;  0.0000000E+00;0;  1.8101458E-02;  8.9375221E+01;  0.0000000E+00; -4.4082190E-04;  1.0000000E+02;  0.0000000E+00;  9.9563614E+01;  1.7715089E-02;  0.0000000E+00;  3.8636848E-04;  0.0000000E+00;
  2.2461984E+00;  9.9999998E-03;  8.0112767E-01;295;  1.7170550E-02;  0.0000000E+00;  1.1484217E-04;  9.9903193E+00;  4.2235592E-01; -1.0204551E+00;3;  1.2476915E-03;  0.0000000E+00;  9.3153154E-04;  0.0000000E+00;  0.0000000E+00;  0.0000000E+00;0;  1.6955933E-02;  8.9900337E+01;  0.0000000E+00; -3.0414779E-03;  1.0000000E+02;  0.0000000E+00;  9.9575592E+01;  1.6571017E-02;  0.0000000E+00;  3.8491565E-04;  0.0000000E+00;
  2.2465069E+00;  9.9999998E-03;  1.0022334E+00;296;  1.6560867E-02;  0.0000000E+00;  3.4533799E-04;  9.9909496E+00;  4.2123049E-01; -9.5396137E-01;3;  1.9387141E-03;  0.0000000E+00;  8.8342821E-04;  0.0000000E+00;  0.0000000E+00;  0.0000000E+00;0;  1.5857829E-02;  9.0382332E+01;  0.0000000E+00; -8.3431751E-03;  1.0000000E+02;  0.0000000E+00;  9.9587700E+01;  1.5517456E-02;  0.0000000E+00;  3.4037241E-04;  0.0000000E+00;
  2.4688375E+00;  9.9999998E-03; -3.6825931E-09;302;  2.0898655E-02;  0.0000000E+00; -3.8720946E-09;  9.9885883E+00;  4.2994401E-01; -1.1758094E+00;3; -6.0835998E-03;  0.0000000E+00;  6.1568528E-09;  0.0000000E+00;  0.0000000E+00;  0.0000000E+00;0;  2.3963656E-02;  8.7207588E+01;  0.0000000E+00;  4.4296583E-15;  1.0000000E+02;  0.0000000E+00;  9.9022743E+01;  2.2983992E-02;  0.0000000E+00;  9.7966380E-04;  0.0000000E+00;
  2.4669082E+00;  9.9999998E-03;  1.9954264E-01;303;  2.0419462E-02;  0.0000000E+00; -2.4799220E-04;  9.9887419E+00;  4.2963880E-01; -1.1602638E+00;3; -5.8515109E-03;  0.0000000E+00; -6.0652350E-05;  0.0000000E+00;  0.0000000E+00;  0.0000000E+00;0;  2.3606628E-02;  8.7323685E+01;  0.0000000E+00;  3.2233188E-06;  1.0000000E+02;  0.0000000E+00;  9.9033295E+01;  2.2636091E-02;  0.0000000E+00;  9.7053737E-04;  0.0000000E+00;
  2.4618139E+00;  9.9999998E-03;  3.9939830E-01;304;  1.9633928E-02;  0.0000000E+00; -3.8485893E-04;  9.9891901E+00;  4.2872790E-01; -1.1148221E+00;3; -3.5003428E-03;  0.0000000E+00; -8.5185791E-05;  0.0000000E+00;  0.0000000E+00;  0.0000000E+00;0;  2.2559175E-02;  8.7642334E+01;  0.0000000E+00;  1.0425028E-05;  1.0000000E+02;  0.0000000E+00;  9.9106537E+01;  2.1676462E-02;  0.0000000E+00;  8.8271237E-04;  0.0000000E+00;
  2.4541526E+00;  9.9999998E-03;  6.0091239E-01;305;  1.7766533E-02;  0.0000000E+00; -8.4118990E-05;  9.9898100E+00;  4.2755228E-01; -1.0519459E+00;3; -9.7579916E-04;  0.0000000E+00; -9.8486358E-05;  0.0000000E+00;  0.0000000E+00;  0.0000000E+00;0;  2.1123899E-02;  8.8086060E+01;  0.0000000E+00;  7.6844030E-05;  1.0000000E+02;  0.0000000E+00;  9.9161118E+01;  2.0346645E-02;  0.0000000E+00;  7.7725435E-04;  0.0000000E+00;
  2.4490528E+00;  9.9999998E-03;  8.0269331E-01;306;  1.7124256E-02;  0.0000000E+00;  3.4105300E-04;  9.9904585E+00;  4.2639816E-01; -9.8564667E-01;3;  7.4372120E-04;  0.0000000E+00; -2.2674452E-04;  0.0000000E+00;  0.0000000E+00;  0.0000000E+00;0;  1.9690989E-02;  8.8555161E+01;  0.0000000E+00;  2.5944499E-04;  1.0000000E+02;  0.0000000E+00;  9.9183601E+01;  1.8985305E-02;  0.0000000E+00;  7.0568389E-04;  0.0000000E+00;
  2.4469783E+00;  9.9999998E-03;  1.0042468E+00;307;  1.6521227E-02;  0.0000000E+00;  7.2720111E-04;  9.9910030E+00;  4.2539462E-01; -9.2961603E-01;3;  1.5469699E-03;  0.0000000E+00; -1.6704295E-04;  0.0000000E+00;  0.0000000E+00;  0.0000000E+00;0;  1.8512789E-02;  8.8965591E+01;  0.0000000E+00;  1.2616463E-03;  1.0000000E+02;  0.0000000E+00;  9.9203522E+01;  1.7855119E-02;  0.0000000E+00;  6.5767113E-04;  0.0000000E+00;
  2.6865599E+00;  9.9999998E-03; -5.0887388E-09;313;  3.0865166E-02;  0.0000000E+00; -4.8213460E-09;  9.9892225E+00;  4.3332586E-01; -1.0719141E+00;3; -1.2648311E-03;  0.0000000E+00; -3.4643470E-08;  0.0000000E+00;  0.0000000E+00;  0.0000000E+00;0;  2.6594037E-02;  8.6395645E+01;  0.0000000E+00;  6.4375771E-14;  1.0000000E+02;  0.0000000E+00;  9.8412804E+01;  2.4722088E-02;  0.0000000E+00;  1.8719488E-03;  0.0000000E+00;
  2.6836607E+00;  9.9999998E-03;  1.9981121E-01;314;  2.9543977E-02;  0.0000000E+00; -2.1960867E-04;  9.9893055E+00;  4.3314907E-01; -1.0641841E+00;3; -1.5412535E-03;  0.0000000E+00; -8.8262881E-05;  0.0000000E+00;  0.0000000E+00;  0.0000000E+00;0;  2.6334882E-02;  8.6447052E+01;  0.0000000E+00; -7.5756793E-06;  1.0000000E+02;  0.0000000E+00;  9.8436180E+01;  2.4497656E-02;  0.0000000E+00;  1.8372250E-03;  0.0000000E+00;
  2.6754727E+00;  9.9999998E-03;  4.0075094E-01;315;  2.6265427E-02;  0.0000000E+00; -2.4332847E-04;  9.9895658E+00;  4.3264642E-01; -1.0398880E+00;3; -1.3785575E-03;  0.0000000E+00; -2.0856147E-04;  0.0000000E+00;  0.0000000E+00;  0.0000000E+00;0;  2.5529800E-02;  8.6591644E+01;  0.0000000E+00;  4.3746622E-05;  1.0000000E+02;  0.0000000E+00;  9.8503006E+01;  2.3852956E-02;  0.0000000E+00;  1.6768447E-03;  0.0000000E+00;
  2.6650028E+00;  9.9999998E-03;  6.0309362E-01;316;  2.1023022E-02;  0.0000000E+00;  2.6532184E-04;  9.9899311E+00;  4.3210176E-01; -1.0053940E+00;3; -1.5812664E-03;  0.0000000E+00;  3.0042892E-04;  0.0000000E+00;  0.0000000E+00;  0.0000000E+00;0;  2.4437301E-02;  8.6799484E+01;  0.0000000E+00;  4.9544987E-04;  1.0000000E+02;  0.0000000E+00;  9.8527092E+01;  2.2934593E-02;  0.0000000E+00;  1.5027079E-03;  0.0000000E+00;
  2.6563334E+00;  9.9999998E-03;  8.0536151E-01;317;  1.7083973E-02;  0.0000000E+00;  9.1404561E-04;  9.9902983E+00;  4.3152556E-01; -9.7025365E-01;3;  6.7965413E-04;  0.0000000E+00; -3.5377624E-04;  0.0000000E+00;  0.0000000E+00;  0.0000000E+00;0;  2.3362685E-02;  8.7022385E+01;  0.0000000E+00;  9.3595946E-04;  1.0000000E+02;  0.0000000E+00;  9.8542923E+01;  2.1946054E-02;  0.0000000E+00;  1.4166312E-03;  0.0000000E+00;
  2.6508777E+00;  9.9999998E-03;  1.0074143E+00;318;  1.6464494E-02;  0.0000000E+00;  1.4757959E-03;  9.9906340E+00;  4.3101898E-01; -9.3761325E-01;3;  1.4819821E-03;  0.0000000E+00; -6.2818418E-04;  0.0000000E+00;  0.0000000E+00;  0.0000000E+00;0;  2.2458624E-02;  8.7216919E+01;  0.0000000E+00;  1.6707659E-03;  1.0000000E+02;  0.0000000E+00;  9.8561531E+01;  2.1095840E-02;  0.0000000E+00;  1.3627836E-03;  0.0000000E+00;
  2.8948784E+00;  9.9999998E-03;  4.7112685E-11;324;  3.6295224E-02;  0.0000000E+00;  6.3083552E-09;  9.9896574E+00;  4.3751767E-01; -9.8917580E-01;3;  1.5285452E-03;  0.0000000E+00; -1.0925905E-07;  0.0000000E+00;  0.0000000E+00;  0.0000000E+00;0;  2.9342294E-02;  8.5388367E+01;  0.0000000E+00;  8.7733518E-14;  1.0000000E+02;  0.0000000E+00;  9.7682587E+01;  2.6292697E-02;  0.0000000E+00;  3.0495974E-03;  0.0000000E+00;
  2.8916333E+00;  9.9999998E-03;  2.0077239E-01;325;  3.4602627E-02;  0.0000000E+00; -1.0064298E-04;  9.9896746E+00;  4.3751135E-01; -9.8810112E-01;3;  1.4175388E-03;  0.0000000E+00; -2.3401069E-04;  0.0000000E+00;  0.0000000E+00;  0.0000000E+00;0;  2.9222803E-02;  8.5369423E+01;  0.0000000E+00;  1.6841528E-05;  1.0000000E+02;  0.0000000E+00;  9.7707802E+01;  2.6237411E-02;  0.0000000E+00;  2.9853920E-03;  0.0000000E+00;
  2.8847966E+00;  9.9999998E-03;  4.0344143E-01;326;  3.0530192E-02;  0.0000000E+00;  1.4527616E-04;  9.9897537E+00;  4.3762940E-01; -9.8173076E-01;3;  6.4890279E-04;  0.0000000E+00; -8.0950104E-04;  0.0000000E+00;  0.0000000E+00;  0.0000000E+00;0;  2.8869040E-02;  8.5319077E+01;  0.0000000E+00;  6.5564789E-05;  1.0000000E+02;  0.0000000E+00;  9.7714279E+01;  2.6085990E-02;  0.0000000E+00;  2.7830498E-03;  0.0000000E+00;
  2.8768620E+00;  9.9999998E-03;  6.0636729E-01;327;  2.6235497E-02;  0.0000000E+00;  1.2228870E-03;  9.9897718E+00;  4.3786171E-01; -9.8143709E-01;3;  8.0847582E-05;  0.0000000E+00; -8.4253313E-04;  0.0000000E+00;  0.0000000E+00;  0.0000000E+00;0;  2.8670022E-02;  8.5251358E+01;  0.0000000E+00; -6.9770082E-05;  1.0000000E+02;  0.0000000E+00;  9.7688362E+01;  2.5863485E-02;  0.0000000E+00;  2.8065376E-03;  0.0000000E+00;
  2.8696325E+00;  9.9999998E-03;  8.0907315E-01;328;  2.1130657E-02;  0.0000000E+00;  2.0356167E-03;  9.9898052E+00;  4.3810117E-01; -9.7953326E-01;3; -1.2987303E-04;  0.0000000E+00; -7.9877710E-04;  0.0000000E+00;  0.0000000E+00;  0.0000000E+00;0;  2.8405583E-02;  8.5174690E+01;  0.0000000E+00; -1.1440880E-03;  1.0000000E+02;  0.0000000E+00;  9.7672607E+01;  2.5643572E-02;  0.0000000E+00;  2.7620099E-03;  0.0000000E+00;
  2.8654420E+00;  9.9999998E-03;  1.0117053E+00;329;  1.8086057E-02;  0.0000000E+00;  2.7876678E-03;  9.9898357E+00;  4.3830350E-01; -9.7736716E-01;3; -3.3793615E-03;  0.0000000E+00; -1.0787694E-03;  0.0000000E+00;  0.0000000E+00;  0.0000000E+00;0;  2.8235521E-02;  8.5102409E+01;  0.0000000E+00; -1.8709465E-03;  1.0000000E+02;  0.0000000E+00;  9.7664879E+01;  2.5503157E-02;  0.0000000E+00;  2.7323654E-03;  0.0000000E+00;
  3.1015432E+00;  9.9999998E-03; -8.4259337E-09;335;  3.7342329E-02;  0.0000000E+00; -4.2595483E-09;  9.9897051E+00;  4.4323251E-01; -9.5332211E-01;3;  2.5990617E-03;  0.0000000E+00; -1.5686771E-07;  0.0000000E+00;  0.0000000E+00;  0.0000000E+00;0;  3.3101182E-02;  8.3886711E+01;  0.0000000E+00;  6.5650766E-14;  1.0000000E+02;  0.0000000E+00;  9.6885666E+01;  2.8647901E-02;  0.0000000E+00;  4.4532819E-03;  0.0000000E+00;
  3.0996952E+00;  9.9999998E-03;  2.0296095E-01;336;  3.5912629E-02;  0.0000000E+00;  3.4797136E-04;  9.9896774E+00;  4.4341552E-01; -9.5608795E-01;3;  2.1113374E-03;  0.0000000E+00; -5.5216014E-04;  0.0000000E+00;  0.0000000E+00;  0.0000000E+00;0;  3.3151504E-02;  8.3817101E+01;  0.0000000E+00; -8.6209102E-06;  1.0000000E+02;  0.0000000E+00;  9.6885872E+01;  2.8753500E-02;  0.0000000E+00;  4.3980032E-03;  0.0000000E+00;
  3.0955322E+00;  9.9999998E-03;  4.0676096E-01;337;  3.2684106E-02;  0.0000000E+00;  1.7115530E-03;  9.9895287E+00;  4.4402477E-01; -9.7041196E-01;3;  1.6357407E-03;  0.0000000E+00; -3.9317153E-04;  0.0000000E+00;  0.0000000E+00;  0.0000000E+00;0;  3.3547867E-02;  8.3626427E+01;  0.0000000E+00; -1.9333953E-04;  1.0000000E+02;  0.0000000E+00;  9.6836800E+01;  2.9058592E-02;  0.0000000E+00;  4.4892742E-03;  0.0000000E+00;
  3.0917239E+00;  9.9999998E-03;  6.0997838E-01;338;  2.9165810E-02;  0.0000000E+00;  2.5358261E-03;  9.9893723E+00;  4.4485146E-01; -9.8537338E-01;3; -1.8405442E-03;  0.0000000E+00;  6.7281688E-04;  0.0000000E+00;  0.0000000E+00;  0.0000000E+00;0;  3.3978127E-02;  8.3359291E+01;  0.0000000E+00; -1.0570756E-03;  1.0000000E+02;  0.0000000E+00;  9.6783310E+01;  2.9522792E-02;  0.0000000E+00;  4.4553373E-03;  0.0000000E+00;
  3.0900021E+00;  9.9999998E-03;  8.1322318E-01;339;  2.7941329E-02;  0.0000000E+00;  3.6066556E-03;  9.9891338E+00;  4.4576845E-01; -1.0077070E+00;3; -2.3284752E-03;  0.0000000E+00; -4.4809532E-04;  0.0000000E+00;  0.0000000E+00;  0.0000000E+00;0;  3.4694687E-02;  8.3068024E+01;  0.0000000E+00; -2.4323023E-03;  1.0000000E+02;  0.0000000E+00;  9.6720360E+01;  3.0086389E-02;  0.0000000E+00;  4.6082959E-03;  0.0000000E+00;
  3.0891967E+00;  9.9999998E-03;  1.0165380E+00;340;  2.7821645E-02;  0.0000000E+00;  4.6102041E-03;  9.9889250E+00;  4.4659436E-01; -1.0272182E+00;3; -1.9761021E-03;  0.0000000E+00; -1.3217017E-03;  0.0000000E+00;  0.0000000E+00;  0.0000000E+00;0;  3.5320275E-02;  8.2805367E+01;  0.0000000E+00; -2.6810479E-03;  1.0000000E+02;  0.0000000E+00;  9.6666443E+01;  3.0615196E-02;  0.0000000E+00;  4.7050780E-03;  0.0000000E+00;
  3.3162913E+00;  9.9999998E-03; -8.0708207E-10;346;  4.0556327E-02;  0.0000000E+00; -2.2717624E-10;  9.9894114E+00;  4.5029587E-01; -9.6010470E-01;3;  4.8296092E-04;  0.0000000E+00; -2.0315906E-07;  0.0000000E+00;  0.0000000E+00;  0.0000000E+00;0;  3.8202841E-02;  8.1942154E+01;  0.0000000E+00;  1.0519382E-15;  1.0000000E+02;  0.0000000E+00;  9.6090851E+01;  3.2205943E-02;  0.0000000E+00;  5.9968978E-03;  0.0000000E+00;
  3.3160396E+00;  9.9999998E-03;  2.0565152E-01;347;  4.0108081E-02;  0.0000000E+00;  1.4412419E-03;  9.9893408E+00;  4.5062035E-01; -9.6649921E-01;3;  1.3168459E-04;  0.0000000E+00; -1.1322432E-03;  0.0000000E+00;  0.0000000E+00;  0.0000000E+00;0;  3.8451705E-02;  8.1853844E+01;  0.0000000E+00;  8.5539177E-05;  1.0000000E+02;  0.0000000E+00;  9.6055275E+01;  3.2429989E-02;  0.0000000E+00;  6.0217143E-03;  0.0000000E+00;
  3.3151028E+00;  9.9999998E-03;  4.0959379E-01;348;  3.8655341E-02;  0.0000000E+00;  2.9144795E-03;  9.9891348E+00;  4.5138738E-01; -9.8526418E-01;3; -9.5306640E-04;  0.0000000E+00; -1.6231487E-03;  0.0000000E+00;  0.0000000E+00;  0.0000000E+00;0;  3.9171822E-02;  8.1618286E+01;  0.0000000E+00;  2.3265507E-04;  1.0000000E+02;  0.0000000E+00;  9.6001564E+01;  3.3019274E-02;  0.0000000E+00;  6.1525474E-03;  0.0000000E+00;
  3.3146062E+00;  9.9999998E-03;  6.1332333E-01;349;  3.7593331E-02;  0.0000000E+00;  3.9457674E-03;  9.9888878E+00;  4.5244232E-01; -1.0076761E+00;3; -1.6728366E-03;  0.0000000E+00; -1.2132095E-04;  0.0000000E+00;  0.0000000E+00;  0.0000000E+00;0;  4.0047295E-02;  8.1296867E+01;  0.0000000E+00;  2.2418002E-04;  1.0000000E+02;  0.0000000E+00;  9.5928429E+01;  3.3842742E-02;  0.0000000E+00;  6.2045511E-03;  0.0000000E+00;
  3.3153203E+00;  9.9999998E-03;  8.1710750E-01;350;  3.7543319E-02;  0.0000000E+00;  5.2281115E-03;  9.9885778E+00;  4.5357090E-01; -1.0357302E+00;3; -1.6450511E-03;  0.0000000E+00; -1.0638419E-04;  0.0000000E+00;  0.0000000E+00;  0.0000000E+00;0;  4.1191056E-02;  8.0956047E+01;  0.0000000E+00;  3.0468413E-04;  1.0000000E+02;  0.0000000E+00;  9.5848595E+01;  3.4728676E-02;  0.0000000E+00;  6.4623798E-03;  0.0000000E+00;
  3.3166256E+00;  9.9999998E-03;  1.0210763E+00;351;  3.8349938E-02;  0.0000000E+00;  6.5056975E-03;  9.9883146E+00;  4.5458430E-01; -1.0595220E+00;3; -1.0521468E-03;  0.0000000E+00; -3.2976212E-05;  0.0000000E+00;  0.0000000E+00;  0.0000000E+00;0;  4.2201422E-02;  8.0651581E+01;  0.0000000E+00;  6.2546157E-04;  1.0000000E+02;  0.0000000E+00;  9.5777916E+01;  3.5515282E-02;  0.0000000E+00;  6.6861385E-03;  0.0000000E+00;
  3.5384543E+00;  9.9999998E-03;  2.0335111E-09;357;  4.7281921E-02;  0.0000000E+00;  6.1212946E-10;  9.9889860E+00;  4.5773241E-01; -9.8764992E-01;3; -4.4497929E-04;  0.0000000E+00; -2.3943721E-07;  0.0000000E+00;  0.0000000E+00;  0.0000000E+00;0;  4.4034041E-02;  7.9890404E+01;  0.0000000E+00; -3.9032525E-14;  1.0000000E+02;  0.0000000E+00;  9.5375748E+01;  3.6562506E-02;  0.0000000E+00;  7.4715358E-03;  0.0000000E+00;
  3.5392272E+00;  9.9999998E-03;  2.0712250E-01;358;  4.7607064E-02;  0.0000000E+00;  2.3884417E-03;  9.9889135E+00;  4.5804396E-01; -9.9414551E-01;3; -2.8673635E-04;  0.0000000E+00; -9.5947977E-04;  0.0000000E+00;  0.0000000E+00;  0.0000000E+00;0;  4.4337682E-02;  7.9817924E+01;  0.0000000E+00;  2.4540545E-04;  1.0000000E+02;  0.0000000E+00;  9.5331345E+01;  3.6789622E-02;  0.0000000E+00;  7.5480603E-03;  0.0000000E+00;
  3.5403948E+00;  9.9999998E-03;  4.1149384E-01;359;  4.7524102E-02;  0.0000000E+00;  4.0589795E-03;  9.9887371E+00;  4.5867798E-01; -1.0099277E+00;3; -7.3788245E-04;  0.0000000E+00; -7.6390937E-04;  0.0000000E+00;  0.0000000E+00;  0.0000000E+00;0;  4.5064274E-02;  7.9629387E+01;  0.0000000E+00;  9.9121209E-04;  1.0000000E+02;  0.0000000E+00;  9.5290482E+01;  3.7350159E-02;  0.0000000E+00;  7.7141137E-03;  0.0000000E+00;
  3.5416205E+00;  9.9999998E-03;  6.1582953E-01;360;  4.7388535E-02;  0.0000000E+00;  5.1066447E-03;  9.9885645E+00;  4.5953280E-01; -1.0253863E+00;3; -1.1340942E-03;  0.0000000E+00; -1.9844424E-04;  0.0000000E+00;  0.0000000E+00;  0.0000000E+00;0;  4.5779612E-02;  7.9380669E+01;  0.0000000E+00;  2.0576816E-03;  1.0000000E+02;  0.0000000E+00;  9.5230385E+01;  3.8073659E-02;  0.0000000E+00;  7.7059530E-03;  0.0000000E+00;
  3.5432739E+00;  9.9999998E-03;  8.2020545E-01;361;  4.7603831E-02;  0.0000000E+00;  6.5464270E-03;  9.9883423E+00;  4.6041709E-01; -1.0452117E+00;3; -1.1925306E-03;  0.0000000E+00;  2.7186272E-04;  0.0000000E+00;  0.0000000E+00;  0.0000000E+00;0;  4.6719812E-02;  7.9125320E+01;  0.0000000E+00;  2.8387485E-03;  1.0000000E+02;  0.0000000E+00;  9.5167526E+01;  3.8802315E-02;  0.0000000E+00;  7.9174964E-03;  0.0000000E+00;
  3.5452912E+00;  9.9999998E-03;  1.0247810E+00;362;  4.8627179E-02;  0.0000000E+00;  8.0284290E-03;  9.9881582E+00;  4.6119541E-01; -1.0616560E+00;3; -3.9356435E-04;  0.0000000E+00;  1.1153435E-03;  0.0000000E+00;  0.0000000E+00;  0.0000000E+00;0;  4.7530532E-02;  7.8901901E+01;  0.0000000E+00;  2.1788599E-03;  1.0000000E+02;  0.0000000E+00;  9.5112457E+01;  3.9423499E-02;  0.0000000E+00;  8.1070317E-03;  0.0000000E+00;
  3.7655597E+00;  9.9999998E-03;  9.5562691E-10;368;  5.6499422E-02;  0.0000000E+00; -3.0276432E-09;  9.9886703E+00;  4.6441624E-01; -1.0108632E+00;3; -2.1999476E-04;  0.0000000E+00; -2.3127950E-07;  0.0000000E+00;  0.0000000E+00;  0.0000000E+00;0;  4.9395185E-02;  7.8084808E+01;  0.0000000E+00; -6.4534301E-15;  1.0000000E+02;  0.0000000E+00;  9.4787216E+01;  4.0713720E-02;  0.0000000E+00;  8.6814659E-03;  0.0000000E+00;
  3.7667880E+00;  9.9999998E-03;  2.0676395E-01;369;  5.7057645E-02;  0.0000000E+00;  2.7544694E-03;  9.9886293E+00;  4.6457726E-01; -1.0145153E+00;3; -6.3991261E-05;  0.0000000E+00; -2.5263667E-04;  0.0000000E+00;  0.0000000E+00;  0.0000000E+00;0;  4.9590886E-02;  7.8044365E+01;  0.0000000E+00;  2.0259786E-04;  1.0000000E+02;  0.0000000E+00;  9.4769547E+01;  4.0842954E-02;  0.0000000E+00;  8.7479325E-03;  0.0000000E+00;
  3.7689667E+00;  9.9999998E-03;  4.1226843E-01;370;  5.7737149E-02;  0.0000000E+00;  4.3990212E-03;  9.9885578E+00;  4.6493897E-01; -1.0208659E+00;3; -7.9501071E-05;  0.0000000E+00;  2.4926494E-04;  0.0000000E+00;  0.0000000E+00;  0.0000000E+00;0;  4.9943119E-02;  7.7942558E+01;  0.0000000E+00;  9.2368084E-04;  1.0000000E+02;  0.0000000E+00;  9.4745285E+01;  4.1150898E-02;  0.0000000E+00;  8.7922215E-03;  0.0000000E+00;
  3.7706921E+00;  9.9999998E-03;  6.1741948E-01;371;  5.7899870E-02;  0.0000000E+00;  5.8295461E-03;  9.9884853E+00;  4.6539530E-01; -1.0272760E+00;3; -3.6268227E-04;  0.0000000E+00; -1.2944332E-04;  0.0000000E+00;  0.0000000E+00;  0.0000000E+00;0;  5.0288972E-02;  7.7816208E+01;  0.0000000E+00;  2.0141024E-03;  1.0000000E+02;  0.0000000E+00;  9.4711563E+01;  4.1513748E-02;  0.0000000E+00;  8.7752230E-03;  0.0000000E+00;
  3.7722480E+00;  9.9999998E-03;  8.2245308E-01;372;  5.7935067E-02;  0.0000000E+00;  7.4449624E-03;  9.9883957E+00;  4.6583492E-01; -1.0352837E+00;3; -5.3287746E-04;  0.0000000E+00;  2.9320616E-04;  0.0000000E+00;  0.0000000E+00;  0.0000000E+00;0;  5.0726648E-02;  7.7693825E+01;  0.0000000E+00;  2.5103174E-03;  1.0000000E+02;  0.0000000E+00;  9.4680283E+01;  4.1850619E-02;  0.0000000E+00;  8.8760303E-03;  0.0000000E+00;
  3.7737861E+00;  9.9999998E-03;  1.0275861E+00;373;  5.8398195E-02;  0.0000000E+00;  9.0966644E-03;  9.9883299E+00;  4.6619907E-01; -1.0411112E+00;3; -6.9784510E-05;  0.0000000E+00;  1.7319361E-03;  0.0000000E+00;  0.0000000E+00;  0.0000000E+00;0;  5.1082913E-02;  7.7592194E+01;  0.0000000E+00;  1.1197268E-03;  1.0000000E+02;  0.0000000E+00;  9.4654922E+01;  4.2117167E-02;  0.0000000E+00;  8.9657456E-03;  0.0000000E+00;
  3.9959919E+00;  9.9999998E-03; -2.1629004E-10;379;  6.7368180E-02;  0.0000000E+00; -6.6773236E-09;  9.9885454E+00;  4.6986905E-01; -1.0198520E+00;3;  4.9049885E-04;  0.0000000E+00; -1.7929415E-07;  0.0000000E+00;  0.0000000E+00;  0.0000000E+00;0;  5.3449132E-02;  7.6653244E+01;  0.0000000E+00;  4.8105373E-14;  1.0000000E+02;  0.0000000E+00;  9.4326912E+01;  4.3896712E-02;  0.0000000E+00;  9.5524210E-03;  0.0000000E+00;
  3.9971299E+00;  9.9999998E-03;  2.0516376E-01;380;  6.7922361E-02;  0.0000000E+00;  2.5276816E-03;  9.9885416E+00;  4.6982896E-01; -1.0201639E+00;3;  6.7323976E-04;  0.0000000E+00;  4.9603835E-04;  0.0000000E+00;  0.0000000E+00;  0.0000000E+00;0;  5.3477056E-02;  7.6641739E+01;  0.0000000E+00;  6.4913314E-05;  1.0000000E+02;  0.0000000E+00;  9.4357079E+01;  4.3913625E-02;  0.0000000E+00;  9.5634321E-03;  0.0000000E+00;
  3.9989030E+00;  9.9999998E-03;  4.1238990E-01;381;  6.8482399E-02;  0.0000000E+00;  4.2587649E-03;  9.9885626E+00;  4.6994862E-01; -1.0182964E+00;3;  6.4653490E-04;  0.0000000E+00;  3.5749940E-04;  0.0000000E+00;  0.0000000E+00;  0.0000000E+00;0;  5.3407125E-02;  7.6615814E+01;  0.0000000E+00;  3.5733494E-04;  1.0000000E+02;  0.0000000E+00;  9.4341454E+01;  4.3940380E-02;  0.0000000E+00;  9.4667459E-03;  0.0000000E+00;
  4.0000129E+00;  9.9999998E-03;  6.1843431E-01;382;  6.8420961E-02;  0.0000000E+00;  6.1941650E-03;  9.9885645E+00;  4.7005606E-01; -1.0181308E+00;3;  3.0139615E-04;  0.0000000E+00; -1.9924289E-04;  0.0000000E+00;  0.0000000E+00;  0.0000000E+00;0;  5.3409640E-02;  7.6588936E+01;  0.0000000E+00;  8.7377644E-04;  1.0000000E+02;  0.0000000E+00;  9.4331062E+01;  4.3952584E-02;  0.0000000E+00;  9.4570564E-03;  0.0000000E+00;
  4.0007777E+00;  9.9999998E-03;  8.2411110E-01;383;  6.8048455E-02;  0.0000000E+00;  8.0093574E-03;  9.9885683E+00;  4.7013554E-01; -1.0177550E+00;3; -7.4909476E-05;  0.0000000E+00;  3.0882045E-05;  0.0000000E+00;  0.0000000E+00;  0.0000000E+00;0;  5.3411040E-02;  7.6567856E+01;  0.0000000E+00;  1.1120422E-03;  1.0000000E+02;  0.0000000E+00;  9.4325195E+01;  4.3943703E-02;  0.0000000E+00;  9.4673363E-03;  0.0000000E+00;
  4.0013223E+00;  9.9999998E-03;  1.0297313E+00;384;  6.7732535E-02;  0.0000000E+00;  9.7982539E-03;  9.9885864E+00;  4.7019330E-01; -1.0161599E+00;3; -2.0209365E-04;  0.0000000E+00;  1.9526097E-03;  0.0000000E+00;  0.0000000E+00;  0.0000000E+00;0;  5.3372595E-02;  7.6552216E+01;  0.0000000E+00;  4.3341535E-04;  1.0000000E+02;  0.0000000E+00;  9.4321793E+01;  4.3918144E-02;  0.0000000E+00;  9.4544506E-03;  0.0000000E+00;
  4.2292147E+00;  9.9999998E-03;  1.7658448E-09;390;  8.0045767E-02;  0.0000000E+00; -4.3112265E-09;  9.9885321E+00;  4.7424406E-01; -1.0201327E+00;3;  2.0358274E-03;  0.0000000E+00; -8.1199687E-08;  0.0000000E+00;  0.0000000E+00;  0.0000000E+00;0;  5.6081913E-02;  7.5528221E+01;  0.0000000E+00;  9.6004402E-14;  1.0000000E+02;  0.0000000E+00;  9.3972595E+01;  4.5961972E-02;  0.0000000E+00;  1.0119942E-02;  0.0000000E+00;
  4.2290134E+00;  9.9999998E-03;  2.0405963E-01;391;  7.9586729E-02;  0.0000000E+00;  2.0649415E-03;  9.9885540E+00;  4.7407299E-01; -1.0181712E+00;3;  1.6401407E-03;  0.0000000E+00;  7.8528561E-04;  0.0000000E+00;  0.0000000E+00;  0.0000000E+00;0;  5.5976301E-02;  7.5530609E+01;  0.0000000E+00;  1.7286653E-05;  1.0000000E+02;  0.0000000E+00;  9.4037949E+01;  4.5912005E-02;  0.0000000E+00;  1.0064295E-02;  0.0000000E+00;
  4.2288942E+00;  9.9999998E-03;  4.1270968E-01;392;  7.9206727E-02;  0.0000000E+00;  4.1301651E-03;  9.9886093E+00;  4.7409225E-01; -1.0132406E+00;3;  1.3353357E-03;  0.0000000E+00;  4.8099831E-05;  0.0000000E+00;  0.0000000E+00;  0.0000000E+00;0;  5.5700585E-02;  7.5536293E+01;  0.0000000E+00;  9.1531525E-05;  1.0000000E+02;  0.0000000E+00;  9.4024162E+01;  4.5794062E-02;  0.0000000E+00;  9.9065248E-03;  0.0000000E+00;
  4.2282901E+00;  9.9999998E-03;  6.1941659E-01;393;  7.8449547E-02;  0.0000000E+00;  6.4332816E-03;  9.9886370E+00;  4.7406986E-01; -1.0108029E+00;3;  8.2202355E-04;  0.0000000E+00; -5.2751467E-04;  0.0000000E+00;  0.0000000E+00;  0.0000000E+00;0;  5.5556357E-02;  7.5544563E+01;  0.0000000E+00;  2.2724945E-04;  1.0000000E+02;  0.0000000E+00;  9.4023117E+01;  4.5646515E-02;  0.0000000E+00;  9.9098431E-03;  0.0000000E+00;
  4.2277036E+00;  9.9999998E-03;  8.2554102E-01;394;  7.7621147E-02;  0.0000000E+00;  8.3973110E-03;  9.9886742E+00;  4.7404066E-01; -1.0075170E+00;3;  2.9985173E-04;  0.0000000E+00; -3.0368700E-04;  0.0000000E+00;  0.0000000E+00;  0.0000000E+00;0;  5.5372886E-02;  7.5552910E+01;  0.0000000E+00;  2.7667548E-04;  1.0000000E+02;  0.0000000E+00;  9.4024788E+01;  4.5497313E-02;  0.0000000E+00;  9.8755741E-03;  0.0000000E+00;
  4.2271175E+00;  9.9999998E-03;  1.0315119E+00;395;  7.6816566E-02;  0.0000000E+00;  1.0272538E-02;  9.9887238E+00;  4.7403401E-01; -1.0030645E+00;3; -1.2867225E-04;  0.0000000E+00;  1.7739724E-03;  0.0000000E+00;  0.0000000E+00;  0.0000000E+00;0;  5.5150233E-02;  7.5554588E+01;  0.0000000E+00;  7.0703332E-05;  1.0000000E+02;  0.0000000E+00;  9.4025917E+01;  4.5361549E-02;  0.0000000E+00;  9.7886836E-03;  0.0000000E+00;
  4.4629416E+00;  9.9999998E-03;  5.4851803E-09;401;  9.3334943E-02;  0.0000000E+00;  4.9488208E-10;  9.9885101E+00;  4.7768608E-01; -1.0217423E+00;3;  4.3600937E-03;  0.0000000E+00; -9.9663007E-09;  0.0000000E+00;  0.0000000E+00;  0.0000000E+00;0;  5.7499420E-02;  7.4644295E+01;  0.0000000E+00;  9.2924420E-14;  1.0000000E+02;  0.0000000E+00;  9.3720467E+01;  4.7068771E-02;  0.0000000E+00;  1.0430649E-02;  0.0000000E+00;
  4.4605441E+00;  9.9999998E-03;  2.0515215E-01;402;  9.1269501E-02;  0.0000000E+00;  2.0098372E-03;  9.9885349E+00;  4.7754505E-01; -1.0195184E+00;3;  2.9930051E-03;  0.0000000E+00;  5.9452024E-04;  0.0000000E+00;  0.0000000E+00;  0.0000000E+00;0;  5.7367064E-02;  7.4644104E+01;  0.0000000E+00;  1.6207270E-05;  1.0000000E+02;  0.0000000E+00;  9.3776360E+01;  4.7013074E-02;  0.0000000E+00;  1.0353992E-02;  0.0000000E+00;
  4.4580097E+00;  9.9999998E-03;  4.1388124E-01;403;  8.9543119E-02;  0.0000000E+00;  4.3425979E-03;  9.9885750E+00;  4.7761592E-01; -1.0159695E+00;3;  2.2506225E-03;  0.0000000E+00; -1.0921343E-04;  0.0000000E+00;  0.0000000E+00;  0.0000000E+00;0;  5.7151854E-02;  7.4633240E+01;  0.0000000E+00; -8.4794965E-06;  1.0000000E+02;  0.0000000E+00;  9.3762733E+01;  4.6931047E-02;  0.0000000E+00;  1.0220807E-02;  0.0000000E+00;
  4.4554090E+00;  9.9999998E-03;  6.2067348E-01;404;  8.7943651E-02;  0.0000000E+00;  6.7254170E-03;  9.9885826E+00;  4.7770089E-01; -1.0152828E+00;3;  1.5291229E-03;  0.0000000E+00; -9.1680937E-04;  0.0000000E+00;  0.0000000E+00;  0.0000000E+00;0;  5.7089098E-02;  7.4612190E+01;  0.0000000E+00; -2.7627798E-04;  1.0000000E+02;  0.0000000E+00;  9.3755028E+01;  4.6839867E-02;  0.0000000E+00;  1.0249230E-02;  0.0000000E+00;
  4.4532967E+00;  9.9999998E-03;  8.2688767E-01;405;  8.6737603E-02;  0.0000000E+00;  8.7090917E-03;  9.9886055E+00;  4.7781217E-01; -1.0132707E+00;3;  9.9342980E-04;  0.0000000E+00; -7.1451918E-04;  0.0000000E+00;  0.0000000E+00;  0.0000000E+00;0;  5.6963045E-02;  7.4584045E+01;  0.0000000E+00; -1.1809760E-03;  1.0000000E+02;  0.0000000E+00;  9.3747665E+01;  4.6756439E-02;  0.0000000E+00;  1.0206605E-02;  0.0000000E+00;
  4.4517288E+00;  9.9999998E-03;  1.0330039E+00;406;  8.5859440E-02;  0.0000000E+00;  1.0603032E-02;  9.9886465E+00;  4.7794726E-01; -1.0096149E+00;3;  8.2227623E-04;  0.0000000E+00;  1.2065780E-03;  0.0000000E+00;  0.0000000E+00;  0.0000000E+00;0;  5.6771919E-02;  7.4549637E+01;  0.0000000E+00; -2.9860800E-03;  1.0000000E+02;  0.0000000E+00;  9.3739120E+01;  4.6686422E-02;  0.0000000E+00;  1.0085498E-02;  0.0000000E+00;
  4.6922088E+00;  9.9999998E-03;  6.2878138E-09;412;  1.0337991E-01;  0.0000000E+00;  1.4189917E-09;  9.9884567E+00;  4.7962072E-01; -1.0263220E+00;3;  5.1798709E-03;  0.0000000E+00; -1.5820404E-09;  0.0000000E+00;  0.0000000E+00;  0.0000000E+00;0;  5.7597041E-02;  7.4128059E+01;  0.0000000E+00;  5.2204562E-14;  1.0000000E+02;  0.0000000E+00;  9.3611832E+01;  4.7137219E-02;  0.0000000E+00;  1.0459822E-02;  0.0000000E+00;
  4.6901660E+00;  9.9999998E-03;  2.0848401E-01;413;  1.0189512E-01;  0.0000000E+00;  2.6328792E-03;  9.9884558E+00;  4.7969505E-01; -1.0264287E+00;3;  4.4393376E-03;  0.0000000E+00;  3.9953322E-04;  0.0000000E+00;  0.0000000E+00;  0.0000000E+00;0;  5.7608053E-02;  7.4109039E+01;  0.0000000E+00; -1.1230007E-04;  1.0000000E+02;  0.0000000E+00;  9.3606949E+01;  4.7167156E-02;  0.0000000E+00;  1.0440897E-02;  0.0000000E+00;
  4.6867714E+00;  9.9999998E-03;  4.1566366E-01;414;  9.9523358E-02;  0.0000000E+00;  4.8366636E-03;  9.9884529E+00;  4.7991052E-01; -1.0266950E+00;3;  3.3207333E-03;  0.0000000E+00;  5.2237697E-04;  0.0000000E+00;  0.0000000E+00;  0.0000000E+00;0;  5.7621356E-02;  7.4053093E+01;  0.0000000E+00; -4.4933011E-04;  1.0000000E+02;  0.0000000E+00;  9.3593903E+01;  4.7245815E-02;  0.0000000E+00;  1.0375540E-02;  0.0000000E+00;
  4.7420402E+00;  9.9999998E-03;  6.2190723E-01;415;  9.7769074E-02;  0.0000000E+00;  7.0352508E-03;  9.9884081E+00;  2.4011722E-01; -1.0306511E+00;3;  2.9145426E-03;  0.0000000E+00; -3.1180828E-04;  0.0000000E+00;  0.0000000E+00;  0.0000000E+00;1;  5.7656065E-02;  2.9588086E+02;  0.0000000E+00;  9.0548806E-03;  1.0000000E+02;  0.0000000E+00;  9.3571144E+01;  4.7232367E-02;  0.0000000E+00;  1.0423699E-02;  0.0000000E+00;
  4.7402143E+00;  9.9999998E-03;  8.2786274E-01;416;  9.6714750E-02;  0.0000000E+00;  8.9113815E-03;  9.9883747E+00;  2.4029906E-01; -1.0336193E+00;3;  2.5069506E-03;  0.0000000E+00; -1.0304111E-03;  0.0000000E+00;  0.0000000E+00;  0.0000000E+00;1;  5.7796601E-02;  2.9550961E+02;  0.0000000E+00;  2.1879600E-02;  1.0000000E+02;  0.0000000E+00;  9.3547058E+01;  4.7355827E-02;  0.0000000E+00;  1.0440774E-02;  0.0000000E+00;
  4.7393498E+00;  9.9999998E-03;  1.0339226E+00;417;  9.6327402E-02;  0.0000000E+00;  1.0730618E-02;  9.9883766E+00;  2.4045748E-01; -1.0334606E+00;3;  2.6665193E-03;  0.0000000E+00; -4.6934528E-04;  0.0000000E+00;  0.0000000E+00;  0.0000000E+00;1;  5.7758939E-02;  2.9518716E+02;  0.0000000E+00;  5.8265686E-02;  1.0000000E+02;  0.0000000E+00;  9.3525833E+01;  4.7449581E-02;  0.0000000E+00;  1.0309356E-02;  0.0000000E+00;
  4.9174848E+00;  9.9999998E-03;  5.4089409E-09;423;  1.1039380E-01;  0.0000000E+00; -2.4508175E-09;  9.9884501E+00;  4.7883263E-01; -1.0269034E+00;3;  4.3926775E-03;  0.0000000E+00; -5.5284090E-08;  0.0000000E+00;  0.0000000E+00;  0.0000000E+00;0;  5.5924505E-02;  7.4292595E+01;  0.0000000E+00;  1.2427686E-14;  1.0000000E+02;  0.0000000E+00;  9.3712425E+01;  4.5802228E-02;  0.0000000E+00;  1.0122277E-02;  0.0000000E+00;
  4.9182763E+00;  9.9999998E-03;  2.1163470E-01;424;  1.1079708E-01;  0.0000000E+00;  3.5723299E-03;  9.9884024E+00;  4.7915545E-01; -1.0311428E+00;3;  4.6186289E-03;  0.0000000E+00;  8.9717953E-04;  0.0000000E+00;  0.0000000E+00;  0.0000000E+00;0;  5.6144614E-02;  7.4253693E+01;  0.0000000E+00;  5.0757390E-05;  1.0000000E+02;  0.0000000E+00;  9.3634674E+01;  4.5923587E-02;  0.0000000E+00;  1.0221028E-02;  0.0000000E+00;
  4.9190207E+00;  9.9999998E-03;  4.1681764E-01;425;  1.1034971E-01;  0.0000000E+00;  5.3715506E-03;  9.9883347E+00;  4.7950968E-01; -1.0371310E+00;3;  4.2558541E-03;  0.0000000E+00;  8.3934900E-04;  0.0000000E+00;  0.0000000E+00;  0.0000000E+00;0;  5.6459274E-02;  7.4157692E+01;  0.0000000E+00;  6.5113214E-04;  1.0000000E+02;  0.0000000E+00;  9.3616455E+01;  4.6187486E-02;  0.0000000E+00;  1.0271789E-02;  0.0000000E+00;
  4.9206443E+00;  9.9999998E-03;  6.2221318E-01;426;  1.1040940E-01;  0.0000000E+00;  7.0711398E-03;  9.9882574E+00;  4.7999740E-01; -1.0440197E+00;3;  4.1514924E-03;  0.0000000E+00; -3.7598511E-04;  0.0000000E+00;  0.0000000E+00;  0.0000000E+00;0;  5.6790307E-02;  7.4031143E+01;  0.0000000E+00;  1.7560148E-03;  1.0000000E+02;  0.0000000E+00;  9.3584785E+01;  4.6463925E-02;  0.0000000E+00;  1.0326384E-02;  0.0000000E+00;
  4.9825807E+00;  9.9999998E-03;  8.2776248E-01;427;  1.1115216E-01;  0.0000000E+00;  8.7667014E-03;  9.9881783E+00;  2.4026565E-01; -1.0510596E+00;3;  4.6137725E-03;  0.0000000E+00; -2.0186356E-03;  0.0000000E+00;  0.0000000E+00;  0.0000000E+00;1;  5.6433897E-02;  2.9557797E+02;  0.0000000E+00; -7.4758693E-03;  1.0000000E+02;  0.0000000E+00;  9.3548729E+01;  4.6059780E-02;  0.0000000E+00;  1.0374117E-02;  0.0000000E+00;
  4.9862137E+00;  9.9999998E-03;  1.0336154E+00;428;  1.1178578E-01;  0.0000000E+00;  1.0440102E-02;  9.9881506E+00;  2.4048799E-01; -1.0534968E+00;3;  4.2869416E-03;  0.0000000E+00; -3.8688502E-03;  0.0000000E+00;  0.0000000E+00;  0.0000000E+00;1;  5.6429144E-02;  2.9512576E+02;  0.0000000E+00; -2.9567352E-03;  1.0000000E+02;  0.0000000E+00;  9.3518188E+01;  4.6206478E-02;  0.0000000E+00;  1.0222666E-02;  0.0000000E+00;
  5.1484590E+00;  9.9999998E-03; -5.8398009E-10;434;  1.1959051E-01;  0.0000000E+00; -2.2167471E-08;  9.9886017E+00;  4.7414231E-01; -1.0133680E+00;3;  4.1610859E-03;  0.0000000E+00; -3.2766548E-07;  0.0000000E+00;  0.0000000E+00;  0.0000000E+00;0;  5.1798146E-02;  7.5489418E+01;  0.0000000E+00; -8.7604213E-15;  1.0000000E+02;  0.0000000E+00;  9.4062531E+01;  4.2453226E-02;  0.0000000E+00;  9.3449205E-03;  0.0000000E+00;
  5.1538916E+00;  9.9999998E-03;  2.1119459E-01;435;  1.2196280E-01;  0.0000000E+00;  3.2912658E-03;  9.9885454E+00;  4.7447389E-01; -1.0184020E+00;3;  4.1577257E-03;  0.0000000E+00;  7.7837275E-04;  0.0000000E+00;  0.0000000E+00;  0.0000000E+00;0;  5.1949114E-02;  7.5458496E+01;  0.0000000E+00;  3.0118646E-03;  1.0000000E+02;  0.0000000E+00;  9.3968979E+01;  4.2491551E-02;  0.0000000E+00;  9.4575621E-03;  0.0000000E+00;
  5.1623483E+00;  9.9999998E-03;  4.1566437E-01;436;  1.2575722E-01;  0.0000000E+00;  4.7306847E-03;  9.9884491E+00;  4.7485882E-01; -1.0269332E+00;3;  6.1013610E-03;  0.0000000E+00;  3.1441817E-04;  0.0000000E+00;  0.0000000E+00;  0.0000000E+00;0;  5.2204795E-02;  7.5353363E+01;  0.0000000E+00;  6.4403242E-03;  1.0000000E+02;  0.0000000E+00;  9.3946022E+01;  4.2718660E-02;  0.0000000E+00;  9.4861342E-03;  0.0000000E+00;
  5.1698995E+00;  9.9999998E-03;  6.2069672E-01;437;  1.2724027E-01;  0.0000000E+00;  6.4192046E-03;  9.9883127E+00;  4.7546867E-01; -1.0390680E+00;3;  6.7982301E-03;  0.0000000E+00; -7.9349702E-05;  0.0000000E+00;  0.0000000E+00;  0.0000000E+00;0;  5.2673303E-02;  7.5191437E+01;  0.0000000E+00; -3.6737361E-04;  1.0000000E+02;  0.0000000E+00;  9.3905273E+01;  4.3056503E-02;  0.0000000E+00;  9.6167978E-03;  0.0000000E+00;
  5.1819172E+00;  9.9999998E-03;  8.2608962E-01;438;  1.2657815E-01;  0.0000000E+00;  8.0027506E-03;  9.9882193E+00;  4.7637326E-01; -1.0473871E+00;3;  3.0466167E-03;  0.0000000E+00; -1.7997540E-03;  0.0000000E+00;  0.0000000E+00;  0.0000000E+00;0;  5.2822720E-02;  7.4955818E+01;  0.0000000E+00; -1.7969023E-02;  1.0000000E+02;  0.0000000E+00;  9.3841560E+01;  4.3199413E-02;  0.0000000E+00;  9.6233068E-03;  0.0000000E+00;
  5.1873727E+00;  9.9999998E-03;  1.0318224E+00;439;  1.2974556E-01;  0.0000000E+00;  9.6605960E-03;  9.9880905E+00;  4.7734320E-01; -1.0588330E+00;3;  7.7380049E-03;  0.0000000E+00; -3.0213757E-03;  0.0000000E+00;  0.0000000E+00;  0.0000000E+00;0;  5.3218093E-02;  7.4704712E+01;  0.0000000E+00;  2.5600832E-02;  1.0000000E+02;  0.0000000E+00;  9.3773628E+01;  4.3704730E-02;  0.0000000E+00;  9.5133642E-03;  0.0000000E+00;
  5.3939905E+00;  9.9999998E-03; -2.1498252E-09;445;  1.3336618E-01;  0.0000000E+00; -5.3881184E-08;  9.9890156E+00;  4.6551183E-01; -9.7658265E-01;3;  2.8874022E-03;  0.0000000E+00; -9.9878525E-07;  0.0000000E+00;  0.0000000E+00;  0.0000000E+00;0;  4.4591486E-02;  7.7835266E+01;  0.0000000E+00; -9.9617825E-15;  1.0000000E+02;  0.0000000E+00;  9.4648064E+01;  3.6430683E-02;  0.0000000E+00;  8.1608035E-03;  0.0000000E+00;
  5.4080887E+00;  9.9999998E-03;  2.0787929E-01;446;  1.4082243E-01;  0.0000000E+00;  1.0600114E-03;  9.9889603E+00;  4.6596992E-01; -9.8151064E-01;3;  5.3057177E-03;  0.0000000E+00; -1.0393506E-03;  0.0000000E+00;  0.0000000E+00;  0.0000000E+00;0;  4.4442836E-02;  7.7727074E+01;  0.0000000E+00;  4.8190346E-03;  1.0000000E+02;  0.0000000E+00;  9.4594154E+01;  3.6412839E-02;  0.0000000E+00;  8.0299983E-03;  0.0000000E+00;
  5.4153347E+00;  9.9999998E-03;  4.1290006E-01;447;  1.4338183E-01;  0.0000000E+00;  3.5986048E-03;  9.9886770E+00;  4.6697637E-01; -1.0066814E+00;3;  7.9139909E-03;  0.0000000E+00;  2.7149782E-04;  0.0000000E+00;  0.0000000E+00;  0.0000000E+00;0;  4.5390844E-02;  7.7443924E+01;  0.0000000E+00; -8.4112800E-04;  1.0000000E+02;  0.0000000E+00;  9.4526047E+01;  3.7098702E-02;  0.0000000E+00;  8.2921404E-03;  0.0000000E+00;
  5.4037447E+00;  9.9999998E-03;  6.1761105E-01;448;  1.3757324E-01;  0.0000000E+00;  5.2336594E-03;  9.9885349E+00;  4.6744370E-01; -1.0192937E+00;3;  1.2236343E-02;  0.0000000E+00;  6.2619639E-04;  0.0000000E+00;  0.0000000E+00;  0.0000000E+00;0;  4.6312816E-02;  7.7318092E+01;  0.0000000E+00;  5.0959717E-03;  1.0000000E+02;  0.0000000E+00;  9.4488075E+01;  3.7833862E-02;  0.0000000E+00;  8.4789563E-03;  0.0000000E+00;
  5.4070401E+00;  9.9999998E-03;  8.2308006E-01;449;  1.3525820E-01;  0.0000000E+00;  6.9242623E-03;  9.9883881E+00;  4.6861479E-01; -1.0323826E+00;3;  3.8147897E-03;  0.0000000E+00; -2.0193593E-03;  0.0000000E+00;  0.0000000E+00;  0.0000000E+00;0;  4.6764135E-02;  7.7002007E+01;  0.0000000E+00; -1.5620241E-02;  1.0000000E+02;  0.0000000E+00;  9.4400200E+01;  3.8151603E-02;  0.0000000E+00;  8.6125322E-03;  0.0000000E+00;
  5.3918357E+00;  9.9999998E-03;  1.0283418E+00;450;  1.2971635E-01;  0.0000000E+00;  8.4760813E-03;  9.9885664E+00;  4.6781135E-01; -1.0164855E+00;3;  7.7223224E-03;  0.0000000E+00; -4.1033514E-03;  0.0000000E+00;  0.0000000E+00;  0.0000000E+00;0;  4.6380598E-02;  7.7223808E+01;  0.0000000E+00;  2.4544720E-02;  1.0000000E+02;  0.0000000E+00;  9.4456390E+01;  3.8046543E-02;  0.0000000E+00;  8.3340555E-03;  0.0000000E+00;
  5.6240821E+00;  9.9999998E-03; -2.2963683E-08;456;  1.4109886E-01;  0.0000000E+00; -8.2047208E-08;  9.9894114E+00;  4.5562437E-01; -9.4139320E-01;3;  6.8329857E-03;  0.0000000E+00; -2.1536835E-06;  0.0000000E+00;  0.0000000E+00;  0.0000000E+00;0;  3.6641110E-02;  8.0653198E+01;  0.0000000E+00;  2.2625419E-14;  1.0000000E+02;  0.0000000E+00;  9.5357109E+01;  2.9719444E-02;  0.0000000E+00;  6.9216667E-03;  0.0000000E+00;
  5.6314974E+00;  9.9999998E-03;  2.0492950E-01;457;  1.4492568E-01;  0.0000000E+00;  1.2445027E-03;  9.9891529E+00;  4.5651549E-01; -9.6433842E-01;3;  3.9106174E-03;  0.0000000E+00;  1.9544780E-03;  0.0000000E+00;  0.0000000E+00;  0.0000000E+00;0;  3.7286118E-02;  8.0367828E+01;  0.0000000E+00;  1.1203414E-02;  1.0000000E+02;  0.0000000E+00;  9.5318901E+01;  3.0336844E-02;  0.0000000E+00;  6.9492743E-03;  0.0000000E+00;
  5.6314917E+00;  9.9999998E-03;  4.0957487E-01;458;  1.4578812E-01;  0.0000000E+00;  2.8458270E-03;  9.9887857E+00;  4.5754829E-01; -9.9698114E-01;3;  8.3871987E-03;  0.0000000E+00; -5.4833619E-04;  0.0000000E+00;  0.0000000E+00;  0.0000000E+00;0;  3.8549095E-02;  8.0074341E+01;  0.0000000E+00;  2.1557964E-02;  1.0000000E+02;  0.0000000E+00;  9.5230087E+01;  3.1320419E-02;  0.0000000E+00;  7.2286781E-03;  0.0000000E+00;
  5.6269202E+00;  9.9999998E-03;  6.1413002E-01;459;  1.4410806E-01;  0.0000000E+00;  4.1160770E-03;  9.9885798E+00;  4.5813495E-01; -1.0153162E+00;3;  8.2518989E-03;  0.0000000E+00;  3.1072670E-04;  0.0000000E+00;  0.0000000E+00;  0.0000000E+00;0;  3.9439373E-02;  7.9901054E+01;  0.0000000E+00;  1.3258863E-02;  1.0000000E+02;  0.0000000E+00;  9.5187180E+01;  3.2133777E-02;  0.0000000E+00;  7.3055965E-03;  0.0000000E+00;
  5.6269588E+00;  9.9999998E-03;  8.1954348E-01;460;  1.4352868E-01;  0.0000000E+00;  5.8635091E-03;  9.9882030E+00;  4.5952958E-01; -1.0488068E+00;3;  8.1547573E-03;  0.0000000E+00; -1.0523195E-03;  0.0000000E+00;  0.0000000E+00;  0.0000000E+00;0;  4.0752802E-02;  7.9504501E+01;  0.0000000E+00;  2.1510551E-04;  1.0000000E+02;  0.0000000E+00;  9.5076485E+01;  3.3133604E-02;  0.0000000E+00;  7.6191979E-03;  0.0000000E+00;
  5.6102924E+00;  9.9999998E-03;  1.0241143E+00;461;  1.3852914E-01;  0.0000000E+00;  7.2476212E-03;  9.9885979E+00;  4.5684764E-01; -1.0137267E+00;3;  9.7328760E-03;  0.0000000E+00; -5.7527884E-03;  0.0000000E+00;  0.0000000E+00;  0.0000000E+00;0;  3.9786294E-02;  8.0279823E+01;  0.0000000E+00; -1.5677369E-03;  1.0000000E+02;  0.0000000E+00;  9.5273315E+01;  3.2534506E-02;  0.0000000E+00;  7.2517861E-03;  0.0000000E+00;
  5.8395371E+00;  9.9999998E-03;  4.4345477E-08;467;  1.4791250E-01;  0.0000000E+00;  2.6591563E-08;  9.9890938E+00;  4.4604209E-01; -9.6963638E-01;3;  8.4538506E-03;  0.0000000E+00; -3.3765100E-06;  0.0000000E+00;  0.0000000E+00;  0.0000000E+00;0;  3.0366182E-02;  8.3520393E+01;  0.0000000E+00; -8.6701632E-15;  1.0000000E+02;  0.0000000E+00;  9.6077522E+01;  2.4614718E-02;  0.0000000E+00;  5.7514654E-03;  0.0000000E+00;
  5.8361940E+00;  9.9999998E-03;  2.0066811E-01;468;  1.4644237E-01;  0.0000000E+00;  3.1691711E-04;  9.9892864E+00;  4.4538498E-01; -9.5246720E-01;3;  7.6073632E-03;  0.0000000E+00;  1.1812574E-03;  0.0000000E+00;  0.0000000E+00;  0.0000000E+00;0;  2.9948939E-02;  8.3696503E+01;  0.0000000E+00;  2.7783722E-02;  1.0000000E+02;  0.0000000E+00;  9.6161659E+01;  2.4243535E-02;  0.0000000E+00;  5.7054032E-03;  0.0000000E+00;
  5.8365426E+00;  9.9999998E-03;  4.0551499E-01;469;  1.4681655E-01;  0.0000000E+00;  1.6228816E-03;  9.9889622E+00;  4.4608274E-01; -9.8129451E-01;3;  9.2119351E-03;  0.0000000E+00;  1.6626623E-03;  0.0000000E+00;  0.0000000E+00;  0.0000000E+00;0;  3.0869476E-02;  8.3474556E+01;  0.0000000E+00;  5.6987736E-02;  1.0000000E+02;  0.0000000E+00;  9.6109711E+01;  2.5028102E-02;  0.0000000E+00;  5.8413739E-03;  0.0000000E+00;
  5.8367424E+00;  9.9999998E-03;  6.1032528E-01;470;  1.4630002E-01;  0.0000000E+00;  2.9627213E-03;  9.9887085E+00;  4.4702470E-01; -1.0038688E+00;3;  8.2985880E-03;  0.0000000E+00;  1.3755641E-03;  0.0000000E+00;  0.0000000E+00;  0.0000000E+00;0;  3.1552434E-02;  8.3182076E+01;  0.0000000E+00;  2.9389601E-02;  1.0000000E+02;  0.0000000E+00;  9.6037216E+01;  2.5601618E-02;  0.0000000E+00;  5.9508178E-03;  0.0000000E+00;
  5.8318186E+00;  9.9999998E-03;  8.1485903E-01;471;  1.4350359E-01;  0.0000000E+00;  4.3121385E-03;  9.9891520E+00;  4.4629845E-01; -9.6444327E-01;3;  9.7384900E-03;  0.0000000E+00; -2.1695569E-03;  0.0000000E+00;  0.0000000E+00;  0.0000000E+00;0;  3.0486919E-02;  8.3411613E+01;  0.0000000E+00;  1.0621817E-03;  1.0000000E+02;  0.0000000E+00;  9.6093742E+01;  2.4641737E-02;  0.0000000E+00;  5.8451826E-03;  0.0000000E+00;
  5.8254433E+00;  9.9999998E-03;  1.0194632E+00;472;  1.4350292E-01;  0.0000000E+00;  6.0140709E-03;  9.9884548E+00;  4.4552088E-01; -1.0264432E+00;3;  1.2766423E-02;  0.0000000E+00; -6.7491373E-03;  0.0000000E+00;  0.0000000E+00;  0.0000000E+00;0;  3.2647330E-02;  8.3636459E+01;  0.0000000E+00; -1.4112540E-02;  1.0000000E+02;  0.0000000E+00;  9.6155991E+01;  2.6429283E-02;  0.0000000E+00;  6.2180492E-03;  0.0000000E+00;
  4.8699813E+00;  9.9999998E-03;  1.0336176E+00;495;  1.1174015E-01;  0.0000000E+00;  1.0511972E-02;  9.9882250E+00;  2.4049757E-01; -1.0468899E+00;3;  2.9760993E-03;  0.0000000E+00;  9.4162248E-04; -4.3160208E+08; -4.3160208E+08; -4.3160208E+08;1;  5.7411902E-02;  2.9510245E+02;  0.0000000E+00; -2.7590534E-03;  1.0000000E+02;  0.0000000E+00;  9.3519577E+01;  4.7313545E-02;  0.0000000E+00;  1.0098358E-02;  0.0000000E+00;
  4.6231222E+00;  9.9999998E-03;  1.0338887E+00;497;  9.6303277E-02;  0.0000000E+00;  1.0740898E-02;  9.9884520E+00;  2.4045898E-01; -1.0267752E+00;3;  2.0158363E-03;  0.0000000E+00;  6.0612580E-04; -4.3160208E+08; -4.3160208E+08; -4.3160208E+08;1;  5.7735551E-02;  2.9518692E+02;  0.0000000E+00;  5.8819599E-02;  1.0000000E+02;  0.0000000E+00;  9.3526207E+01;  4.7468588E-02;  0.0000000E+00;  1.0266962E-02;  0.0000000E+00;
  4.6239858E+00;  9.9999998E-03;  8.2784992E-01;499;  9.6699141E-02;  0.0000000E+00;  8.8974442E-03;  9.9884253E+00;  2.4030055E-01; -1.0291597E+00;3;  1.8006086E-03;  0.0000000E+00; -1.3634394E-03; -4.3160208E+08; -4.3160208E+08; -4.3160208E+08;1;  5.7835050E-02;  2.9550885E+02;  0.0000000E+00;  2.2003610E-02;  1.0000000E+02;  0.0000000E+00;  9.3547127E+01;  4.7417752E-02;  0.0000000E+00;  1.0417299E-02;  0.0000000E+00;
  4.8663502E+00;  9.9999998E-03;  8.2776672E-01;501;  1.1112910E-01;  0.0000000E+00;  8.7627703E-03;  9.9882212E+00;  2.4027120E-01; -1.0472615E+00;3;  3.3868044E-03;  0.0000000E+00; -1.3419843E-03; -4.3160208E+08; -4.3160208E+08; -4.3160208E+08;1;  5.7433818E-02;  2.9556583E+02;  0.0000000E+00; -7.5942432E-03;  1.0000000E+02;  0.0000000E+00;  9.3549042E+01;  4.7146291E-02;  0.0000000E+00;  1.0287527E-02;  0.0000000E+00;
  4.6258073E+00;  9.9999998E-03;  6.2190199E-01;503;  9.7764581E-02;  0.0000000E+00;  7.0271138E-03;  9.9884233E+00;  2.4011789E-01; -1.0293177E+00;3;  2.2803508E-03;  0.0000000E+00; -1.4418389E-03; -4.3160208E+08; -4.3160208E+08; -4.3160208E+08;1;  5.7827905E-02;  2.9588031E+02;  0.0000000E+00;  9.0661123E-03;  1.0000000E+02;  0.0000000E+00;  9.3571091E+01;  4.7363553E-02;  0.0000000E+00;  1.0464353E-02;  0.0000000E+00;
  6.0388441E+00;  9.9999998E-03;  4.0102637E-01;479;  1.4669083E-01;  0.0000000E+00;  5.2400628E-05;  9.9897690E+00;  4.3254831E-01; -9.0959674E-01;3;  9.7373910E-03;  0.0000000E+00; -7.7663036E-04;  0.0000000E+00;  0.0000000E+00;  0.0000000E+00;0;  2.1244656E-02;  8.7801682E+01;  0.0000000E+00;  4.2347986E-02;  1.0000000E+02;  0.0000000E+00;  9.7197632E+01;  1.7223861E-02;  0.0000000E+00;  4.0207957E-03;  0.0000000E+00;
  6.0387683E+00;  9.9999998E-03;  6.0569930E-01;480;  1.4608131E-01;  0.0000000E+00;  1.5196626E-03;  9.9898243E+00;  4.3284574E-01; -9.0466857E-01;3;  8.7536369E-03;  0.0000000E+00;  8.6992700E-04;  0.0000000E+00;  0.0000000E+00;  0.0000000E+00;0;  2.1173775E-02;  8.7691505E+01;  0.0000000E+00; -3.4886058E-02;  1.0000000E+02;  0.0000000E+00;  9.7185997E+01;  1.7072309E-02;  0.0000000E+00;  4.1014669E-03;  0.0000000E+00;
  6.0415335E+00;  9.9999998E-03;  8.1102592E-01;481;  1.4809541E-01;  0.0000000E+00;  3.5703755E-03;  9.9875879E+00;  4.3594998E-01; -1.1034921E+00;3;  1.2901124E-02;  0.0000000E+00; -2.8450917E-03;  0.0000000E+00;  0.0000000E+00;  0.0000000E+00;0;  2.5668822E-02;  8.6638336E+01;  0.0000000E+00; -3.6963776E-02;  1.0000000E+02;  0.0000000E+00;  9.6930023E+01;  2.0512957E-02;  0.0000000E+00;  5.1558642E-03;  0.0000000E+00;
  6.0458484E+00;  9.9999998E-03;  1.9966258E-01;478;  1.4905018E-01;  0.0000000E+00; -1.9409772E-04;  9.9885521E+00;  4.3575090E-01; -1.0177522E+00;3;  7.8561241E-03;  0.0000000E+00; -3.5587698E-05;  0.0000000E+00;  0.0000000E+00;  0.0000000E+00;0;  2.3392187E-02;  8.6754753E+01;  0.0000000E+00;  1.9921562E-02;  1.0000000E+02;  0.0000000E+00;  9.6906830E+01;  1.8895755E-02;  0.0000000E+00;  4.4964328E-03;  0.0000000E+00;
  6.0487928E+00;  9.9999998E-03;  3.4697237E-08;477;  1.5002646E-01;  0.0000000E+00; -1.1655685E-07;  9.9880819E+00;  4.3701985E-01; -1.0595623E+00;3;  7.8026769E-03;  0.0000000E+00; -3.8342550E-06;  0.0000000E+00;  0.0000000E+00;  0.0000000E+00;0;  2.4211165E-02;  8.6354454E+01;  0.0000000E+00;  2.1607367E-14;  1.0000000E+02;  0.0000000E+00;  9.6783852E+01;  1.9540668E-02;  0.0000000E+00;  4.6704961E-03;  0.0000000E+00;
  6.2464428E+00;  9.9999998E-03;  3.9961359E-01;487;  1.4892727E-01;  0.0000000E+00; -2.0620604E-04;  9.9879923E+00;  4.2311877E-01; -1.0675638E+00;3;  9.5916633E-03;  0.0000000E+00; -8.8853668E-04;  0.0000000E+00;  0.0000000E+00;  0.0000000E+00;0;  1.5156960E-02;  9.1010132E+01;  0.0000000E+00; -8.9136831E-02;  1.0000000E+02;  0.0000000E+00;  9.7964569E+01;  1.2208719E-02;  0.0000000E+00;  2.9482411E-03;  0.0000000E+00;
  6.2509074E+00;  9.9999998E-03;  6.0460764E-01;488;  1.5122999E-01;  0.0000000E+00;  1.3593257E-03;  9.9838820E+00;  4.2738500E-01; -1.4329921E+00;3;  1.9051041E-03;  0.0000000E+00;  5.7149380E-03;  0.0000000E+00;  0.0000000E+00;  0.0000000E+00;0;  2.0010669E-02;  8.9443810E+01;  0.0000000E+00; -7.6819748E-02;  1.0000000E+02;  0.0000000E+00;  9.7622231E+01;  1.6432725E-02;  0.0000000E+00;  3.5779439E-03;  0.0000000E+00;
  6.2516532E+00;  9.9999998E-03;  1.9858316E-01;486;  1.5043868E-01;  0.0000000E+00; -5.9016218E-04;  9.9862099E+00;  4.2645913E-01; -1.2260079E+00;3;  9.1267917E-03;  0.0000000E+00; -3.9670058E-04;  0.0000000E+00;  0.0000000E+00;  0.0000000E+00;0;  1.7154356E-02;  8.9863403E+01;  0.0000000E+00; -1.3522529E-02;  1.0000000E+02;  0.0000000E+00;  9.7634285E+01;  1.3777902E-02;  0.0000000E+00;  3.3764543E-03;  0.0000000E+00;
  6.2545805E+00;  9.9999998E-03;  2.4071655E-08;485;  1.5153553E-01;  0.0000000E+00; -2.4535399E-08;  9.9846106E+00;  4.2843443E-01; -1.3681837E+00;3;  9.3387552E-03;  0.0000000E+00; -3.2950193E-06;  0.0000000E+00;  0.0000000E+00;  0.0000000E+00;0;  1.8814391E-02;  8.9191986E+01;  0.0000000E+00;  2.0830963E-13;  1.0000000E+02;  0.0000000E+00;  9.7434502E+01;  1.5098817E-02;  0.0000000E+00;  3.7155733E-03;  0.0000000E+00;
  6.4569774E+00;  9.9999998E-03;  4.9476196E-08;491;  1.5232719E-01;  0.0000000E+00;  3.0577628E-08;  9.9655724E+00;  4.1924635E-01; -3.0607800E+00;3;  9.6614817E-03;  0.0000000E+00; -8.3222985E-06;  0.0000000E+00;  0.0000000E+00;  0.0000000E+00;0;  1.3873486E-02;  9.2262466E+01;  0.0000000E+00; -1.7219050E-13;  1.0000000E+02;  0.0000000E+00;  9.8004402E+01;  1.0953075E-02;  0.0000000E+00;  2.9204104E-03;  0.0000000E+00;
  6.4531426E+00;  9.9999998E-03;  1.9712639E-01;492;  1.5120333E-01;  0.0000000E+00; -7.9900230E-04;  9.9723063E+00;  4.1634932E-01; -2.4620838E+00;3;  1.0934825E-02;  0.0000000E+00; -4.1121617E-04;  0.0000000E+00;  0.0000000E+00;  0.0000000E+00;0;  1.1780394E-02;  9.3335831E+01;  0.0000000E+00; -8.8463522E-02;  1.0000000E+02;  0.0000000E+00;  9.8355965E+01;  9.3394909E-03;  0.0000000E+00;  2.4409031E-03;  0.0000000E+00;
  6.4536624E+00;  9.9999998E-03;  4.0035409E-01;493;  1.5180136E-01;  0.0000000E+00;  6.5943663E-04;  9.9661684E+00;  4.1744778E-01; -3.0077887E+00;3;  1.7330080E-02;  0.0000000E+00; -3.6774576E-04;  0.0000000E+00;  0.0000000E+00;  0.0000000E+00;0;  1.4147247E-02;  9.2807869E+01;  0.0000000E+00; -1.4326595E-01;  1.0000000E+02;  0.0000000E+00;  9.8277283E+01;  1.0996756E-02;  0.0000000E+00;  3.1504910E-03;  0.0000000E+00;
