TimeStep;Np;Nbound;Nfixed;Nmoving;Nfloat;Nfluid
3.0023;494;165;165;0;0;329

Pos.x;Pos.y;Pos.z;Idp;Vel.x;Vel.y;Vel.z;Rhop;Mass;Press;Type;Acec.x;Acec.y;Acec.z;AceVisc.x;AceVisc.y;AceVisc.z;CellOffSpring;GradVel;Qfxx;Qfxy;Qfxz;Qfyy;Qfyz;Qfzz;StrainDot.x;StrainDot.y;StrainDot.z;VonMises3D;
 -1.0000000E+00;  9.9999998E-03; -2.0000000E+00;0;  0.0000000E+00;  0.0000000E+00;  0.0000000E+00;  1.0000000E+01;  4.0000001E-01;  0.0000000E+00;0;  0.0000000E+00;  0.0000000E+00;  0.0000000E+00;  0.0000000E+00;  0.0000000E+00;  0.0000000E+00;0; -2.3470710E-07;  1.0000000E+02;  0.0000000E+00;  0.0000000E+00;  1.0000000E+02;  0.0000000E+00;  1.0000000E+02; -1.4662533E-07;  0.0000000E+00; -8.8081784E-08;  0.0000000E+00;
 -8.0000001E-01;  9.9999998E-03; -2.0000000E+00;21;  0.0000000E+00;  0.0000000E+00;  0.0000000E+00;  1.0000000E+01;  4.0000001E-01;  0.0000000E+00;0;  0.0000000E+00;  0.0000000E+00;  0.0000000E+00;  0.0000000E+00;  0.0000000E+00;  0.0000000E+00;0; -5.0562494E-07;  1.0000000E+02;  0.0000000E+00;  0.0000000E+00;  1.0000000E+02;  0.0000000E+00;  1.0000000E+02; -4.0542815E-07;  0.0000000E+00; -1.0019680E-07;  0.0000000E+00;
 -6.0000002E-01;  9.9999998E-03; -2.0000000E+00;42;  0.0000000E+00;  0.0000000E+00;  0.0000000E+00;  1.0000000E+01;  4.0000001E-01;  0.0000000E+00;0;  0.0000000E+00;  0.0000000E+00;  0.0000000E+00;  0.0000000E+00;  0.0000000E+00;  0.0000000E+00;0; -4.3772999E-07;  1.0000000E+02;  0.0000000E+00;  0.0000000E+00;  1.0000000E+02;  0.0000000E+00;  1.0000000E+02; -6.2645768E-07;  0.0000000E+00;  1.8872768E-07;  0.0000000E+00;
 -4.0000001E-01;  9.9999998E-03; -2.0000000E+00;63;  0.0000000E+00;  0.0000000E+00;  0.0000000E+00;  1.0000092E+01;  4.0000001E-01;  9.8762503E-03;0;  0.0000000E+00;  0.0000000E+00;  0.0000000E+00;  0.0000000E+00;  0.0000000E+00;  0.0000000E+00;0;  6.8940244E-07;  1.0000000E+02;  0.0000000E+00;  0.0000000E+00;  1.0000000E+02;  0.0000000E+00;  1.0000000E+02; -4.8054574E-07;  0.0000000E+00;  1.1699482E-06;  0.0000000E+00;
 -2.0000000E-01;  9.9999998E-03; -2.0000000E+00;84;  0.0000000E+00;  0.0000000E+00;  0.0000000E+00;  1.0000140E+01;  4.0000001E-01;  1.5135014E-02;0;  0.0000000E+00;  0.0000000E+00;  0.0000000E+00;  0.0000000E+00;  0.0000000E+00;  0.0000000E+00;0;  4.6572841E-06;  1.0000000E+02;  0.0000000E+00;  0.0000000E+00;  1.0000000E+02;  0.0000000E+00;  1.0000000E+02;  1.5515332E-06;  0.0000000E+00;  3.1057507E-06;  0.0000000E+00;
  0.0000000E+00;  9.9999998E-03; -2.0000000E+00;105;  0.0000000E+00;  0.0000000E+00;  0.0000000E+00;  1.0000150E+01;  4.0000001E-01;  1.6161071E-02;0;  0.0000000E+00;  0.0000000E+00;  0.0000000E+00;  0.0000000E+00;  0.0000000E+00;  0.0000000E+00;0;  1.5892207E-05;  1.0000000E+02;  0.0000000E+00;  0.0000000E+00;  1.0000000E+02;  0.0000000E+00;  1.0000000E+02;  1.0370280E-05;  0.0000000E+00;  5.5219271E-06;  0.0000000E+00;
  2.0000000E-01;  9.9999998E-03; -2.0000000E+00;115;  0.0000000E+00;  0.0000000E+00;  0.0000000E+00;  1.0000000E+01;  4.0000001E-01;  0.0000000E+00;0;  0.0000000E+00;  0.0000000E+00;  0.0000000E+00;  0.0000000E+00;  0.0000000E+00;  0.0000000E+00;0;  4.1119576E-05;  1.0000000E+02;  0.0000000E+00;  0.0000000E+00;  1.0000000E+02;  0.0000000E+00;  1.0000000E+02;  3.4060013E-05;  0.0000000E+00;  7.0595624E-06;  0.0000000E+00;
  4.0000001E-01;  9.9999998E-03; -2.0000000E+00;125;  0.0000000E+00;  0.0000000E+00;  0.0000000E+00;  1.0000000E+01;  4.0000001E-01;  0.0000000E+00;0;  0.0000000E+00;  0.0000000E+00;  0.0000000E+00;  0.0000000E+00;  0.0000000E+00;  0.0000000E+00;0;  9.1212525E-05;  1.0000000E+02;  0.0000000E+00;  0.0000000E+00;  1.0000000E+02;  0.0000000E+00;  1.0000000E+02;  8.5094689E-05;  0.0000000E+00;  6.1178380E-06;  0.0000000E+00;
  6.0000002E-01;  9.9999998E-03; -2.0000000E+00;135;  0.0000000E+00;  0.0000000E+00;  0.0000000E+00;  1.0000000E+01;  4.0000001E-01;  0.0000000E+00;0;  0.0000000E+00;  0.0000000E+00;  0.0000000E+00;  0.0000000E+00;  0.0000000E+00;  0.0000000E+00;0;  1.7910900E-04;  1.0000000E+02;  0.0000000E+00;  0.0000000E+00;  1.0000000E+02;  0.0000000E+00;  1.0000000E+02;  1.7761310E-04;  0.0000000E+00;  1.4959015E-06;  0.0000000E+00;
  8.0000001E-01;  9.9999998E-03; -2.0000000E+00;145;  0.0000000E+00;  0.0000000E+00;  0.0000000E+00;  1.0000000E+01;  4.0000001E-01;  0.0000000E+00;0;  0.0000000E+00;  0.0000000E+00;  0.0000000E+00;  0.0000000E+00;  0.0000000E+00;  0.0000000E+00;0;  3.0738281E-04;  1.0000000E+02;  0.0000000E+00;  0.0000000E+00;  1.0000000E+02;  0.0000000E+00;  1.0000000E+02;  3.1530522E-04;  0.0000000E+00; -7.9224201E-06;  0.0000000E+00;
  1.0000000E+00;  9.9999998E-03; -2.0000000E+00;155;  0.0000000E+00;  0.0000000E+00;  0.0000000E+00;  1.0000000E+01;  4.0000001E-01;  0.0000000E+00;0;  0.0000000E+00;  0.0000000E+00;  0.0000000E+00;  0.0000000E+00;  0.0000000E+00;  0.0000000E+00;0;  4.4734427E-04;  1.0000000E+02;  0.0000000E+00;  0.0000000E+00;  1.0000000E+02;  0.0000000E+00;  1.0000000E+02;  4.7115353E-04;  0.0000000E+00; -2.3809256E-05;  0.0000000E+00;
 -1.0000000E+00;  9.9999998E-03; -1.8000000E+00;1;  0.0000000E+00;  0.0000000E+00;  0.0000000E+00;  1.0000000E+01;  4.0000001E-01;  0.0000000E+00;0;  0.0000000E+00;  0.0000000E+00;  0.0000000E+00;  0.0000000E+00;  0.0000000E+00;  0.0000000E+00;0; -5.2829591E-07;  1.0000000E+02;  0.0000000E+00;  0.0000000E+00;  1.0000000E+02;  0.0000000E+00;  1.0000000E+02; -3.5408502E-07;  0.0000000E+00; -1.7421092E-07;  0.0000000E+00;
 -1.0000000E+00;  9.9999998E-03; -1.6000000E+00;2;  0.0000000E+00;  0.0000000E+00;  0.0000000E+00;  1.0000038E+01;  4.0000001E-01;  4.1044201E-03;0;  0.0000000E+00;  0.0000000E+00;  0.0000000E+00;  0.0000000E+00;  0.0000000E+00;  0.0000000E+00;0; -6.7944137E-07;  1.0000000E+02;  0.0000000E+00;  0.0000000E+00;  1.0000000E+02;  0.0000000E+00;  1.0000000E+02; -5.0207183E-07;  0.0000000E+00; -1.7736956E-07;  0.0000000E+00;
 -1.0000000E+00;  9.9999998E-03; -1.4000000E+00;3;  0.0000000E+00;  0.0000000E+00;  0.0000000E+00;  1.0000267E+01;  4.0000001E-01;  2.8730940E-02;0;  0.0000000E+00;  0.0000000E+00;  0.0000000E+00;  0.0000000E+00;  0.0000000E+00;  0.0000000E+00;0; -3.4665152E-07;  1.0000000E+02;  0.0000000E+00;  0.0000000E+00;  1.0000000E+02;  0.0000000E+00;  1.0000000E+02; -2.6874179E-07;  0.0000000E+00; -7.7909739E-08;  0.0000000E+00;
 -1.0000000E+00;  9.9999998E-03; -1.2000000E+00;4;  0.0000000E+00;  0.0000000E+00;  0.0000000E+00;  1.0000500E+01;  4.0000001E-01;  5.3742249E-02;0;  0.0000000E+00;  0.0000000E+00;  0.0000000E+00;  0.0000000E+00;  0.0000000E+00;  0.0000000E+00;0;  1.0203375E-06;  1.0000000E+02;  0.0000000E+00;  0.0000000E+00;  1.0000000E+02;  0.0000000E+00;  1.0000000E+02;  9.4236520E-07;  0.0000000E+00;  7.7972317E-08;  0.0000000E+00;
 -1.0000000E+00;  9.9999998E-03; -1.0000000E+00;5;  0.0000000E+00;  0.0000000E+00;  0.0000000E+00;  1.0000754E+01;  4.0000001E-01;  8.1190556E-02;0;  0.0000000E+00;  0.0000000E+00;  0.0000000E+00;  0.0000000E+00;  0.0000000E+00;  0.0000000E+00;0;  4.0495570E-06;  1.0000000E+02;  0.0000000E+00;  0.0000000E+00;  1.0000000E+02;  0.0000000E+00;  1.0000000E+02;  3.8280723E-06;  0.0000000E+00;  2.2148478E-07;  0.0000000E+00;
 -1.0000000E+00;  9.9999998E-03; -8.0000001E-01;6;  0.0000000E+00;  0.0000000E+00;  0.0000000E+00;  1.0001022E+01;  4.0000001E-01;  1.1004976E-01;0;  0.0000000E+00;  0.0000000E+00;  0.0000000E+00;  0.0000000E+00;  0.0000000E+00;  0.0000000E+00;0;  9.0382200E-06;  1.0000000E+02;  0.0000000E+00;  0.0000000E+00;  1.0000000E+02;  0.0000000E+00;  1.0000000E+02;  8.7588660E-06;  0.0000000E+00;  2.7935437E-07;  0.0000000E+00;
 -1.0000000E+00;  9.9999998E-03; -6.0000002E-01;7;  0.0000000E+00;  0.0000000E+00;  0.0000000E+00;  1.0001233E+01;  4.0000001E-01;  1.3262407E-01;0;  0.0000000E+00;  0.0000000E+00;  0.0000000E+00;  0.0000000E+00;  0.0000000E+00;  0.0000000E+00;0;  1.5509808E-05;  1.0000000E+02;  0.0000000E+00;  0.0000000E+00;  1.0000000E+02;  0.0000000E+00;  1.0000000E+02;  1.5319005E-05;  0.0000000E+00;  1.9080245E-07;  0.0000000E+00;
 -1.0000000E+00;  9.9999998E-03; -4.0000001E-01;8;  0.0000000E+00;  0.0000000E+00;  0.0000000E+00;  1.0001338E+01;  4.0000001E-01;  1.4391123E-01;0;  0.0000000E+00;  0.0000000E+00;  0.0000000E+00;  0.0000000E+00;  0.0000000E+00;  0.0000000E+00;0;  2.2137172E-05;  1.0000000E+02;  0.0000000E+00;  0.0000000E+00;  1.0000000E+02;  0.0000000E+00;  1.0000000E+02;  2.2166989E-05;  0.0000000E+00; -2.9816551E-08;  0.0000000E+00;
 -1.0000000E+00;  9.9999998E-03; -2.0000000E-01;9;  0.0000000E+00;  0.0000000E+00;  0.0000000E+00;  1.0001366E+01;  4.0000001E-01;  1.4698954E-01;0;  0.0000000E+00;  0.0000000E+00;  0.0000000E+00;  0.0000000E+00;  0.0000000E+00;  0.0000000E+00;0;  2.7156468E-05;  1.0000000E+02;  0.0000000E+00;  0.0000000E+00;  1.0000000E+02;  0.0000000E+00;  1.0000000E+02;  2.7415828E-05;  0.0000000E+00; -2.5935989E-07;  0.0000000E+00;
 -8.0000001E-01;  9.9999998E-03; -1.8000000E+00;22;  0.0000000E+00;  0.0000000E+00;  0.0000000E+00;  1.0000087E+01;  4.0000001E-01;  9.3632070E-03;0;  0.0000000E+00;  0.0000000E+00;  0.0000000E+00;  0.0000000E+00;  0.0000000E+00;  0.0000000E+00;0; -7.9429424E-07;  1.0000000E+02;  0.0000000E+00;  0.0000000E+00;  1.0000000E+02;  0.0000000E+00;  1.0000000E+02; -7.6344526E-07;  0.0000000E+00; -3.0848980E-08;  0.0000000E+00;
 -8.0000001E-01;  9.9999998E-03; -1.6000000E+00;23;  0.0000000E+00;  0.0000000E+00;  0.0000000E+00;  1.0000361E+01;  4.0000001E-01;  3.8863722E-02;0;  0.0000000E+00;  0.0000000E+00;  0.0000000E+00;  0.0000000E+00;  0.0000000E+00;  0.0000000E+00;0; -6.6533568E-07;  1.0000000E+02;  0.0000000E+00;  0.0000000E+00;  1.0000000E+02;  0.0000000E+00;  1.0000000E+02; -8.8409428E-07;  0.0000000E+00;  2.1875861E-07;  0.0000000E+00;
 -8.0000001E-01;  9.9999998E-03; -1.4000000E+00;24;  0.0000000E+00;  0.0000000E+00;  0.0000000E+00;  1.0000714E+01;  4.0000001E-01;  7.6829605E-02;0;  0.0000000E+00;  0.0000000E+00;  0.0000000E+00;  0.0000000E+00;  0.0000000E+00;  0.0000000E+00;0;  3.6728659E-07;  1.0000000E+02;  0.0000000E+00;  0.0000000E+00;  1.0000000E+02;  0.0000000E+00;  1.0000000E+02; -1.5091217E-07;  0.0000000E+00;  5.1819876E-07;  0.0000000E+00;
 -8.0000001E-01;  9.9999998E-03; -1.2000000E+00;25;  0.0000000E+00;  0.0000000E+00;  0.0000000E+00;  1.0001216E+01;  4.0000001E-01;  1.3082838E-01;0;  0.0000000E+00;  0.0000000E+00;  0.0000000E+00;  0.0000000E+00;  0.0000000E+00;  0.0000000E+00;0;  3.2173516E-06;  1.0000000E+02;  0.0000000E+00;  0.0000000E+00;  1.0000000E+02;  0.0000000E+00;  1.0000000E+02;  2.4987339E-06;  0.0000000E+00;  7.1861763E-07;  0.0000000E+00;
 -8.0000001E-01;  9.9999998E-03; -1.0000000E+00;26;  0.0000000E+00;  0.0000000E+00;  0.0000000E+00;  1.0001770E+01;  4.0000001E-01;  1.9047073E-01;0;  0.0000000E+00;  0.0000000E+00;  0.0000000E+00;  0.0000000E+00;  0.0000000E+00;  0.0000000E+00;0;  8.9310761E-06;  1.0000000E+02;  0.0000000E+00;  0.0000000E+00;  1.0000000E+02;  0.0000000E+00;  1.0000000E+02;  8.2036913E-06;  0.0000000E+00;  7.2738493E-07;  0.0000000E+00;
 -8.0000001E-01;  9.9999998E-03; -8.0000001E-01;27;  0.0000000E+00;  0.0000000E+00;  0.0000000E+00;  1.0002297E+01;  4.0000001E-01;  2.4716301E-01;0;  0.0000000E+00;  0.0000000E+00;  0.0000000E+00;  0.0000000E+00;  0.0000000E+00;  0.0000000E+00;0;  1.8012619E-05;  1.0000000E+02;  0.0000000E+00;  0.0000000E+00;  1.0000000E+02;  0.0000000E+00;  1.0000000E+02;  1.7526354E-05;  0.0000000E+00;  4.8626498E-07;  0.0000000E+00;
 -8.0000001E-01;  9.9999998E-03; -6.0000002E-01;28;  0.0000000E+00;  0.0000000E+00;  0.0000000E+00;  1.0002663E+01;  4.0000001E-01;  2.8653979E-01;0;  0.0000000E+00;  0.0000000E+00;  0.0000000E+00;  0.0000000E+00;  0.0000000E+00;  0.0000000E+00;0;  2.9677534E-05;  1.0000000E+02;  0.0000000E+00;  0.0000000E+00;  1.0000000E+02;  0.0000000E+00;  1.0000000E+02;  2.9676712E-05;  0.0000000E+00;  8.2152907E-10;  0.0000000E+00;
 -8.0000001E-01;  9.9999998E-03; -4.0000001E-01;29;  0.0000000E+00;  0.0000000E+00;  0.0000000E+00;  1.0002890E+01;  4.0000001E-01;  3.1090978E-01;0;  0.0000000E+00;  0.0000000E+00;  0.0000000E+00;  0.0000000E+00;  0.0000000E+00;  0.0000000E+00;0;  4.1637639E-05;  1.0000000E+02;  0.0000000E+00;  0.0000000E+00;  1.0000000E+02;  0.0000000E+00;  1.0000000E+02;  4.2223786E-05;  0.0000000E+00; -5.8614711E-07;  0.0000000E+00;
 -8.0000001E-01;  9.9999998E-03; -2.0000000E-01;30;  0.0000000E+00;  0.0000000E+00;  0.0000000E+00;  1.0003015E+01;  4.0000001E-01;  3.2437742E-01;0;  0.0000000E+00;  0.0000000E+00;  0.0000000E+00;  0.0000000E+00;  0.0000000E+00;  0.0000000E+00;0;  5.0718656E-05;  1.0000000E+02;  0.0000000E+00;  0.0000000E+00;  1.0000000E+02;  0.0000000E+00;  1.0000000E+02;  5.1757939E-05;  0.0000000E+00; -1.0392837E-06;  0.0000000E+00;
 -6.0000002E-01;  9.9999998E-03; -1.8000000E+00;43;  0.0000000E+00;  0.0000000E+00;  0.0000000E+00;  1.0000278E+01;  4.0000001E-01;  3.0013561E-02;0;  0.0000000E+00;  0.0000000E+00;  0.0000000E+00;  0.0000000E+00;  0.0000000E+00;  0.0000000E+00;0; -1.5057105E-07;  1.0000000E+02;  0.0000000E+00;  0.0000000E+00;  1.0000000E+02;  0.0000000E+00;  1.0000000E+02; -9.7565703E-07;  0.0000000E+00;  8.2508598E-07;  0.0000000E+00;
 -6.0000002E-01;  9.9999998E-03; -1.6000000E+00;44;  0.0000000E+00;  0.0000000E+00;  0.0000000E+00;  1.0000634E+01;  4.0000001E-01;  6.8235964E-02;0;  0.0000000E+00;  0.0000000E+00;  0.0000000E+00;  0.0000000E+00;  0.0000000E+00;  0.0000000E+00;0;  9.3564717E-07;  1.0000000E+02;  0.0000000E+00;  0.0000000E+00;  1.0000000E+02;  0.0000000E+00;  1.0000000E+02; -6.9860999E-07;  0.0000000E+00;  1.6342572E-06;  0.0000000E+00;
 -6.0000002E-01;  9.9999998E-03; -1.4000000E+00;45;  0.0000000E+00;  0.0000000E+00;  0.0000000E+00;  1.0001203E+01;  4.0000001E-01;  1.2941745E-01;0;  0.0000000E+00;  0.0000000E+00;  0.0000000E+00;  0.0000000E+00;  0.0000000E+00;  0.0000000E+00;0;  3.1459463E-06;  1.0000000E+02;  0.0000000E+00;  0.0000000E+00;  1.0000000E+02;  0.0000000E+00;  1.0000000E+02;  9.7610518E-07;  0.0000000E+00;  2.1698411E-06;  0.0000000E+00;
 -6.0000002E-01;  9.9999998E-03; -1.2000000E+00;46;  0.0000000E+00;  0.0000000E+00;  0.0000000E+00;  1.0001933E+01;  4.0000001E-01;  2.0804273E-01;0;  0.0000000E+00;  0.0000000E+00;  0.0000000E+00;  0.0000000E+00;  0.0000000E+00;  0.0000000E+00;0;  7.5022026E-06;  1.0000000E+02;  0.0000000E+00;  0.0000000E+00;  1.0000000E+02;  0.0000000E+00;  1.0000000E+02;  5.2854025E-06;  0.0000000E+00;  2.2168001E-06;  0.0000000E+00;
 -6.0000002E-01;  9.9999998E-03; -1.0000000E+00;47;  0.0000000E+00;  0.0000000E+00;  0.0000000E+00;  1.0002759E+01;  4.0000001E-01;  2.9680076E-01;0;  0.0000000E+00;  0.0000000E+00;  0.0000000E+00;  0.0000000E+00;  0.0000000E+00;  0.0000000E+00;0;  1.5147563E-05;  1.0000000E+02;  0.0000000E+00;  0.0000000E+00;  1.0000000E+02;  0.0000000E+00;  1.0000000E+02;  1.3411553E-05;  0.0000000E+00;  1.7360096E-06;  0.0000000E+00;
 -6.0000002E-01;  9.9999998E-03; -8.0000001E-01;48;  0.0000000E+00;  0.0000000E+00;  0.0000000E+00;  1.0003551E+01;  4.0000001E-01;  3.8196746E-01;0;  0.0000000E+00;  0.0000000E+00;  0.0000000E+00;  0.0000000E+00;  0.0000000E+00;  0.0000000E+00;0;  2.6667974E-05;  1.0000000E+02;  0.0000000E+00;  0.0000000E+00;  1.0000000E+02;  0.0000000E+00;  1.0000000E+02;  2.5923357E-05;  0.0000000E+00;  7.4461792E-07;  0.0000000E+00;
 -6.0000002E-01;  9.9999998E-03; -6.0000002E-01;49;  0.0000000E+00;  0.0000000E+00;  0.0000000E+00;  1.0004177E+01;  4.0000001E-01;  4.4943383E-01;0;  0.0000000E+00;  0.0000000E+00;  0.0000000E+00;  0.0000000E+00;  0.0000000E+00;  0.0000000E+00;0;  4.1360316E-05;  1.0000000E+02;  0.0000000E+00;  0.0000000E+00;  1.0000000E+02;  0.0000000E+00;  1.0000000E+02;  4.1989784E-05;  0.0000000E+00; -6.2946759E-07;  0.0000000E+00;
 -6.0000002E-01;  9.9999998E-03; -4.0000001E-01;50;  0.0000000E+00;  0.0000000E+00;  0.0000000E+00;  1.0004596E+01;  4.0000001E-01;  4.9445418E-01;0;  0.0000000E+00;  0.0000000E+00;  0.0000000E+00;  0.0000000E+00;  0.0000000E+00;  0.0000000E+00;0;  5.6708875E-05;  1.0000000E+02;  0.0000000E+00;  0.0000000E+00;  1.0000000E+02;  0.0000000E+00;  1.0000000E+02;  5.8744874E-05;  0.0000000E+00; -2.0359971E-06;  0.0000000E+00;
 -6.0000002E-01;  9.9999998E-03; -2.0000000E-01;51;  0.0000000E+00;  0.0000000E+00;  0.0000000E+00;  1.0004816E+01;  4.0000001E-01;  5.1818287E-01;0;  0.0000000E+00;  0.0000000E+00;  0.0000000E+00;  0.0000000E+00;  0.0000000E+00;  0.0000000E+00;0;  6.8649162E-05;  1.0000000E+02;  0.0000000E+00;  0.0000000E+00;  1.0000000E+02;  0.0000000E+00;  1.0000000E+02;  7.1689101E-05;  0.0000000E+00; -3.0399390E-06;  0.0000000E+00;
 -4.0000001E-01;  9.9999998E-03; -1.8000000E+00;64;  0.0000000E+00;  0.0000000E+00;  0.0000000E+00;  1.0000381E+01;  4.0000001E-01;  4.0915895E-02;0;  0.0000000E+00;  0.0000000E+00;  0.0000000E+00;  0.0000000E+00;  0.0000000E+00;  0.0000000E+00;0;  3.0880401E-06;  1.0000000E+02;  0.0000000E+00;  0.0000000E+00;  1.0000000E+02;  0.0000000E+00;  1.0000000E+02;  1.3734609E-07;  0.0000000E+00;  2.9506939E-06;  0.0000000E+00;
 -4.0000001E-01;  9.9999998E-03; -1.6000000E+00;65;  0.0000000E+00;  0.0000000E+00;  0.0000000E+00;  1.0000803E+01;  4.0000001E-01;  8.6449258E-02;0;  0.0000000E+00;  0.0000000E+00;  0.0000000E+00;  0.0000000E+00;  0.0000000E+00;  0.0000000E+00;0;  7.4854274E-06;  1.0000000E+02;  0.0000000E+00;  0.0000000E+00;  1.0000000E+02;  0.0000000E+00;  1.0000000E+02;  2.8708259E-06;  0.0000000E+00;  4.6146015E-06;  0.0000000E+00;
 -4.0000001E-01;  9.9999998E-03; -1.4000000E+00;66;  0.0000000E+00;  0.0000000E+00;  0.0000000E+00;  1.0001434E+01;  4.0000001E-01;  1.5430039E-01;0;  0.0000000E+00;  0.0000000E+00;  0.0000000E+00;  0.0000000E+00;  0.0000000E+00;  0.0000000E+00;0;  1.3540484E-05;  1.0000000E+02;  0.0000000E+00;  0.0000000E+00;  1.0000000E+02;  0.0000000E+00;  1.0000000E+02;  8.2555262E-06;  0.0000000E+00;  5.2849578E-06;  0.0000000E+00;
 -4.0000001E-01;  9.9999998E-03; -1.2000000E+00;67;  0.0000000E+00;  0.0000000E+00;  0.0000000E+00;  1.0002306E+01;  4.0000001E-01;  2.4806063E-01;0;  0.0000000E+00;  0.0000000E+00;  0.0000000E+00;  0.0000000E+00;  0.0000000E+00;  0.0000000E+00;0;  2.1056243E-05;  1.0000000E+02;  0.0000000E+00;  0.0000000E+00;  1.0000000E+02;  0.0000000E+00;  1.0000000E+02;  1.6228836E-05;  0.0000000E+00;  4.8274064E-06;  0.0000000E+00;
 -4.0000001E-01;  9.9999998E-03; -1.0000000E+00;68;  0.0000000E+00;  0.0000000E+00;  0.0000000E+00;  1.0003250E+01;  4.0000001E-01;  3.4964493E-01;0;  0.0000000E+00;  0.0000000E+00;  0.0000000E+00;  0.0000000E+00;  0.0000000E+00;  0.0000000E+00;0;  3.0017494E-05;  1.0000000E+02;  0.0000000E+00;  0.0000000E+00;  1.0000000E+02;  0.0000000E+00;  1.0000000E+02;  2.6645475E-05;  0.0000000E+00;  3.3720191E-06;  0.0000000E+00;
 -4.0000001E-01;  9.9999998E-03; -8.0000001E-01;69;  0.0000000E+00;  0.0000000E+00;  0.0000000E+00;  1.0004247E+01;  4.0000001E-01;  4.5687279E-01;0;  0.0000000E+00;  0.0000000E+00;  0.0000000E+00;  0.0000000E+00;  0.0000000E+00;  0.0000000E+00;0;  4.0748331E-05;  1.0000000E+02;  0.0000000E+00;  0.0000000E+00;  1.0000000E+02;  0.0000000E+00;  1.0000000E+02;  3.9689920E-05;  0.0000000E+00;  1.0584134E-06;  0.0000000E+00;
 -4.0000001E-01;  9.9999998E-03; -6.0000002E-01;70;  0.0000000E+00;  0.0000000E+00;  0.0000000E+00;  1.0005101E+01;  4.0000001E-01;  5.4883736E-01;0;  0.0000000E+00;  0.0000000E+00;  0.0000000E+00;  0.0000000E+00;  0.0000000E+00;  0.0000000E+00;0;  5.3682230E-05;  1.0000000E+02;  0.0000000E+00;  0.0000000E+00;  1.0000000E+02;  0.0000000E+00;  1.0000000E+02;  5.5536846E-05;  0.0000000E+00; -1.8546172E-06;  0.0000000E+00;
 -4.0000001E-01;  9.9999998E-03; -4.0000001E-01;71;  0.0000000E+00;  0.0000000E+00;  0.0000000E+00;  1.0005701E+01;  4.0000001E-01;  6.1335367E-01;0;  0.0000000E+00;  0.0000000E+00;  0.0000000E+00;  0.0000000E+00;  0.0000000E+00;  0.0000000E+00;0;  6.7787922E-05;  1.0000000E+02;  0.0000000E+00;  0.0000000E+00;  1.0000000E+02;  0.0000000E+00;  1.0000000E+02;  7.2561481E-05;  0.0000000E+00; -4.7735621E-06;  0.0000000E+00;
 -4.0000001E-01;  9.9999998E-03; -2.0000000E-01;72;  0.0000000E+00;  0.0000000E+00;  0.0000000E+00;  1.0006061E+01;  4.0000001E-01;  6.5208906E-01;0;  0.0000000E+00;  0.0000000E+00;  0.0000000E+00;  0.0000000E+00;  0.0000000E+00;  0.0000000E+00;0;  7.9509642E-05;  1.0000000E+02;  0.0000000E+00;  0.0000000E+00;  1.0000000E+02;  0.0000000E+00;  1.0000000E+02;  8.6434498E-05;  0.0000000E+00; -6.9248572E-06;  0.0000000E+00;
 -2.0000000E-01;  9.9999998E-03; -1.8000000E+00;85;  0.0000000E+00;  0.0000000E+00;  0.0000000E+00;  1.0000424E+01;  4.0000001E-01;  4.5661569E-02;0;  0.0000000E+00;  0.0000000E+00;  0.0000000E+00;  0.0000000E+00;  0.0000000E+00;  0.0000000E+00;0;  1.3684332E-05;  1.0000000E+02;  0.0000000E+00;  0.0000000E+00;  1.0000000E+02;  0.0000000E+00;  1.0000000E+02;  7.2498574E-06;  0.0000000E+00;  6.4344745E-06;  0.0000000E+00;
 -2.0000000E-01;  9.9999998E-03; -1.6000000E+00;86;  0.0000000E+00;  0.0000000E+00;  0.0000000E+00;  1.0000635E+01;  4.0000001E-01;  6.8364091E-02;0;  0.0000000E+00;  0.0000000E+00;  0.0000000E+00;  0.0000000E+00;  0.0000000E+00;  0.0000000E+00;0;  2.7355312E-05;  1.0000000E+02;  0.0000000E+00;  0.0000000E+00;  1.0000000E+02;  0.0000000E+00;  1.0000000E+02;  1.8343442E-05;  0.0000000E+00;  9.0118692E-06;  0.0000000E+00;
 -2.0000000E-01;  9.9999998E-03; -1.4000000E+00;87;  0.0000000E+00;  0.0000000E+00;  0.0000000E+00;  1.0001080E+01;  4.0000001E-01;  1.1620613E-01;0;  0.0000000E+00;  0.0000000E+00;  0.0000000E+00;  0.0000000E+00;  0.0000000E+00;  0.0000000E+00;0;  4.3709282E-05;  1.0000000E+02;  0.0000000E+00;  0.0000000E+00;  1.0000000E+02;  0.0000000E+00;  1.0000000E+02;  3.4015029E-05;  0.0000000E+00;  9.6942513E-06;  0.0000000E+00;
 -2.0000000E-01;  9.9999998E-03; -1.2000000E+00;88;  0.0000000E+00;  0.0000000E+00;  0.0000000E+00;  1.0001839E+01;  4.0000001E-01;  1.9778129E-01;0;  0.0000000E+00;  0.0000000E+00;  0.0000000E+00;  0.0000000E+00;  0.0000000E+00;  0.0000000E+00;0;  5.9752005E-05;  1.0000000E+02;  0.0000000E+00;  0.0000000E+00;  1.0000000E+02;  0.0000000E+00;  1.0000000E+02;  5.1287476E-05;  0.0000000E+00;  8.4645280E-06;  0.0000000E+00;
 -2.0000000E-01;  9.9999998E-03; -1.0000000E+00;89;  0.0000000E+00;  0.0000000E+00;  0.0000000E+00;  1.0002756E+01;  4.0000001E-01;  2.9654369E-01;0;  0.0000000E+00;  0.0000000E+00;  0.0000000E+00;  0.0000000E+00;  0.0000000E+00;  0.0000000E+00;0;  7.3050018E-05;  1.0000000E+02;  0.0000000E+00;  0.0000000E+00;  1.0000000E+02;  0.0000000E+00;  1.0000000E+02;  6.7457346E-05;  0.0000000E+00;  5.5926757E-06;  0.0000000E+00;
 -2.0000000E-01;  9.9999998E-03; -8.0000001E-01;90;  0.0000000E+00;  0.0000000E+00;  0.0000000E+00;  1.0003751E+01;  4.0000001E-01;  4.0351489E-01;0;  0.0000000E+00;  0.0000000E+00;  0.0000000E+00;  0.0000000E+00;  0.0000000E+00;  0.0000000E+00;0;  8.3866697E-05;  1.0000000E+02;  0.0000000E+00;  0.0000000E+00;  1.0000000E+02;  0.0000000E+00;  1.0000000E+02;  8.2458646E-05;  0.0000000E+00;  1.4080541E-06;  0.0000000E+00;
 -2.0000000E-01;  9.9999998E-03; -6.0000002E-01;91;  0.0000000E+00;  0.0000000E+00;  0.0000000E+00;  1.0004711E+01;  4.0000001E-01;  5.0689471E-01;0;  0.0000000E+00;  0.0000000E+00;  0.0000000E+00;  0.0000000E+00;  0.0000000E+00;  0.0000000E+00;0;  9.4003102E-05;  1.0000000E+02;  0.0000000E+00;  0.0000000E+00;  1.0000000E+02;  0.0000000E+00;  1.0000000E+02;  9.7650256E-05;  0.0000000E+00; -3.6471513E-06;  0.0000000E+00;
 -2.0000000E-01;  9.9999998E-03; -4.0000001E-01;92;  0.0000000E+00;  0.0000000E+00;  0.0000000E+00;  1.0005486E+01;  4.0000001E-01;  5.9026557E-01;0;  0.0000000E+00;  0.0000000E+00;  0.0000000E+00;  0.0000000E+00;  0.0000000E+00;  0.0000000E+00;0;  1.0425367E-04;  1.0000000E+02;  0.0000000E+00;  0.0000000E+00;  1.0000000E+02;  0.0000000E+00;  1.0000000E+02;  1.1301259E-04;  0.0000000E+00; -8.7589242E-06;  0.0000000E+00;
 -2.0000000E-01;  9.9999998E-03; -2.0000000E-01;93;  0.0000000E+00;  0.0000000E+00;  0.0000000E+00;  1.0005982E+01;  4.0000001E-01;  6.4362293E-01;0;  0.0000000E+00;  0.0000000E+00;  0.0000000E+00;  0.0000000E+00;  0.0000000E+00;  0.0000000E+00;0;  1.1256512E-04;  1.0000000E+02;  0.0000000E+00;  0.0000000E+00;  1.0000000E+02;  0.0000000E+00;  1.0000000E+02;  1.2526497E-04;  0.0000000E+00; -1.2699853E-05;  0.0000000E+00;
  0.0000000E+00;  9.9999998E-03; -1.8000000E+00;106;  0.0000000E+00;  0.0000000E+00;  0.0000000E+00;  1.0000000E+01;  4.0000001E-01;  0.0000000E+00;0;  0.0000000E+00;  0.0000000E+00;  0.0000000E+00;  0.0000000E+00;  0.0000000E+00;  0.0000000E+00;0;  3.9516835E-05;  1.0000000E+02;  0.0000000E+00;  0.0000000E+00;  1.0000000E+02;  0.0000000E+00;  1.0000000E+02;  2.9321798E-05;  0.0000000E+00;  1.0195036E-05;  0.0000000E+00;
  0.0000000E+00;  9.9999998E-03; -1.6000000E+00;107;  0.0000000E+00;  0.0000000E+00;  0.0000000E+00;  1.0000000E+01;  4.0000001E-01;  0.0000000E+00;0;  0.0000000E+00;  0.0000000E+00;  0.0000000E+00;  0.0000000E+00;  0.0000000E+00;  0.0000000E+00;0;  7.3585623E-05;  1.0000000E+02;  0.0000000E+00;  0.0000000E+00;  1.0000000E+02;  0.0000000E+00;  1.0000000E+02;  5.9996317E-05;  0.0000000E+00;  1.3589307E-05;  0.0000000E+00;
  0.0000000E+00;  9.9999998E-03; -1.4000000E+00;108;  0.0000000E+00;  0.0000000E+00;  0.0000000E+00;  1.0000000E+01;  4.0000001E-01;  0.0000000E+00;0;  0.0000000E+00;  0.0000000E+00;  0.0000000E+00;  0.0000000E+00;  0.0000000E+00;  0.0000000E+00;0;  1.1352180E-04;  1.0000000E+02;  0.0000000E+00;  0.0000000E+00;  1.0000000E+02;  0.0000000E+00;  1.0000000E+02;  9.9038800E-05;  0.0000000E+00;  1.4483006E-05;  0.0000000E+00;
  0.0000000E+00;  9.9999998E-03; -1.2000000E+00;109;  0.0000000E+00;  0.0000000E+00;  0.0000000E+00;  1.0000089E+01;  4.0000001E-01;  9.4914231E-03;0;  0.0000000E+00;  0.0000000E+00;  0.0000000E+00;  0.0000000E+00;  0.0000000E+00;  0.0000000E+00;0;  1.5247824E-04;  1.0000000E+02;  0.0000000E+00;  0.0000000E+00;  1.0000000E+02;  0.0000000E+00;  1.0000000E+02;  1.3981525E-04;  0.0000000E+00;  1.2662995E-05;  0.0000000E+00;
  2.0000000E-01;  9.9999998E-03; -1.8000000E+00;116;  0.0000000E+00;  0.0000000E+00;  0.0000000E+00;  1.0000000E+01;  4.0000001E-01;  0.0000000E+00;0;  0.0000000E+00;  0.0000000E+00;  0.0000000E+00;  0.0000000E+00;  0.0000000E+00;  0.0000000E+00;0;  9.3317823E-05;  1.0000000E+02;  0.0000000E+00;  0.0000000E+00;  1.0000000E+02;  0.0000000E+00;  1.0000000E+02;  8.1179613E-05;  0.0000000E+00;  1.2138211E-05;  0.0000000E+00;
  2.0000000E-01;  9.9999998E-03; -1.6000000E+00;117;  0.0000000E+00;  0.0000000E+00;  0.0000000E+00;  1.0000000E+01;  4.0000001E-01;  0.0000000E+00;0;  0.0000000E+00;  0.0000000E+00;  0.0000000E+00;  0.0000000E+00;  0.0000000E+00;  0.0000000E+00;0;  1.6804892E-04;  1.0000000E+02;  0.0000000E+00;  0.0000000E+00;  1.0000000E+02;  0.0000000E+00;  1.0000000E+02;  1.5202955E-04;  0.0000000E+00;  1.6019370E-05;  0.0000000E+00;
  2.0000000E-01;  9.9999998E-03; -1.4000000E+00;118;  0.0000000E+00;  0.0000000E+00;  0.0000000E+00;  1.0000000E+01;  4.0000001E-01;  0.0000000E+00;0;  0.0000000E+00;  0.0000000E+00;  0.0000000E+00;  0.0000000E+00;  0.0000000E+00;  0.0000000E+00;0;  2.5901353E-04;  1.0000000E+02;  0.0000000E+00;  0.0000000E+00;  1.0000000E+02;  0.0000000E+00;  1.0000000E+02;  2.4147787E-04;  0.0000000E+00;  1.7535653E-05;  0.0000000E+00;
  2.0000000E-01;  9.9999998E-03; -1.2000000E+00;119;  0.0000000E+00;  0.0000000E+00;  0.0000000E+00;  1.0000000E+01;  4.0000001E-01;  0.0000000E+00;0;  0.0000000E+00;  0.0000000E+00;  0.0000000E+00;  0.0000000E+00;  0.0000000E+00;  0.0000000E+00;0;  3.5318930E-04;  1.0000000E+02;  0.0000000E+00;  0.0000000E+00;  1.0000000E+02;  0.0000000E+00;  1.0000000E+02;  3.3723126E-04;  0.0000000E+00;  1.5958034E-05;  0.0000000E+00;
  4.0000001E-01;  9.9999998E-03; -1.8000000E+00;126;  0.0000000E+00;  0.0000000E+00;  0.0000000E+00;  1.0000000E+01;  4.0000001E-01;  0.0000000E+00;0;  0.0000000E+00;  0.0000000E+00;  0.0000000E+00;  0.0000000E+00;  0.0000000E+00;  0.0000000E+00;0;  1.9526111E-04;  1.0000000E+02;  0.0000000E+00;  0.0000000E+00;  1.0000000E+02;  0.0000000E+00;  1.0000000E+02;  1.8534974E-04;  0.0000000E+00;  9.9113613E-06;  0.0000000E+00;
  4.0000001E-01;  9.9999998E-03; -1.6000000E+00;127;  0.0000000E+00;  0.0000000E+00;  0.0000000E+00;  1.0000000E+01;  4.0000001E-01;  0.0000000E+00;0;  0.0000000E+00;  0.0000000E+00;  0.0000000E+00;  0.0000000E+00;  0.0000000E+00;  0.0000000E+00;0;  3.4659653E-04;  1.0000000E+02;  0.0000000E+00;  0.0000000E+00;  1.0000000E+02;  0.0000000E+00;  1.0000000E+02;  3.3334937E-04;  0.0000000E+00;  1.3247160E-05;  0.0000000E+00;
  4.0000001E-01;  9.9999998E-03; -1.4000000E+00;128;  0.0000000E+00;  0.0000000E+00;  0.0000000E+00;  1.0000000E+01;  4.0000001E-01;  0.0000000E+00;0;  0.0000000E+00;  0.0000000E+00;  0.0000000E+00;  0.0000000E+00;  0.0000000E+00;  0.0000000E+00;0;  5.3779216E-04;  1.0000000E+02;  0.0000000E+00;  0.0000000E+00;  1.0000000E+02;  0.0000000E+00;  1.0000000E+02;  5.2241987E-04;  0.0000000E+00;  1.5372310E-05;  0.0000000E+00;
  4.0000001E-01;  9.9999998E-03; -1.2000000E+00;129;  0.0000000E+00;  0.0000000E+00;  0.0000000E+00;  1.0000000E+01;  4.0000001E-01;  0.0000000E+00;0;  0.0000000E+00;  0.0000000E+00;  0.0000000E+00;  0.0000000E+00;  0.0000000E+00;  0.0000000E+00;0;  7.4039132E-04;  1.0000000E+02;  0.0000000E+00;  0.0000000E+00;  1.0000000E+02;  0.0000000E+00;  1.0000000E+02;  7.2535878E-04;  0.0000000E+00;  1.5032543E-05;  0.0000000E+00;
  6.0000002E-01;  9.9999998E-03; -1.8000000E+00;136;  0.0000000E+00;  0.0000000E+00;  0.0000000E+00;  1.0000000E+01;  4.0000001E-01;  0.0000000E+00;0;  0.0000000E+00;  0.0000000E+00;  0.0000000E+00;  0.0000000E+00;  0.0000000E+00;  0.0000000E+00;0;  3.6694889E-04;  1.0000000E+02;  0.0000000E+00;  0.0000000E+00;  1.0000000E+02;  0.0000000E+00;  1.0000000E+02;  3.6514338E-04;  0.0000000E+00;  1.8055176E-06;  0.0000000E+00;
  6.0000002E-01;  9.9999998E-03; -1.6000000E+00;137;  0.0000000E+00;  0.0000000E+00;  0.0000000E+00;  1.0000000E+01;  4.0000001E-01;  0.0000000E+00;0;  0.0000000E+00;  0.0000000E+00;  0.0000000E+00;  0.0000000E+00;  0.0000000E+00;  0.0000000E+00;0;  6.4511818E-04;  1.0000000E+02;  0.0000000E+00;  0.0000000E+00;  1.0000000E+02;  0.0000000E+00;  1.0000000E+02;  6.4225221E-04;  0.0000000E+00;  2.8659776E-06;  0.0000000E+00;
  6.0000002E-01;  9.9999998E-03; -1.4000000E+00;138;  0.0000000E+00;  0.0000000E+00;  0.0000000E+00;  1.0000000E+01;  4.0000001E-01;  0.0000000E+00;0;  0.0000000E+00;  0.0000000E+00;  0.0000000E+00;  0.0000000E+00;  0.0000000E+00;  0.0000000E+00;0;  1.0041532E-03;  1.0000000E+02;  0.0000000E+00;  0.0000000E+00;  1.0000000E+02;  0.0000000E+00;  1.0000000E+02;  9.9949935E-04;  0.0000000E+00;  4.6537880E-06;  0.0000000E+00;
  6.0000002E-01;  9.9999998E-03; -1.2000000E+00;139;  0.0000000E+00;  0.0000000E+00;  0.0000000E+00;  1.0000000E+01;  4.0000001E-01;  0.0000000E+00;0;  0.0000000E+00;  0.0000000E+00;  0.0000000E+00;  0.0000000E+00;  0.0000000E+00;  0.0000000E+00;0;  1.3838290E-03;  1.0000000E+02;  0.0000000E+00;  0.0000000E+00;  1.0000000E+02;  0.0000000E+00;  1.0000000E+02;  1.3776134E-03;  0.0000000E+00;  6.2155909E-06;  0.0000000E+00;
  8.0000001E-01;  9.9999998E-03; -1.8000000E+00;146;  0.0000000E+00;  0.0000000E+00;  0.0000000E+00;  1.0000000E+01;  4.0000001E-01;  0.0000000E+00;0;  0.0000000E+00;  0.0000000E+00;  0.0000000E+00;  0.0000000E+00;  0.0000000E+00;  0.0000000E+00;0;  6.0322910E-04;  1.0000000E+02;  0.0000000E+00;  0.0000000E+00;  1.0000000E+02;  0.0000000E+00;  1.0000000E+02;  6.1588606E-04;  0.0000000E+00; -1.2656941E-05;  0.0000000E+00;
  8.0000001E-01;  9.9999998E-03; -1.6000000E+00;147;  0.0000000E+00;  0.0000000E+00;  0.0000000E+00;  1.0000000E+01;  4.0000001E-01;  0.0000000E+00;0;  0.0000000E+00;  0.0000000E+00;  0.0000000E+00;  0.0000000E+00;  0.0000000E+00;  0.0000000E+00;0;  1.0507560E-03;  1.0000000E+02;  0.0000000E+00;  0.0000000E+00;  1.0000000E+02;  0.0000000E+00;  1.0000000E+02;  1.0660150E-03;  0.0000000E+00; -1.5259036E-05;  0.0000000E+00;
  8.0000001E-01;  9.9999998E-03; -1.4000000E+00;148;  0.0000000E+00;  0.0000000E+00;  0.0000000E+00;  1.0000000E+01;  4.0000001E-01;  0.0000000E+00;0;  0.0000000E+00;  0.0000000E+00;  0.0000000E+00;  0.0000000E+00;  0.0000000E+00;  0.0000000E+00;0;  1.6429286E-03;  1.0000000E+02;  0.0000000E+00;  0.0000000E+00;  1.0000000E+02;  0.0000000E+00;  1.0000000E+02;  1.6581750E-03;  0.0000000E+00; -1.5246424E-05;  0.0000000E+00;
  8.0000001E-01;  9.9999998E-03; -1.2000000E+00;149;  0.0000000E+00;  0.0000000E+00;  0.0000000E+00;  1.0000000E+01;  4.0000001E-01;  0.0000000E+00;0;  0.0000000E+00;  0.0000000E+00;  0.0000000E+00;  0.0000000E+00;  0.0000000E+00;  0.0000000E+00;0;  2.2678187E-03;  1.0000000E+02;  0.0000000E+00;  0.0000000E+00;  1.0000000E+02;  0.0000000E+00;  1.0000000E+02;  2.2796360E-03;  0.0000000E+00; -1.1817245E-05;  0.0000000E+00;
  1.0000000E+00;  9.9999998E-03; -1.8000000E+00;156;  0.0000000E+00;  0.0000000E+00;  0.0000000E+00;  1.0000000E+01;  4.0000001E-01;  0.0000000E+00;0;  0.0000000E+00;  0.0000000E+00;  0.0000000E+00;  0.0000000E+00;  0.0000000E+00;  0.0000000E+00;0;  8.4327464E-04;  1.0000000E+02;  0.0000000E+00;  0.0000000E+00;  1.0000000E+02;  0.0000000E+00;  1.0000000E+02;  8.7618560E-04;  0.0000000E+00; -3.2910972E-05;  0.0000000E+00;
  1.0000000E+00;  9.9999998E-03; -1.6000000E+00;157;  0.0000000E+00;  0.0000000E+00;  0.0000000E+00;  1.0000000E+01;  4.0000001E-01;  0.0000000E+00;0;  0.0000000E+00;  0.0000000E+00;  0.0000000E+00;  0.0000000E+00;  0.0000000E+00;  0.0000000E+00;0;  1.4692751E-03;  1.0000000E+02;  0.0000000E+00;  0.0000000E+00;  1.0000000E+02;  0.0000000E+00;  1.0000000E+02;  1.5081604E-03;  0.0000000E+00; -3.8885260E-05;  0.0000000E+00;
  1.0000000E+00;  9.9999998E-03; -1.4000000E+00;158;  0.0000000E+00;  0.0000000E+00;  0.0000000E+00;  1.0000000E+01;  4.0000001E-01;  0.0000000E+00;0;  0.0000000E+00;  0.0000000E+00;  0.0000000E+00;  0.0000000E+00;  0.0000000E+00;  0.0000000E+00;0;  2.3228023E-03;  1.0000000E+02;  0.0000000E+00;  0.0000000E+00;  1.0000000E+02;  0.0000000E+00;  1.0000000E+02;  2.3635642E-03;  0.0000000E+00; -4.0761945E-05;  0.0000000E+00;
  1.0000000E+00;  9.9999998E-03; -1.2000000E+00;159;  0.0000000E+00;  0.0000000E+00;  0.0000000E+00;  1.0000000E+01;  4.0000001E-01;  0.0000000E+00;0;  0.0000000E+00;  0.0000000E+00;  0.0000000E+00;  0.0000000E+00;  0.0000000E+00;  0.0000000E+00;0;  3.2318716E-03;  1.0000000E+02;  0.0000000E+00;  0.0000000E+00;  1.0000000E+02;  0.0000000E+00;  1.0000000E+02;  3.2666768E-03;  0.0000000E+00; -3.4805085E-05;  0.0000000E+00;
 -1.0000000E+00;  9.9999998E-03;  0.0000000E+00;10;  0.0000000E+00;  0.0000000E+00;  0.0000000E+00;  1.0001377E+01;  4.0000001E-01;  1.4814392E-01;0;  0.0000000E+00;  0.0000000E+00;  0.0000000E+00;  0.0000000E+00;  0.0000000E+00;  0.0000000E+00;0;  2.9037223E-05;  1.0000000E+02;  0.0000000E+00;  0.0000000E+00;  1.0000000E+02;  0.0000000E+00;  1.0000000E+02;  2.9391767E-05;  0.0000000E+00; -3.5454482E-07;  0.0000000E+00;
 -1.0000000E+00;  9.9999998E-03;  2.0000000E-01;11;  0.0000000E+00;  0.0000000E+00;  0.0000000E+00;  1.0001366E+01;  4.0000001E-01;  1.4698954E-01;0;  0.0000000E+00;  0.0000000E+00;  0.0000000E+00;  0.0000000E+00;  0.0000000E+00;  0.0000000E+00;0;  2.7156619E-05;  1.0000000E+02;  0.0000000E+00;  0.0000000E+00;  1.0000000E+02;  0.0000000E+00;  1.0000000E+02;  2.7415988E-05;  0.0000000E+00; -2.5936896E-07;  0.0000000E+00;
 -1.0000000E+00;  9.9999998E-03;  4.0000001E-01;12;  0.0000000E+00;  0.0000000E+00;  0.0000000E+00;  1.0001338E+01;  4.0000001E-01;  1.4391123E-01;0;  0.0000000E+00;  0.0000000E+00;  0.0000000E+00;  0.0000000E+00;  0.0000000E+00;  0.0000000E+00;0;  2.2137439E-05;  1.0000000E+02;  0.0000000E+00;  0.0000000E+00;  1.0000000E+02;  0.0000000E+00;  1.0000000E+02;  2.2167271E-05;  0.0000000E+00; -2.9831426E-08;  0.0000000E+00;
 -1.0000000E+00;  9.9999998E-03;  6.0000002E-01;13;  0.0000000E+00;  0.0000000E+00;  0.0000000E+00;  1.0001233E+01;  4.0000001E-01;  1.3262407E-01;0;  0.0000000E+00;  0.0000000E+00;  0.0000000E+00;  0.0000000E+00;  0.0000000E+00;  0.0000000E+00;0;  1.5510104E-05;  1.0000000E+02;  0.0000000E+00;  0.0000000E+00;  1.0000000E+02;  0.0000000E+00;  1.0000000E+02;  1.5319318E-05;  0.0000000E+00;  1.9078652E-07;  0.0000000E+00;
 -1.0000000E+00;  9.9999998E-03;  8.0000001E-01;14;  0.0000000E+00;  0.0000000E+00;  0.0000000E+00;  1.0001022E+01;  4.0000001E-01;  1.1004976E-01;0;  0.0000000E+00;  0.0000000E+00;  0.0000000E+00;  0.0000000E+00;  0.0000000E+00;  0.0000000E+00;0;  9.0384801E-06;  1.0000000E+02;  0.0000000E+00;  0.0000000E+00;  1.0000000E+02;  0.0000000E+00;  1.0000000E+02;  8.7591397E-06;  0.0000000E+00;  2.7934030E-07;  0.0000000E+00;
 -1.0000000E+00;  9.9999998E-03;  1.0000000E+00;15;  0.0000000E+00;  0.0000000E+00;  0.0000000E+00;  1.0000754E+01;  4.0000001E-01;  8.1190556E-02;0;  0.0000000E+00;  0.0000000E+00;  0.0000000E+00;  0.0000000E+00;  0.0000000E+00;  0.0000000E+00;0;  4.0497425E-06;  1.0000000E+02;  0.0000000E+00;  0.0000000E+00;  1.0000000E+02;  0.0000000E+00;  1.0000000E+02;  3.8282697E-06;  0.0000000E+00;  2.2147270E-07;  0.0000000E+00;
 -1.0000000E+00;  9.9999998E-03;  1.2000000E+00;16;  0.0000000E+00;  0.0000000E+00;  0.0000000E+00;  1.0000500E+01;  4.0000001E-01;  5.3742249E-02;0;  0.0000000E+00;  0.0000000E+00;  0.0000000E+00;  0.0000000E+00;  0.0000000E+00;  0.0000000E+00;0;  1.0204417E-06;  1.0000000E+02;  0.0000000E+00;  0.0000000E+00;  1.0000000E+02;  0.0000000E+00;  1.0000000E+02;  9.4248031E-07;  0.0000000E+00;  7.7961431E-08;  0.0000000E+00;
 -1.0000000E+00;  9.9999998E-03;  1.4000000E+00;17;  0.0000000E+00;  0.0000000E+00;  0.0000000E+00;  1.0000267E+01;  4.0000001E-01;  2.8730940E-02;0;  0.0000000E+00;  0.0000000E+00;  0.0000000E+00;  0.0000000E+00;  0.0000000E+00;  0.0000000E+00;0; -3.4660832E-07;  1.0000000E+02;  0.0000000E+00;  0.0000000E+00;  1.0000000E+02;  0.0000000E+00;  1.0000000E+02; -2.6868867E-07;  0.0000000E+00; -7.7919651E-08;  0.0000000E+00;
 -8.0000001E-01;  9.9999998E-03;  0.0000000E+00;31;  0.0000000E+00;  0.0000000E+00;  0.0000000E+00;  1.0003050E+01;  4.0000001E-01;  3.2809705E-01;0;  0.0000000E+00;  0.0000000E+00;  0.0000000E+00;  0.0000000E+00;  0.0000000E+00;  0.0000000E+00;0;  5.4122393E-05;  1.0000000E+02;  0.0000000E+00;  0.0000000E+00;  1.0000000E+02;  0.0000000E+00;  1.0000000E+02;  5.5326425E-05;  0.0000000E+00; -1.2040318E-06;  0.0000000E+00;
 -8.0000001E-01;  9.9999998E-03;  2.0000000E-01;32;  0.0000000E+00;  0.0000000E+00;  0.0000000E+00;  1.0003015E+01;  4.0000001E-01;  3.2437742E-01;0;  0.0000000E+00;  0.0000000E+00;  0.0000000E+00;  0.0000000E+00;  0.0000000E+00;  0.0000000E+00;0;  5.0718951E-05;  1.0000000E+02;  0.0000000E+00;  0.0000000E+00;  1.0000000E+02;  0.0000000E+00;  1.0000000E+02;  5.1758248E-05;  0.0000000E+00; -1.0392965E-06;  0.0000000E+00;
 -8.0000001E-01;  9.9999998E-03;  4.0000001E-01;33;  0.0000000E+00;  0.0000000E+00;  0.0000000E+00;  1.0002890E+01;  4.0000001E-01;  3.1090978E-01;0;  0.0000000E+00;  0.0000000E+00;  0.0000000E+00;  0.0000000E+00;  0.0000000E+00;  0.0000000E+00;0;  4.1638177E-05;  1.0000000E+02;  0.0000000E+00;  0.0000000E+00;  1.0000000E+02;  0.0000000E+00;  1.0000000E+02;  4.2224347E-05;  0.0000000E+00; -5.8616848E-07;  0.0000000E+00;
 -8.0000001E-01;  9.9999998E-03;  6.0000002E-01;34;  0.0000000E+00;  0.0000000E+00;  0.0000000E+00;  1.0002663E+01;  4.0000001E-01;  2.8653979E-01;0;  0.0000000E+00;  0.0000000E+00;  0.0000000E+00;  0.0000000E+00;  0.0000000E+00;  0.0000000E+00;0;  2.9678142E-05;  1.0000000E+02;  0.0000000E+00;  0.0000000E+00;  1.0000000E+02;  0.0000000E+00;  1.0000000E+02;  2.9677345E-05;  0.0000000E+00;  7.9645668E-10;  0.0000000E+00;
 -8.0000001E-01;  9.9999998E-03;  8.0000001E-01;35;  0.0000000E+00;  0.0000000E+00;  0.0000000E+00;  1.0002297E+01;  4.0000001E-01;  2.4716301E-01;0;  0.0000000E+00;  0.0000000E+00;  0.0000000E+00;  0.0000000E+00;  0.0000000E+00;  0.0000000E+00;0;  1.8013196E-05;  1.0000000E+02;  0.0000000E+00;  0.0000000E+00;  1.0000000E+02;  0.0000000E+00;  1.0000000E+02;  1.7526954E-05;  0.0000000E+00;  4.8624059E-07;  0.0000000E+00;
 -8.0000001E-01;  9.9999998E-03;  1.0000000E+00;36;  0.0000000E+00;  0.0000000E+00;  0.0000000E+00;  1.0001770E+01;  4.0000001E-01;  1.9047073E-01;0;  0.0000000E+00;  0.0000000E+00;  0.0000000E+00;  0.0000000E+00;  0.0000000E+00;  0.0000000E+00;0;  8.9315099E-06;  1.0000000E+02;  0.0000000E+00;  0.0000000E+00;  1.0000000E+02;  0.0000000E+00;  1.0000000E+02;  8.2041479E-06;  0.0000000E+00;  7.2736219E-07;  0.0000000E+00;
 -8.0000001E-01;  9.9999998E-03;  1.2000000E+00;37;  0.0000000E+00;  0.0000000E+00;  0.0000000E+00;  1.0001216E+01;  4.0000001E-01;  1.3082838E-01;0;  0.0000000E+00;  0.0000000E+00;  0.0000000E+00;  0.0000000E+00;  0.0000000E+00;  0.0000000E+00;0;  3.2176256E-06;  1.0000000E+02;  0.0000000E+00;  0.0000000E+00;  1.0000000E+02;  0.0000000E+00;  1.0000000E+02;  2.4990297E-06;  0.0000000E+00;  7.1859591E-07;  0.0000000E+00;
 -8.0000001E-01;  9.9999998E-03;  1.4000000E+00;38;  0.0000000E+00;  0.0000000E+00;  0.0000000E+00;  1.0000714E+01;  4.0000001E-01;  7.6829605E-02;0;  0.0000000E+00;  0.0000000E+00;  0.0000000E+00;  0.0000000E+00;  0.0000000E+00;  0.0000000E+00;0;  3.6742199E-07;  1.0000000E+02;  0.0000000E+00;  0.0000000E+00;  1.0000000E+02;  0.0000000E+00;  1.0000000E+02; -1.5075615E-07;  0.0000000E+00;  5.1817813E-07;  0.0000000E+00;
 -6.0000002E-01;  9.9999998E-03;  0.0000000E+00;52;  0.0000000E+00;  0.0000000E+00;  0.0000000E+00;  1.0004881E+01;  4.0000001E-01;  5.2510905E-01;0;  0.0000000E+00;  0.0000000E+00;  0.0000000E+00;  0.0000000E+00;  0.0000000E+00;  0.0000000E+00;0;  7.3222247E-05;  1.0000000E+02;  0.0000000E+00;  0.0000000E+00;  1.0000000E+02;  0.0000000E+00;  1.0000000E+02;  7.6616729E-05;  0.0000000E+00; -3.3944850E-06;  0.0000000E+00;
 -6.0000002E-01;  9.9999998E-03;  2.0000000E-01;53;  0.0000000E+00;  0.0000000E+00;  0.0000000E+00;  1.0004816E+01;  4.0000001E-01;  5.1818287E-01;0;  0.0000000E+00;  0.0000000E+00;  0.0000000E+00;  0.0000000E+00;  0.0000000E+00;  0.0000000E+00;0;  6.8649664E-05;  1.0000000E+02;  0.0000000E+00;  0.0000000E+00;  1.0000000E+02;  0.0000000E+00;  1.0000000E+02;  7.1689617E-05;  0.0000000E+00; -3.0399519E-06;  0.0000000E+00;
 -6.0000002E-01;  9.9999998E-03;  4.0000001E-01;54;  0.0000000E+00;  0.0000000E+00;  0.0000000E+00;  1.0004596E+01;  4.0000001E-01;  4.9445418E-01;0;  0.0000000E+00;  0.0000000E+00;  0.0000000E+00;  0.0000000E+00;  0.0000000E+00;  0.0000000E+00;0;  5.6709730E-05;  1.0000000E+02;  0.0000000E+00;  0.0000000E+00;  1.0000000E+02;  0.0000000E+00;  1.0000000E+02;  5.8745751E-05;  0.0000000E+00; -2.0360203E-06;  0.0000000E+00;
 -6.0000002E-01;  9.9999998E-03;  6.0000002E-01;55;  0.0000000E+00;  0.0000000E+00;  0.0000000E+00;  1.0004177E+01;  4.0000001E-01;  4.4943383E-01;0;  0.0000000E+00;  0.0000000E+00;  0.0000000E+00;  0.0000000E+00;  0.0000000E+00;  0.0000000E+00;0;  4.1361385E-05;  1.0000000E+02;  0.0000000E+00;  0.0000000E+00;  1.0000000E+02;  0.0000000E+00;  1.0000000E+02;  4.1990879E-05;  0.0000000E+00; -6.2949488E-07;  0.0000000E+00;
 -6.0000002E-01;  9.9999998E-03;  8.0000001E-01;56;  0.0000000E+00;  0.0000000E+00;  0.0000000E+00;  1.0003551E+01;  4.0000001E-01;  3.8196746E-01;0;  0.0000000E+00;  0.0000000E+00;  0.0000000E+00;  0.0000000E+00;  0.0000000E+00;  0.0000000E+00;0;  2.6669011E-05;  1.0000000E+02;  0.0000000E+00;  0.0000000E+00;  1.0000000E+02;  0.0000000E+00;  1.0000000E+02;  2.5924423E-05;  0.0000000E+00;  7.4458967E-07;  0.0000000E+00;
 -6.0000002E-01;  9.9999998E-03;  1.0000000E+00;57;  0.0000000E+00;  0.0000000E+00;  0.0000000E+00;  1.0002759E+01;  4.0000001E-01;  2.9680076E-01;0;  0.0000000E+00;  0.0000000E+00;  0.0000000E+00;  0.0000000E+00;  0.0000000E+00;  0.0000000E+00;0;  1.5148419E-05;  1.0000000E+02;  0.0000000E+00;  0.0000000E+00;  1.0000000E+02;  0.0000000E+00;  1.0000000E+02;  1.3412438E-05;  0.0000000E+00;  1.7359815E-06;  0.0000000E+00;
 -6.0000002E-01;  9.9999998E-03;  1.2000000E+00;58;  0.0000000E+00;  0.0000000E+00;  0.0000000E+00;  1.0001933E+01;  4.0000001E-01;  2.0804273E-01;0;  0.0000000E+00;  0.0000000E+00;  0.0000000E+00;  0.0000000E+00;  0.0000000E+00;  0.0000000E+00;0;  7.5027897E-06;  1.0000000E+02;  0.0000000E+00;  0.0000000E+00;  1.0000000E+02;  0.0000000E+00;  1.0000000E+02;  5.2860182E-06;  0.0000000E+00;  2.2167715E-06;  0.0000000E+00;
 -6.0000002E-01;  9.9999998E-03;  1.4000000E+00;59;  0.0000000E+00;  0.0000000E+00;  0.0000000E+00;  1.0001203E+01;  4.0000001E-01;  1.2941745E-01;0;  0.0000000E+00;  0.0000000E+00;  0.0000000E+00;  0.0000000E+00;  0.0000000E+00;  0.0000000E+00;0;  3.1462819E-06;  1.0000000E+02;  0.0000000E+00;  0.0000000E+00;  1.0000000E+02;  0.0000000E+00;  1.0000000E+02;  9.7646875E-07;  0.0000000E+00;  2.1698131E-06;  0.0000000E+00;
 -4.0000001E-01;  9.9999998E-03;  0.0000000E+00;73;  0.0000000E+00;  0.0000000E+00;  0.0000000E+00;  1.0006173E+01;  4.0000001E-01;  6.6414577E-01;0;  0.0000000E+00;  0.0000000E+00;  0.0000000E+00;  0.0000000E+00;  0.0000000E+00;  0.0000000E+00;0;  8.4208477E-05;  1.0000000E+02;  0.0000000E+00;  0.0000000E+00;  1.0000000E+02;  0.0000000E+00;  1.0000000E+02;  9.1929694E-05;  0.0000000E+00; -7.7212198E-06;  0.0000000E+00;
 -4.0000001E-01;  9.9999998E-03;  2.0000000E-01;74;  0.0000000E+00;  0.0000000E+00;  0.0000000E+00;  1.0006061E+01;  4.0000001E-01;  6.5208906E-01;0;  0.0000000E+00;  0.0000000E+00;  0.0000000E+00;  0.0000000E+00;  0.0000000E+00;  0.0000000E+00;0;  7.9510384E-05;  1.0000000E+02;  0.0000000E+00;  0.0000000E+00;  1.0000000E+02;  0.0000000E+00;  1.0000000E+02;  8.6435248E-05;  0.0000000E+00; -6.9248672E-06;  0.0000000E+00;
 -4.0000001E-01;  9.9999998E-03;  4.0000001E-01;75;  0.0000000E+00;  0.0000000E+00;  0.0000000E+00;  1.0005701E+01;  4.0000001E-01;  6.1335367E-01;0;  0.0000000E+00;  0.0000000E+00;  0.0000000E+00;  0.0000000E+00;  0.0000000E+00;  0.0000000E+00;0;  6.7789348E-05;  1.0000000E+02;  0.0000000E+00;  0.0000000E+00;  1.0000000E+02;  0.0000000E+00;  1.0000000E+02;  7.2562922E-05;  0.0000000E+00; -4.7735766E-06;  0.0000000E+00;
 -4.0000001E-01;  9.9999998E-03;  6.0000002E-01;76;  0.0000000E+00;  0.0000000E+00;  0.0000000E+00;  1.0005101E+01;  4.0000001E-01;  5.4883736E-01;0;  0.0000000E+00;  0.0000000E+00;  0.0000000E+00;  0.0000000E+00;  0.0000000E+00;  0.0000000E+00;0;  5.3684082E-05;  1.0000000E+02;  0.0000000E+00;  0.0000000E+00;  1.0000000E+02;  0.0000000E+00;  1.0000000E+02;  5.5538709E-05;  0.0000000E+00; -1.8546266E-06;  0.0000000E+00;
 -4.0000001E-01;  9.9999998E-03;  8.0000001E-01;77;  0.0000000E+00;  0.0000000E+00;  0.0000000E+00;  1.0004247E+01;  4.0000001E-01;  4.5687279E-01;0;  0.0000000E+00;  0.0000000E+00;  0.0000000E+00;  0.0000000E+00;  0.0000000E+00;  0.0000000E+00;0;  4.0750267E-05;  1.0000000E+02;  0.0000000E+00;  0.0000000E+00;  1.0000000E+02;  0.0000000E+00;  1.0000000E+02;  3.9691862E-05;  0.0000000E+00;  1.0584050E-06;  0.0000000E+00;
 -4.0000001E-01;  9.9999998E-03;  1.0000000E+00;78;  0.0000000E+00;  0.0000000E+00;  0.0000000E+00;  1.0003250E+01;  4.0000001E-01;  3.4964493E-01;0;  0.0000000E+00;  0.0000000E+00;  0.0000000E+00;  0.0000000E+00;  0.0000000E+00;  0.0000000E+00;0;  3.0019177E-05;  1.0000000E+02;  0.0000000E+00;  0.0000000E+00;  1.0000000E+02;  0.0000000E+00;  1.0000000E+02;  2.6647172E-05;  0.0000000E+00;  3.3720048E-06;  0.0000000E+00;
 -4.0000001E-01;  9.9999998E-03;  1.2000000E+00;79;  0.0000000E+00;  0.0000000E+00;  0.0000000E+00;  1.0002306E+01;  4.0000001E-01;  2.4806063E-01;0;  0.0000000E+00;  0.0000000E+00;  0.0000000E+00;  0.0000000E+00;  0.0000000E+00;  0.0000000E+00;0;  2.1057500E-05;  1.0000000E+02;  0.0000000E+00;  0.0000000E+00;  1.0000000E+02;  0.0000000E+00;  1.0000000E+02;  1.6230115E-05;  0.0000000E+00;  4.8273855E-06;  0.0000000E+00;
 -4.0000001E-01;  9.9999998E-03;  1.4000000E+00;80;  0.0000000E+00;  0.0000000E+00;  0.0000000E+00;  1.0001434E+01;  4.0000001E-01;  1.5430039E-01;0;  0.0000000E+00;  0.0000000E+00;  0.0000000E+00;  0.0000000E+00;  0.0000000E+00;  0.0000000E+00;0;  1.3541279E-05;  1.0000000E+02;  0.0000000E+00;  0.0000000E+00;  1.0000000E+02;  0.0000000E+00;  1.0000000E+02;  8.2563465E-06;  0.0000000E+00;  5.2849332E-06;  0.0000000E+00;
 -2.0000000E-01;  9.9999998E-03;  0.0000000E+00;94;  0.0000000E+00;  0.0000000E+00;  0.0000000E+00;  1.0006151E+01;  4.0000001E-01;  6.6183621E-01;0;  0.0000000E+00;  0.0000000E+00;  0.0000000E+00;  0.0000000E+00;  0.0000000E+00;  0.0000000E+00;0;  1.1572690E-04;  1.0000000E+02;  0.0000000E+00;  0.0000000E+00;  1.0000000E+02;  0.0000000E+00;  1.0000000E+02;  1.2992778E-04;  0.0000000E+00; -1.4200883E-05;  0.0000000E+00;
 -2.0000000E-01;  9.9999998E-03;  2.0000000E-01;95;  0.0000000E+00;  0.0000000E+00;  0.0000000E+00;  1.0005982E+01;  4.0000001E-01;  6.4362293E-01;0;  0.0000000E+00;  0.0000000E+00;  0.0000000E+00;  0.0000000E+00;  0.0000000E+00;  0.0000000E+00;0;  1.1256665E-04;  1.0000000E+02;  0.0000000E+00;  0.0000000E+00;  1.0000000E+02;  0.0000000E+00;  1.0000000E+02;  1.2526650E-04;  0.0000000E+00; -1.2699849E-05;  0.0000000E+00;
 -2.0000000E-01;  9.9999998E-03;  4.0000001E-01;96;  0.0000000E+00;  0.0000000E+00;  0.0000000E+00;  1.0005486E+01;  4.0000001E-01;  5.9026557E-01;0;  0.0000000E+00;  0.0000000E+00;  0.0000000E+00;  0.0000000E+00;  0.0000000E+00;  0.0000000E+00;0;  1.0425643E-04;  1.0000000E+02;  0.0000000E+00;  0.0000000E+00;  1.0000000E+02;  0.0000000E+00;  1.0000000E+02;  1.1301535E-04;  0.0000000E+00; -8.7589142E-06;  0.0000000E+00;
 -2.0000000E-01;  9.9999998E-03;  6.0000002E-01;97;  0.0000000E+00;  0.0000000E+00;  0.0000000E+00;  1.0004711E+01;  4.0000001E-01;  5.0689471E-01;0;  0.0000000E+00;  0.0000000E+00;  0.0000000E+00;  0.0000000E+00;  0.0000000E+00;  0.0000000E+00;0;  9.4006667E-05;  1.0000000E+02;  0.0000000E+00;  0.0000000E+00;  1.0000000E+02;  0.0000000E+00;  1.0000000E+02;  9.7653785E-05;  0.0000000E+00; -3.6471199E-06;  0.0000000E+00;
 -2.0000000E-01;  9.9999998E-03;  8.0000001E-01;98;  0.0000000E+00;  0.0000000E+00;  0.0000000E+00;  1.0003751E+01;  4.0000001E-01;  4.0351489E-01;0;  0.0000000E+00;  0.0000000E+00;  0.0000000E+00;  0.0000000E+00;  0.0000000E+00;  0.0000000E+00;0;  8.3870458E-05;  1.0000000E+02;  0.0000000E+00;  0.0000000E+00;  1.0000000E+02;  0.0000000E+00;  1.0000000E+02;  8.2462364E-05;  0.0000000E+00;  1.4080955E-06;  0.0000000E+00;
 -2.0000000E-01;  9.9999998E-03;  1.0000000E+00;99;  0.0000000E+00;  0.0000000E+00;  0.0000000E+00;  1.0002756E+01;  4.0000001E-01;  2.9654369E-01;0;  0.0000000E+00;  0.0000000E+00;  0.0000000E+00;  0.0000000E+00;  0.0000000E+00;  0.0000000E+00;0;  7.3053379E-05;  1.0000000E+02;  0.0000000E+00;  0.0000000E+00;  1.0000000E+02;  0.0000000E+00;  1.0000000E+02;  6.7460671E-05;  0.0000000E+00;  5.5927071E-06;  0.0000000E+00;
 -2.0000000E-01;  9.9999998E-03;  1.2000000E+00;100;  0.0000000E+00;  0.0000000E+00;  0.0000000E+00;  1.0001839E+01;  4.0000001E-01;  1.9778129E-01;0;  0.0000000E+00;  0.0000000E+00;  0.0000000E+00;  0.0000000E+00;  0.0000000E+00;  0.0000000E+00;0;  5.9754602E-05;  1.0000000E+02;  0.0000000E+00;  0.0000000E+00;  1.0000000E+02;  0.0000000E+00;  1.0000000E+02;  5.1290066E-05;  0.0000000E+00;  8.4645371E-06;  0.0000000E+00;
 -2.0000000E-01;  9.9999998E-03;  1.4000000E+00;101;  0.0000000E+00;  0.0000000E+00;  0.0000000E+00;  1.0001080E+01;  4.0000001E-01;  1.1620613E-01;0;  0.0000000E+00;  0.0000000E+00;  0.0000000E+00;  0.0000000E+00;  0.0000000E+00;  0.0000000E+00;0;  4.3711043E-05;  1.0000000E+02;  0.0000000E+00;  0.0000000E+00;  1.0000000E+02;  0.0000000E+00;  1.0000000E+02;  3.4016797E-05;  0.0000000E+00;  9.6942476E-06;  0.0000000E+00;
  0.0000000E+00;  9.9999998E-03;  1.2000000E+00;110;  0.0000000E+00;  0.0000000E+00;  0.0000000E+00;  1.0000089E+01;  4.0000001E-01;  9.4914231E-03;0;  0.0000000E+00;  0.0000000E+00;  0.0000000E+00;  0.0000000E+00;  0.0000000E+00;  0.0000000E+00;0;  1.5248309E-04;  1.0000000E+02;  0.0000000E+00;  0.0000000E+00;  1.0000000E+02;  0.0000000E+00;  1.0000000E+02;  1.3982001E-04;  0.0000000E+00;  1.2663076E-05;  0.0000000E+00;
  0.0000000E+00;  9.9999998E-03;  1.4000000E+00;111;  0.0000000E+00;  0.0000000E+00;  0.0000000E+00;  1.0000000E+01;  4.0000001E-01;  0.0000000E+00;0;  0.0000000E+00;  0.0000000E+00;  0.0000000E+00;  0.0000000E+00;  0.0000000E+00;  0.0000000E+00;0;  1.1352522E-04;  1.0000000E+02;  0.0000000E+00;  0.0000000E+00;  1.0000000E+02;  0.0000000E+00;  1.0000000E+02;  9.9042147E-05;  0.0000000E+00;  1.4483075E-05;  0.0000000E+00;
  2.0000000E-01;  9.9999998E-03;  1.2000000E+00;120;  0.0000000E+00;  0.0000000E+00;  0.0000000E+00;  1.0000000E+01;  4.0000001E-01;  0.0000000E+00;0;  0.0000000E+00;  0.0000000E+00;  0.0000000E+00;  0.0000000E+00;  0.0000000E+00;  0.0000000E+00;0;  3.5319745E-04;  1.0000000E+02;  0.0000000E+00;  0.0000000E+00;  1.0000000E+02;  0.0000000E+00;  1.0000000E+02;  3.3723921E-04;  0.0000000E+00;  1.5958236E-05;  0.0000000E+00;
  2.0000000E-01;  9.9999998E-03;  1.4000000E+00;121;  0.0000000E+00;  0.0000000E+00;  0.0000000E+00;  1.0000000E+01;  4.0000001E-01;  0.0000000E+00;0;  0.0000000E+00;  0.0000000E+00;  0.0000000E+00;  0.0000000E+00;  0.0000000E+00;  0.0000000E+00;0;  2.5901926E-04;  1.0000000E+02;  0.0000000E+00;  0.0000000E+00;  1.0000000E+02;  0.0000000E+00;  1.0000000E+02;  2.4148339E-04;  0.0000000E+00;  1.7535864E-05;  0.0000000E+00;
  4.0000001E-01;  9.9999998E-03;  1.2000000E+00;130;  0.0000000E+00;  0.0000000E+00;  0.0000000E+00;  1.0000000E+01;  4.0000001E-01;  0.0000000E+00;0;  0.0000000E+00;  0.0000000E+00;  0.0000000E+00;  0.0000000E+00;  0.0000000E+00;  0.0000000E+00;0;  7.4040383E-04;  1.0000000E+02;  0.0000000E+00;  0.0000000E+00;  1.0000000E+02;  0.0000000E+00;  1.0000000E+02;  7.2537101E-04;  0.0000000E+00;  1.5032848E-05;  0.0000000E+00;
  4.0000001E-01;  9.9999998E-03;  1.4000000E+00;131;  0.0000000E+00;  0.0000000E+00;  0.0000000E+00;  1.0000000E+01;  4.0000001E-01;  0.0000000E+00;0;  0.0000000E+00;  0.0000000E+00;  0.0000000E+00;  0.0000000E+00;  0.0000000E+00;  0.0000000E+00;0;  5.3780095E-04;  1.0000000E+02;  0.0000000E+00;  0.0000000E+00;  1.0000000E+02;  0.0000000E+00;  1.0000000E+02;  5.2242825E-04;  0.0000000E+00;  1.5372718E-05;  0.0000000E+00;
  6.0000002E-01;  9.9999998E-03;  1.2000000E+00;140;  0.0000000E+00;  0.0000000E+00;  0.0000000E+00;  1.0000000E+01;  4.0000001E-01;  0.0000000E+00;0;  0.0000000E+00;  0.0000000E+00;  0.0000000E+00;  0.0000000E+00;  0.0000000E+00;  0.0000000E+00;0;  1.3838462E-03;  1.0000000E+02;  0.0000000E+00;  0.0000000E+00;  1.0000000E+02;  0.0000000E+00;  1.0000000E+02;  1.3776302E-03;  0.0000000E+00;  6.2160138E-06;  0.0000000E+00;
  6.0000002E-01;  9.9999998E-03;  1.4000000E+00;141;  0.0000000E+00;  0.0000000E+00;  0.0000000E+00;  1.0000000E+01;  4.0000001E-01;  0.0000000E+00;0;  0.0000000E+00;  0.0000000E+00;  0.0000000E+00;  0.0000000E+00;  0.0000000E+00;  0.0000000E+00;0;  1.0041648E-03;  1.0000000E+02;  0.0000000E+00;  0.0000000E+00;  1.0000000E+02;  0.0000000E+00;  1.0000000E+02;  9.9951029E-04;  0.0000000E+00;  4.6544751E-06;  0.0000000E+00;
  8.0000001E-01;  9.9999998E-03;  1.2000000E+00;150;  0.0000000E+00;  0.0000000E+00;  0.0000000E+00;  1.0000000E+01;  4.0000001E-01;  0.0000000E+00;0;  0.0000000E+00;  0.0000000E+00;  0.0000000E+00;  0.0000000E+00;  0.0000000E+00;  0.0000000E+00;0;  2.2678382E-03;  1.0000000E+02;  0.0000000E+00;  0.0000000E+00;  1.0000000E+02;  0.0000000E+00;  1.0000000E+02;  2.2796548E-03;  0.0000000E+00; -1.1816640E-05;  0.0000000E+00;
  8.0000001E-01;  9.9999998E-03;  1.4000000E+00;151;  0.0000000E+00;  0.0000000E+00;  0.0000000E+00;  1.0000000E+01;  4.0000001E-01;  0.0000000E+00;0;  0.0000000E+00;  0.0000000E+00;  0.0000000E+00;  0.0000000E+00;  0.0000000E+00;  0.0000000E+00;0;  1.6429423E-03;  1.0000000E+02;  0.0000000E+00;  0.0000000E+00;  1.0000000E+02;  0.0000000E+00;  1.0000000E+02;  1.6581876E-03;  0.0000000E+00; -1.5245326E-05;  0.0000000E+00;
  1.0000000E+00;  9.9999998E-03;  1.2000000E+00;160;  0.0000000E+00;  0.0000000E+00;  0.0000000E+00;  1.0000000E+01;  4.0000001E-01;  0.0000000E+00;0;  0.0000000E+00;  0.0000000E+00;  0.0000000E+00;  0.0000000E+00;  0.0000000E+00;  0.0000000E+00;0;  3.2318907E-03;  1.0000000E+02;  0.0000000E+00;  0.0000000E+00;  1.0000000E+02;  0.0000000E+00;  1.0000000E+02;  3.2666947E-03;  0.0000000E+00; -3.4804008E-05;  0.0000000E+00;
  1.0000000E+00;  9.9999998E-03;  1.4000000E+00;161;  0.0000000E+00;  0.0000000E+00;  0.0000000E+00;  1.0000000E+01;  4.0000001E-01;  0.0000000E+00;0;  0.0000000E+00;  0.0000000E+00;  0.0000000E+00;  0.0000000E+00;  0.0000000E+00;  0.0000000E+00;0;  2.3228163E-03;  1.0000000E+02;  0.0000000E+00;  0.0000000E+00;  1.0000000E+02;  0.0000000E+00;  1.0000000E+02;  2.3635766E-03;  0.0000000E+00; -4.0760293E-05;  0.0000000E+00;
 -1.0000000E+00;  9.9999998E-03;  1.6000000E+00;18;  0.0000000E+00;  0.0000000E+00;  0.0000000E+00;  1.0000038E+01;  4.0000001E-01;  4.1044201E-03;0;  0.0000000E+00;  0.0000000E+00;  0.0000000E+00;  0.0000000E+00;  0.0000000E+00;  0.0000000E+00;0; -6.7943148E-07;  1.0000000E+02;  0.0000000E+00;  0.0000000E+00;  1.0000000E+02;  0.0000000E+00;  1.0000000E+02; -5.0205369E-07;  0.0000000E+00; -1.7737779E-07;  0.0000000E+00;
 -1.0000000E+00;  9.9999998E-03;  1.8000000E+00;19;  0.0000000E+00;  0.0000000E+00;  0.0000000E+00;  1.0000000E+01;  4.0000001E-01;  0.0000000E+00;0;  0.0000000E+00;  0.0000000E+00;  0.0000000E+00;  0.0000000E+00;  0.0000000E+00;  0.0000000E+00;0; -5.2829773E-07;  1.0000000E+02;  0.0000000E+00;  0.0000000E+00;  1.0000000E+02;  0.0000000E+00;  1.0000000E+02; -3.5408172E-07;  0.0000000E+00; -1.7421604E-07;  0.0000000E+00;
 -1.0000000E+00;  9.9999998E-03;  2.0000000E+00;20;  0.0000000E+00;  0.0000000E+00;  0.0000000E+00;  1.0000000E+01;  4.0000001E-01;  0.0000000E+00;0;  0.0000000E+00;  0.0000000E+00;  0.0000000E+00;  0.0000000E+00;  0.0000000E+00;  0.0000000E+00;0; -2.3470892E-07;  1.0000000E+02;  0.0000000E+00;  0.0000000E+00;  1.0000000E+02;  0.0000000E+00;  1.0000000E+02; -1.4662557E-07;  0.0000000E+00; -8.8083354E-08;  0.0000000E+00;
 -8.0000001E-01;  9.9999998E-03;  1.6000000E+00;39;  0.0000000E+00;  0.0000000E+00;  0.0000000E+00;  1.0000361E+01;  4.0000001E-01;  3.8863722E-02;0;  0.0000000E+00;  0.0000000E+00;  0.0000000E+00;  0.0000000E+00;  0.0000000E+00;  0.0000000E+00;0; -6.6528833E-07;  1.0000000E+02;  0.0000000E+00;  0.0000000E+00;  1.0000000E+02;  0.0000000E+00;  1.0000000E+02; -8.8402891E-07;  0.0000000E+00;  2.1874061E-07;  0.0000000E+00;
 -8.0000001E-01;  9.9999998E-03;  1.8000000E+00;40;  0.0000000E+00;  0.0000000E+00;  0.0000000E+00;  1.0000087E+01;  4.0000001E-01;  9.3632070E-03;0;  0.0000000E+00;  0.0000000E+00;  0.0000000E+00;  0.0000000E+00;  0.0000000E+00;  0.0000000E+00;0; -7.9428816E-07;  1.0000000E+02;  0.0000000E+00;  0.0000000E+00;  1.0000000E+02;  0.0000000E+00;  1.0000000E+02; -7.6342661E-07;  0.0000000E+00; -3.0861560E-08;  0.0000000E+00;
 -8.0000001E-01;  9.9999998E-03;  2.0000000E+00;41;  0.0000000E+00;  0.0000000E+00;  0.0000000E+00;  1.0000000E+01;  4.0000001E-01;  0.0000000E+00;0;  0.0000000E+00;  0.0000000E+00;  0.0000000E+00;  0.0000000E+00;  0.0000000E+00;  0.0000000E+00;0; -5.0562835E-07;  1.0000000E+02;  0.0000000E+00;  0.0000000E+00;  1.0000000E+02;  0.0000000E+00;  1.0000000E+02; -4.0542602E-07;  0.0000000E+00; -1.0020233E-07;  0.0000000E+00;
 -6.0000002E-01;  9.9999998E-03;  1.6000000E+00;60;  0.0000000E+00;  0.0000000E+00;  0.0000000E+00;  1.0000634E+01;  4.0000001E-01;  6.8235964E-02;0;  0.0000000E+00;  0.0000000E+00;  0.0000000E+00;  0.0000000E+00;  0.0000000E+00;  0.0000000E+00;0;  9.3579433E-07;  1.0000000E+02;  0.0000000E+00;  0.0000000E+00;  1.0000000E+02;  0.0000000E+00;  1.0000000E+02; -6.9843509E-07;  0.0000000E+00;  1.6342294E-06;  0.0000000E+00;
 -6.0000002E-01;  9.9999998E-03;  1.8000000E+00;61;  0.0000000E+00;  0.0000000E+00;  0.0000000E+00;  1.0000278E+01;  4.0000001E-01;  3.0013561E-02;0;  0.0000000E+00;  0.0000000E+00;  0.0000000E+00;  0.0000000E+00;  0.0000000E+00;  0.0000000E+00;0; -1.5053109E-07;  1.0000000E+02;  0.0000000E+00;  0.0000000E+00;  1.0000000E+02;  0.0000000E+00;  1.0000000E+02; -9.7559564E-07;  0.0000000E+00;  8.2506455E-07;  0.0000000E+00;
 -6.0000002E-01;  9.9999998E-03;  2.0000000E+00;62;  0.0000000E+00;  0.0000000E+00;  0.0000000E+00;  1.0000000E+01;  4.0000001E-01;  0.0000000E+00;0;  0.0000000E+00;  0.0000000E+00;  0.0000000E+00;  0.0000000E+00;  0.0000000E+00;  0.0000000E+00;0; -4.3772769E-07;  1.0000000E+02;  0.0000000E+00;  0.0000000E+00;  1.0000000E+02;  0.0000000E+00;  1.0000000E+02; -6.2644420E-07;  0.0000000E+00;  1.8871650E-07;  0.0000000E+00;
 -4.0000001E-01;  9.9999998E-03;  1.6000000E+00;81;  0.0000000E+00;  0.0000000E+00;  0.0000000E+00;  1.0000803E+01;  4.0000001E-01;  8.6449258E-02;0;  0.0000000E+00;  0.0000000E+00;  0.0000000E+00;  0.0000000E+00;  0.0000000E+00;  0.0000000E+00;0;  7.4858376E-06;  1.0000000E+02;  0.0000000E+00;  0.0000000E+00;  1.0000000E+02;  0.0000000E+00;  1.0000000E+02;  2.8712589E-06;  0.0000000E+00;  4.6145788E-06;  0.0000000E+00;
 -4.0000001E-01;  9.9999998E-03;  1.8000000E+00;82;  0.0000000E+00;  0.0000000E+00;  0.0000000E+00;  1.0000381E+01;  4.0000001E-01;  4.0915895E-02;0;  0.0000000E+00;  0.0000000E+00;  0.0000000E+00;  0.0000000E+00;  0.0000000E+00;  0.0000000E+00;0;  3.0881986E-06;  1.0000000E+02;  0.0000000E+00;  0.0000000E+00;  1.0000000E+02;  0.0000000E+00;  1.0000000E+02;  1.3752638E-07;  0.0000000E+00;  2.9506723E-06;  0.0000000E+00;
 -4.0000001E-01;  9.9999998E-03;  2.0000000E+00;83;  0.0000000E+00;  0.0000000E+00;  0.0000000E+00;  1.0000092E+01;  4.0000001E-01;  9.8762503E-03;0;  0.0000000E+00;  0.0000000E+00;  0.0000000E+00;  0.0000000E+00;  0.0000000E+00;  0.0000000E+00;0;  6.8943876E-07;  1.0000000E+02;  0.0000000E+00;  0.0000000E+00;  1.0000000E+02;  0.0000000E+00;  1.0000000E+02; -4.8049452E-07;  0.0000000E+00;  1.1699333E-06;  0.0000000E+00;
 -2.0000000E-01;  9.9999998E-03;  1.6000000E+00;102;  0.0000000E+00;  0.0000000E+00;  0.0000000E+00;  1.0000635E+01;  4.0000001E-01;  6.8364091E-02;0;  0.0000000E+00;  0.0000000E+00;  0.0000000E+00;  0.0000000E+00;  0.0000000E+00;  0.0000000E+00;0;  2.7356335E-05;  1.0000000E+02;  0.0000000E+00;  0.0000000E+00;  1.0000000E+02;  0.0000000E+00;  1.0000000E+02;  1.8344472E-05;  0.0000000E+00;  9.0118638E-06;  0.0000000E+00;
 -2.0000000E-01;  9.9999998E-03;  1.8000000E+00;103;  0.0000000E+00;  0.0000000E+00;  0.0000000E+00;  1.0000424E+01;  4.0000001E-01;  4.5661569E-02;0;  0.0000000E+00;  0.0000000E+00;  0.0000000E+00;  0.0000000E+00;  0.0000000E+00;  0.0000000E+00;0;  1.3684811E-05;  1.0000000E+02;  0.0000000E+00;  0.0000000E+00;  1.0000000E+02;  0.0000000E+00;  1.0000000E+02;  7.2503399E-06;  0.0000000E+00;  6.4344713E-06;  0.0000000E+00;
 -2.0000000E-01;  9.9999998E-03;  2.0000000E+00;104;  0.0000000E+00;  0.0000000E+00;  0.0000000E+00;  1.0000140E+01;  4.0000001E-01;  1.5135014E-02;0;  0.0000000E+00;  0.0000000E+00;  0.0000000E+00;  0.0000000E+00;  0.0000000E+00;  0.0000000E+00;0;  4.6574451E-06;  1.0000000E+02;  0.0000000E+00;  0.0000000E+00;  1.0000000E+02;  0.0000000E+00;  1.0000000E+02;  1.5517004E-06;  0.0000000E+00;  3.1057448E-06;  0.0000000E+00;
  0.0000000E+00;  9.9999998E-03;  1.6000000E+00;112;  0.0000000E+00;  0.0000000E+00;  0.0000000E+00;  1.0000000E+01;  4.0000001E-01;  0.0000000E+00;0;  0.0000000E+00;  0.0000000E+00;  0.0000000E+00;  0.0000000E+00;  0.0000000E+00;  0.0000000E+00;0;  7.3587733E-05;  1.0000000E+02;  0.0000000E+00;  0.0000000E+00;  1.0000000E+02;  0.0000000E+00;  1.0000000E+02;  5.9998376E-05;  0.0000000E+00;  1.3589357E-05;  0.0000000E+00;
  0.0000000E+00;  9.9999998E-03;  1.8000000E+00;113;  0.0000000E+00;  0.0000000E+00;  0.0000000E+00;  1.0000000E+01;  4.0000001E-01;  0.0000000E+00;0;  0.0000000E+00;  0.0000000E+00;  0.0000000E+00;  0.0000000E+00;  0.0000000E+00;  0.0000000E+00;0;  3.9517949E-05;  1.0000000E+02;  0.0000000E+00;  0.0000000E+00;  1.0000000E+02;  0.0000000E+00;  1.0000000E+02;  2.9322884E-05;  0.0000000E+00;  1.0195065E-05;  0.0000000E+00;
  0.0000000E+00;  9.9999998E-03;  2.0000000E+00;114;  0.0000000E+00;  0.0000000E+00;  0.0000000E+00;  1.0000150E+01;  4.0000001E-01;  1.6161071E-02;0;  0.0000000E+00;  0.0000000E+00;  0.0000000E+00;  0.0000000E+00;  0.0000000E+00;  0.0000000E+00;0;  1.5892670E-05;  1.0000000E+02;  0.0000000E+00;  0.0000000E+00;  1.0000000E+02;  0.0000000E+00;  1.0000000E+02;  1.0370727E-05;  0.0000000E+00;  5.5219430E-06;  0.0000000E+00;
  2.0000000E-01;  9.9999998E-03;  1.6000000E+00;122;  0.0000000E+00;  0.0000000E+00;  0.0000000E+00;  1.0000000E+01;  4.0000001E-01;  0.0000000E+00;0;  0.0000000E+00;  0.0000000E+00;  0.0000000E+00;  0.0000000E+00;  0.0000000E+00;  0.0000000E+00;0;  1.6805253E-04;  1.0000000E+02;  0.0000000E+00;  0.0000000E+00;  1.0000000E+02;  0.0000000E+00;  1.0000000E+02;  1.5203298E-04;  0.0000000E+00;  1.6019545E-05;  0.0000000E+00;
  2.0000000E-01;  9.9999998E-03;  1.8000000E+00;123;  0.0000000E+00;  0.0000000E+00;  0.0000000E+00;  1.0000000E+01;  4.0000001E-01;  0.0000000E+00;0;  0.0000000E+00;  0.0000000E+00;  0.0000000E+00;  0.0000000E+00;  0.0000000E+00;  0.0000000E+00;0;  9.3319832E-05;  1.0000000E+02;  0.0000000E+00;  0.0000000E+00;  1.0000000E+02;  0.0000000E+00;  1.0000000E+02;  8.1181512E-05;  0.0000000E+00;  1.2138324E-05;  0.0000000E+00;
  2.0000000E-01;  9.9999998E-03;  2.0000000E+00;124;  0.0000000E+00;  0.0000000E+00;  0.0000000E+00;  1.0000000E+01;  4.0000001E-01;  0.0000000E+00;0;  0.0000000E+00;  0.0000000E+00;  0.0000000E+00;  0.0000000E+00;  0.0000000E+00;  0.0000000E+00;0;  4.1120555E-05;  1.0000000E+02;  0.0000000E+00;  0.0000000E+00;  1.0000000E+02;  0.0000000E+00;  1.0000000E+02;  3.4060933E-05;  0.0000000E+00;  7.0596220E-06;  0.0000000E+00;
  4.0000001E-01;  9.9999998E-03;  1.6000000E+00;132;  0.0000000E+00;  0.0000000E+00;  0.0000000E+00;  1.0000000E+01;  4.0000001E-01;  0.0000000E+00;0;  0.0000000E+00;  0.0000000E+00;  0.0000000E+00;  0.0000000E+00;  0.0000000E+00;  0.0000000E+00;0;  3.4660191E-04;  1.0000000E+02;  0.0000000E+00;  0.0000000E+00;  1.0000000E+02;  0.0000000E+00;  1.0000000E+02;  3.3335434E-04;  0.0000000E+00;  1.3247560E-05;  0.0000000E+00;
  4.0000001E-01;  9.9999998E-03;  1.8000000E+00;133;  0.0000000E+00;  0.0000000E+00;  0.0000000E+00;  1.0000000E+01;  4.0000001E-01;  0.0000000E+00;0;  0.0000000E+00;  0.0000000E+00;  0.0000000E+00;  0.0000000E+00;  0.0000000E+00;  0.0000000E+00;0;  1.9526419E-04;  1.0000000E+02;  0.0000000E+00;  0.0000000E+00;  1.0000000E+02;  0.0000000E+00;  1.0000000E+02;  1.8535252E-04;  0.0000000E+00;  9.9116696E-06;  0.0000000E+00;
  4.0000001E-01;  9.9999998E-03;  2.0000000E+00;134;  0.0000000E+00;  0.0000000E+00;  0.0000000E+00;  1.0000000E+01;  4.0000001E-01;  0.0000000E+00;0;  0.0000000E+00;  0.0000000E+00;  0.0000000E+00;  0.0000000E+00;  0.0000000E+00;  0.0000000E+00;0;  9.1214031E-05;  1.0000000E+02;  0.0000000E+00;  0.0000000E+00;  1.0000000E+02;  0.0000000E+00;  1.0000000E+02;  8.5096028E-05;  0.0000000E+00;  6.1180021E-06;  0.0000000E+00;
  6.0000002E-01;  9.9999998E-03;  1.6000000E+00;142;  0.0000000E+00;  0.0000000E+00;  0.0000000E+00;  1.0000000E+01;  4.0000001E-01;  0.0000000E+00;0;  0.0000000E+00;  0.0000000E+00;  0.0000000E+00;  0.0000000E+00;  0.0000000E+00;  0.0000000E+00;0;  6.4512534E-04;  1.0000000E+02;  0.0000000E+00;  0.0000000E+00;  1.0000000E+02;  0.0000000E+00;  1.0000000E+02;  6.4225862E-04;  0.0000000E+00;  2.8667284E-06;  0.0000000E+00;
  6.0000002E-01;  9.9999998E-03;  1.8000000E+00;143;  0.0000000E+00;  0.0000000E+00;  0.0000000E+00;  1.0000000E+01;  4.0000001E-01;  0.0000000E+00;0;  0.0000000E+00;  0.0000000E+00;  0.0000000E+00;  0.0000000E+00;  0.0000000E+00;  0.0000000E+00;0;  3.6695279E-04;  1.0000000E+02;  0.0000000E+00;  0.0000000E+00;  1.0000000E+02;  0.0000000E+00;  1.0000000E+02;  3.6514664E-04;  0.0000000E+00;  1.8061507E-06;  0.0000000E+00;
  6.0000002E-01;  9.9999998E-03;  2.0000000E+00;144;  0.0000000E+00;  0.0000000E+00;  0.0000000E+00;  1.0000000E+01;  4.0000001E-01;  0.0000000E+00;0;  0.0000000E+00;  0.0000000E+00;  0.0000000E+00;  0.0000000E+00;  0.0000000E+00;  0.0000000E+00;0;  1.7911082E-04;  1.0000000E+02;  0.0000000E+00;  0.0000000E+00;  1.0000000E+02;  0.0000000E+00;  1.0000000E+02;  1.7761452E-04;  0.0000000E+00;  1.4963007E-06;  0.0000000E+00;
  8.0000001E-01;  9.9999998E-03;  1.6000000E+00;152;  0.0000000E+00;  0.0000000E+00;  0.0000000E+00;  1.0000000E+01;  4.0000001E-01;  0.0000000E+00;0;  0.0000000E+00;  0.0000000E+00;  0.0000000E+00;  0.0000000E+00;  0.0000000E+00;  0.0000000E+00;0;  1.0507642E-03;  1.0000000E+02;  0.0000000E+00;  0.0000000E+00;  1.0000000E+02;  0.0000000E+00;  1.0000000E+02;  1.0660220E-03;  0.0000000E+00; -1.5257735E-05;  0.0000000E+00;
  8.0000001E-01;  9.9999998E-03;  1.8000000E+00;153;  0.0000000E+00;  0.0000000E+00;  0.0000000E+00;  1.0000000E+01;  4.0000001E-01;  0.0000000E+00;0;  0.0000000E+00;  0.0000000E+00;  0.0000000E+00;  0.0000000E+00;  0.0000000E+00;  0.0000000E+00;0;  6.0323335E-04;  1.0000000E+02;  0.0000000E+00;  0.0000000E+00;  1.0000000E+02;  0.0000000E+00;  1.0000000E+02;  6.1588909E-04;  0.0000000E+00; -1.2655743E-05;  0.0000000E+00;
  8.0000001E-01;  9.9999998E-03;  2.0000000E+00;154;  0.0000000E+00;  0.0000000E+00;  0.0000000E+00;  1.0000000E+01;  4.0000001E-01;  0.0000000E+00;0;  0.0000000E+00;  0.0000000E+00;  0.0000000E+00;  0.0000000E+00;  0.0000000E+00;  0.0000000E+00;0;  3.0738473E-04;  1.0000000E+02;  0.0000000E+00;  0.0000000E+00;  1.0000000E+02;  0.0000000E+00;  1.0000000E+02;  3.1530630E-04;  0.0000000E+00; -7.9215761E-06;  0.0000000E+00;
  1.0000000E+00;  9.9999998E-03;  1.6000000E+00;162;  0.0000000E+00;  0.0000000E+00;  0.0000000E+00;  1.0000000E+01;  4.0000001E-01;  0.0000000E+00;0;  0.0000000E+00;  0.0000000E+00;  0.0000000E+00;  0.0000000E+00;  0.0000000E+00;  0.0000000E+00;0;  1.4692835E-03;  1.0000000E+02;  0.0000000E+00;  0.0000000E+00;  1.0000000E+02;  0.0000000E+00;  1.0000000E+02;  1.5081668E-03;  0.0000000E+00; -3.8883307E-05;  0.0000000E+00;
  1.0000000E+00;  9.9999998E-03;  1.8000000E+00;163;  0.0000000E+00;  0.0000000E+00;  0.0000000E+00;  1.0000000E+01;  4.0000001E-01;  0.0000000E+00;0;  0.0000000E+00;  0.0000000E+00;  0.0000000E+00;  0.0000000E+00;  0.0000000E+00;  0.0000000E+00;0;  8.4327941E-04;  1.0000000E+02;  0.0000000E+00;  0.0000000E+00;  1.0000000E+02;  0.0000000E+00;  1.0000000E+02;  8.7618839E-04;  0.0000000E+00; -3.2908993E-05;  0.0000000E+00;
  1.0000000E+00;  9.9999998E-03;  2.0000000E+00;164;  0.0000000E+00;  0.0000000E+00;  0.0000000E+00;  1.0000000E+01;  4.0000001E-01;  0.0000000E+00;0;  0.0000000E+00;  0.0000000E+00;  0.0000000E+00;  0.0000000E+00;  0.0000000E+00;  0.0000000E+00;0;  4.4734665E-04;  1.0000000E+02;  0.0000000E+00;  0.0000000E+00;  1.0000000E+02;  0.0000000E+00;  1.0000000E+02;  4.7115423E-04;  0.0000000E+00; -2.3807559E-05;  0.0000000E+00;
 -4.9527374E-04;  9.9999998E-03; -1.0000690E+00;165; -2.5858486E-05;  0.0000000E+00; -1.9990621E-05;  9.9991770E+00;  3.9994949E-01; -8.8565238E-02;3; -8.3853109E-03;  0.0000000E+00; -3.8868752E-03;  0.0000000E+00;  0.0000000E+00;  0.0000000E+00;0;  1.8524968E-04;  1.0000800E+02;  0.0000000E+00; -1.7031468E-04;  1.0000000E+02;  0.0000000E+00;  9.9999023E+01;  1.7613679E-04;  0.0000000E+00;  9.1128877E-06;  0.0000000E+00;
 -5.1049859E-04;  9.9999998E-03; -8.0005080E-01;166;  2.0757636E-06;  0.0000000E+00; -2.1693937E-05;  9.9990616E+00;  3.9991951E-01; -1.0094257E-01;3; -9.7484551E-03;  0.0000000E+00; -3.9794482E-03;  0.0000000E+00;  0.0000000E+00;  0.0000000E+00;0;  2.0536344E-04;  1.0001940E+02;  0.0000000E+00; -1.2137917E-04;  1.0000000E+02;  0.0000000E+00;  1.0000000E+02;  2.0349580E-04;  0.0000000E+00;  1.8676292E-06;  0.0000000E+00;
 -5.1541475E-04;  9.9999998E-03; -6.0003513E-01;167;  6.0249320E-05;  0.0000000E+00; -3.7399991E-06;  9.9989977E+00;  3.9988539E-01; -1.0786874E-01;3; -1.4164015E-02;  0.0000000E+00;  3.8530445E-04;  0.0000000E+00;  0.0000000E+00;  0.0000000E+00;0;  2.1637999E-04;  1.0003427E+02;  0.0000000E+00; -5.3335858E-05;  1.0000000E+02;  0.0000000E+00;  9.9998749E+01;  2.2222774E-04;  0.0000000E+00; -5.8477417E-06;  0.0000000E+00;
 -5.0392142E-04;  9.9999998E-03; -4.0001765E-01;168;  1.2855751E-04;  0.0000000E+00;  1.5246730E-05;  9.9989672E+00;  3.9985386E-01; -1.1113943E-01;3; -1.8249322E-02;  0.0000000E+00;  1.9828316E-03;  0.0000000E+00;  0.0000000E+00;  0.0000000E+00;0;  2.2148664E-04;  1.0004923E+02;  0.0000000E+00; -1.2430761E-05;  1.0000000E+02;  0.0000000E+00;  1.0000386E+02;  2.3475528E-04;  0.0000000E+00; -1.3268639E-05;  0.0000000E+00;
 -4.9379474E-04;  9.9999998E-03; -2.0000847E-01;169;  1.6899875E-04;  0.0000000E+00;  9.3933659E-06;  9.9989510E+00;  3.9982995E-01; -1.1287098E-01;3; -2.0311784E-02;  0.0000000E+00;  1.6864107E-03;  0.0000000E+00;  0.0000000E+00;  0.0000000E+00;0;  2.2353345E-04;  1.0006007E+02;  0.0000000E+00; -8.7635760E-07;  1.0000000E+02;  0.0000000E+00;  1.0000352E+02;  2.4246780E-04;  0.0000000E+00; -1.8934339E-05;  0.0000000E+00;
  1.9937511E-01;  9.9999998E-03; -9.9993610E-01;176; -4.2506465E-05;  0.0000000E+00;  3.6869933E-05;  9.9982157E+00;  4.0010074E-01; -1.9200771E-01;3; -2.1619459E-03;  0.0000000E+00; -1.3072864E-02;  0.0000000E+00;  0.0000000E+00;  0.0000000E+00;0;  4.2707790E-04;  9.9913010E+01;  0.0000000E+00; -5.7348999E-04;  1.0000000E+02;  0.0000000E+00;  1.0000108E+02;  4.1932875E-04;  0.0000000E+00;  7.7491513E-06;  0.0000000E+00;
  1.9935481E-01;  9.9999998E-03; -7.9996103E-01;177; -1.5948101E-05;  0.0000000E+00;  2.2281918E-05;  9.9979296E+00;  4.0010175E-01; -2.2279049E-01;3; -2.1329166E-03;  0.0000000E+00; -1.1136724E-02;  0.0000000E+00;  0.0000000E+00;  0.0000000E+00;0;  4.8386829E-04;  9.9905785E+01;  0.0000000E+00; -5.0516368E-04;  1.0000000E+02;  0.0000000E+00;  9.9999870E+01;  4.8306701E-04;  0.0000000E+00;  8.0129303E-07;  0.0000000E+00;
  1.9933973E-01;  9.9999998E-03; -5.9998018E-01;178;  2.0800891E-05;  0.0000000E+00;  1.9620597E-05;  9.9977617E+00;  4.0008491E-01; -2.4081126E-01;3; -1.6567688E-03;  0.0000000E+00; -8.1870435E-03;  0.0000000E+00;  0.0000000E+00;  0.0000000E+00;0;  5.1437115E-04;  9.9909958E+01;  0.0000000E+00; -2.8686892E-04;  1.0000000E+02;  0.0000000E+00;  1.0000382E+02;  5.2246789E-04;  0.0000000E+00; -8.0967648E-06;  0.0000000E+00;
  1.9934182E-01;  9.9999998E-03; -3.9998978E-01;179;  8.6386564E-05;  0.0000000E+00;  2.2223790E-05;  9.9976912E+00;  4.0005520E-01; -2.4844283E-01;3; -3.4339691E-03;  0.0000000E+00; -4.2428733E-03;  0.0000000E+00;  0.0000000E+00;  0.0000000E+00;0;  5.2725815E-04;  9.9921333E+01;  0.0000000E+00; -9.8871387E-05;  1.0000000E+02;  0.0000000E+00;  1.0000372E+02;  5.4365734E-04;  0.0000000E+00; -1.6399223E-05;  0.0000000E+00;
  1.9934815E-01;  9.9999998E-03; -1.9999614E-01;180;  1.3000569E-04;  0.0000000E+00;  1.3321371E-05;  9.9976501E+00;  4.0002972E-01; -2.5280371E-01;3; -4.5711817E-03;  0.0000000E+00; -1.4480975E-03;  0.0000000E+00;  0.0000000E+00;  0.0000000E+00;0;  5.3088961E-04;  9.9933243E+01;  0.0000000E+00; -1.5100625E-05;  1.0000000E+02;  0.0000000E+00;  1.0000335E+02;  5.5330910E-04;  0.0000000E+00; -2.2419508E-05;  0.0000000E+00;
  3.9937139E-01;  9.9999998E-03; -9.9988443E-01;187; -9.6882004E-06;  0.0000000E+00;  9.8135693E-05;  9.9969244E+00;  4.0041217E-01; -3.3091038E-01;3; -3.2448031E-02;  0.0000000E+00; -1.0945384E-01;  0.0000000E+00;  0.0000000E+00;  0.0000000E+00;0;  8.9692819E-04;  9.9731789E+01;  0.0000000E+00; -5.2212965E-04;  1.0000000E+02;  0.0000000E+00;  1.0000108E+02;  8.9728134E-04;  0.0000000E+00; -3.5315315E-07;  0.0000000E+00;
  3.9927247E-01;  9.9999998E-03; -7.9989493E-01;188; -1.6299706E-05;  0.0000000E+00;  7.3065581E-05;  9.9964991E+00;  4.0046418E-01; -3.7669915E-01;3; -3.5302296E-02;  0.0000000E+00; -8.7178625E-02;  0.0000000E+00;  0.0000000E+00;  0.0000000E+00;0;  1.0121454E-03;  9.9697838E+01;  0.0000000E+00; -9.9421036E-04;  1.0000000E+02;  0.0000000E+00;  9.9999763E+01;  1.0152326E-03;  0.0000000E+00; -3.0872070E-06;  0.0000000E+00;
  3.9922369E-01;  9.9999998E-03; -5.9993339E-01;189;  8.7411745E-06;  0.0000000E+00;  4.5019951E-05;  9.9962721E+00;  4.0046838E-01; -4.0106851E-01;3; -3.6861304E-02;  0.0000000E+00; -5.8720306E-02;  0.0000000E+00;  0.0000000E+00;  0.0000000E+00;0;  1.0732454E-03;  9.9688324E+01;  0.0000000E+00; -8.1676856E-04;  1.0000000E+02;  0.0000000E+00;  1.0000417E+02;  1.0822396E-03;  0.0000000E+00; -8.9941550E-06;  0.0000000E+00;
  3.9920434E-01;  9.9999998E-03; -3.9996246E-01;190;  6.4223590E-05;  0.0000000E+00;  3.0215107E-05;  9.9961500E+00;  4.0044567E-01; -4.1421515E-01;3; -3.9931450E-02;  0.0000000E+00; -3.2871448E-02;  0.0000000E+00;  0.0000000E+00;  0.0000000E+00;0;  1.0998652E-03;  9.9696098E+01;  0.0000000E+00; -3.7644050E-04;  1.0000000E+02;  0.0000000E+00;  1.0000343E+02;  1.1148769E-03;  0.0000000E+00; -1.5011808E-05;  0.0000000E+00;
  3.9920112E-01;  9.9999998E-03; -1.9998255E-01;191;  1.0794331E-04;  0.0000000E+00;  1.6945918E-05;  9.9960918E+00;  4.0041935E-01; -4.2049989E-01;3; -4.2288739E-02;  0.0000000E+00; -1.3911373E-02;  0.0000000E+00;  0.0000000E+00;  0.0000000E+00;0;  1.1099703E-03;  9.9708504E+01;  0.0000000E+00; -7.9031153E-05;  1.0000000E+02;  0.0000000E+00;  1.0000328E+02;  1.1292378E-03;  0.0000000E+00; -1.9267496E-05;  0.0000000E+00;
  5.9946978E-01;  9.9999998E-03; -9.9985093E-01;198;  2.5446439E-05;  0.0000000E+00;  1.5146066E-04;  9.9955645E+00;  4.0093115E-01; -4.7723982E-01;3; -4.7451681E-03;  0.0000000E+00; -1.4058092E-01;  0.0000000E+00;  0.0000000E+00;  0.0000000E+00;0;  1.6674279E-03;  9.9442345E+01;  0.0000000E+00;  3.5173546E-03;  1.0000000E+02;  0.0000000E+00;  1.0000503E+02;  1.6892782E-03;  0.0000000E+00; -2.1850217E-05;  0.0000000E+00;
  5.9924561E-01;  9.9999998E-03; -7.9985493E-01;199; -4.3100346E-05;  0.0000000E+00;  1.0545083E-04;  9.9950466E+00;  4.0103382E-01; -5.3290284E-01;3; -1.0688349E-02;  0.0000000E+00; -1.0913070E-01;  0.0000000E+00;  0.0000000E+00;  0.0000000E+00;0;  1.8476172E-03;  9.9382896E+01;  0.0000000E+00;  9.7871911E-05;  1.0000000E+02;  0.0000000E+00;  1.0000407E+02;  1.8583995E-03;  0.0000000E+00; -1.0782307E-05;  0.0000000E+00;
  5.9916443E-01;  9.9999998E-03; -5.9990656E-01;200; -5.9691820E-06;  0.0000000E+00;  5.8665650E-05;  9.9947720E+00;  4.0106210E-01; -5.6246579E-01;3; -1.4224039E-02;  0.0000000E+00; -6.9354169E-02;  0.0000000E+00;  0.0000000E+00;  0.0000000E+00;0;  1.9399695E-03;  9.9362671E+01;  0.0000000E+00; -1.2660335E-03;  1.0000000E+02;  0.0000000E+00;  1.0000328E+02;  1.9464963E-03;  0.0000000E+00; -6.5268305E-06;  0.0000000E+00;
  5.9912556E-01;  9.9999998E-03; -3.9994669E-01;201;  5.7411755E-05;  0.0000000E+00;  3.0739222E-05;  9.9946461E+00;  4.0104464E-01; -5.7599676E-01;3; -1.8028462E-02;  0.0000000E+00; -3.7074540E-02;  0.0000000E+00;  0.0000000E+00;  0.0000000E+00;0;  1.9753943E-03;  9.9370964E+01;  0.0000000E+00; -8.8450656E-04;  1.0000000E+02;  0.0000000E+00;  1.0000173E+02;  1.9818118E-03;  0.0000000E+00; -6.4174969E-06;  0.0000000E+00;
  5.9911120E-01;  9.9999998E-03; -1.9997492E-01;202;  1.0588687E-04;  0.0000000E+00;  1.6099182E-05;  9.9945908E+00;  4.0100864E-01; -5.8196074E-01;3; -2.0764261E-02;  0.0000000E+00; -1.5328981E-02;  0.0000000E+00;  0.0000000E+00;  0.0000000E+00;0;  1.9888105E-03;  9.9388069E+01;  0.0000000E+00; -2.3096331E-04;  1.0000000E+02;  0.0000000E+00;  1.0000033E+02;  1.9960490E-03;  0.0000000E+00; -7.2384782E-06;  0.0000000E+00;
  8.0023795E-01;  9.9999998E-03; -9.9997288E-01;209;  6.2529091E-04;  0.0000000E+00;  2.6424666E-05;  9.9937916E+00;  4.0175503E-01; -6.6790903E-01;3;  8.3880015E-02;  0.0000000E+00; -1.2030273E-01;  0.0000000E+00;  0.0000000E+00;  0.0000000E+00;0;  2.9770073E-03;  9.9001686E+01;  0.0000000E+00;  1.5748452E-02;  1.0000000E+02;  0.0000000E+00;  1.0000264E+02;  2.9897380E-03;  0.0000000E+00; -1.2730730E-05;  0.0000000E+00;
  7.9939473E-01;  9.9999998E-03; -7.9993504E-01;210; -6.8375062E-05;  0.0000000E+00;  5.2565665E-05;  9.9937325E+00;  4.0182534E-01; -6.7425758E-01;3;  2.6105456E-02;  0.0000000E+00; -1.0195480E-01;  0.0000000E+00;  0.0000000E+00;  0.0000000E+00;0;  2.9774574E-03;  9.8965393E+01;  0.0000000E+00;  6.2611680E-03;  1.0000000E+02;  0.0000000E+00;  1.0000214E+02;  2.9849848E-03;  0.0000000E+00; -7.5273783E-06;  0.0000000E+00;
  7.9920793E-01;  9.9999998E-03; -5.9994268E-01;211; -3.5445344E-05;  0.0000000E+00;  2.5679683E-05;  9.9935026E+00;  4.0186343E-01; -6.9900918E-01;3;  1.8190620E-03;  0.0000000E+00; -6.7890398E-02;  0.0000000E+00;  0.0000000E+00;  0.0000000E+00;0;  3.0791538E-03;  9.8946320E+01;  0.0000000E+00; -4.4478121E-04;  1.0000000E+02;  0.0000000E+00;  9.9997978E+01;  3.0735559E-03;  0.0000000E+00;  5.5980186E-06;  0.0000000E+00;
  7.9911047E-01;  9.9999998E-03; -3.9996368E-01;212;  4.7149591E-05;  0.0000000E+00;  5.3934004E-06;  9.9934387E+00;  4.0183172E-01; -7.0587045E-01;3; -5.3627458E-03;  0.0000000E+00; -3.5573564E-02;  0.0000000E+00;  0.0000000E+00;  0.0000000E+00;0;  3.1035000E-03;  9.8962730E+01;  0.0000000E+00; -1.4114249E-03;  1.0000000E+02;  0.0000000E+00;  9.9996605E+01;  3.0926571E-03;  0.0000000E+00;  1.0843021E-05;  0.0000000E+00;
  7.9908329E-01;  9.9999998E-03; -1.9998187E-01;213;  1.1457701E-04;  0.0000000E+00;  4.4485701E-06;  9.9934349E+00;  4.0177900E-01; -7.0625520E-01;3; -8.7372754E-03;  0.0000000E+00; -1.4492808E-02;  0.0000000E+00;  0.0000000E+00;  0.0000000E+00;0;  3.1049731E-03;  9.8989105E+01;  0.0000000E+00; -4.6292518E-04;  1.0000000E+02;  0.0000000E+00;  9.9995796E+01;  3.0926049E-03;  0.0000000E+00;  1.2368186E-05;  0.0000000E+00;
  1.0047024E+00;  9.9999998E-03; -1.0002657E+00;220;  3.5315230E-03;  0.0000000E+00; -2.2795680E-04;  9.9905539E+00;  4.0343091E-01; -1.0160629E+00;3;  7.4612588E-04;  0.0000000E+00; -4.6083752E-02;  0.0000000E+00;  0.0000000E+00;  0.0000000E+00;0;  5.6981063E-03;  9.8146568E+01;  0.0000000E+00;  3.7770059E-03;  1.0000000E+02;  0.0000000E+00;  9.9976158E+01;  5.5950731E-03;  0.0000000E+00;  1.0303335E-04;  0.0000000E+00;
  1.0009629E+00;  9.9999998E-03; -8.0016458E-01;221;  8.0809998E-04;  0.0000000E+00; -2.3761313E-04;  9.9923792E+00;  4.0294600E-01; -8.1975240E-01;3;  5.1796701E-02;  0.0000000E+00; -4.7436666E-02;  0.0000000E+00;  0.0000000E+00;  0.0000000E+00;0;  4.6009924E-03;  9.8410294E+01;  0.0000000E+00;  1.3337377E-02;  1.0000000E+02;  0.0000000E+00;  9.9982513E+01;  4.5003807E-03;  0.0000000E+00;  1.0061183E-04;  0.0000000E+00;
  1.0011972E+00;  9.9999998E-03; -6.0010254E-01;222; -4.3644060E-05;  0.0000000E+00; -8.4933827E-06;  9.9926548E+00;  4.0295076E-01; -7.9006767E-01;3;  5.1034135E-03;  0.0000000E+00; -4.9077049E-02;  0.0000000E+00;  0.0000000E+00;  0.0000000E+00;0;  4.4075828E-03;  9.8410095E+01;  0.0000000E+00; -1.1710468E-03;  1.0000000E+02;  0.0000000E+00;  9.9985374E+01;  4.3802769E-03;  0.0000000E+00;  2.7305869E-05;  0.0000000E+00;
  1.0011686E+00;  9.9999998E-03; -4.0011850E-01;223;  4.4644723E-05;  0.0000000E+00; -3.6015379E-05;  9.9926462E+00;  4.0285030E-01; -7.9102945E-01;3; -7.5818674E-04;  0.0000000E+00; -2.7883813E-02;  0.0000000E+00;  0.0000000E+00;  0.0000000E+00;0;  4.4129132E-03;  9.8457382E+01;  0.0000000E+00; -2.8206753E-03;  1.0000000E+02;  0.0000000E+00;  9.9987595E+01;  4.3775709E-03;  0.0000000E+00;  3.5342266E-05;  0.0000000E+00;
  1.0004584E+00;  9.9999998E-03; -2.0005664E-01;224;  7.0847000E-04;  0.0000000E+00; -2.2453300E-05;  9.9926920E+00;  4.0274104E-01; -7.8609335E-01;3; -5.4211360E-03;  0.0000000E+00; -1.2122774E-02;  0.0000000E+00;  0.0000000E+00;  0.0000000E+00;0;  4.3850727E-03;  9.8508018E+01;  0.0000000E+00; -8.3094038E-04;  1.0000000E+02;  0.0000000E+00;  9.9989594E+01;  4.3503125E-03;  0.0000000E+00;  3.4760022E-05;  0.0000000E+00;
  1.2068447E+00;  9.9999998E-03; -1.0002344E+00;231;  4.4531031E-03;  0.0000000E+00; -1.5066107E-04;  9.9903088E+00;  4.0479419E-01; -1.0420390E+00;3; -2.7651357E-02;  0.0000000E+00; -8.2635051E-03;  0.0000000E+00;  0.0000000E+00;  0.0000000E+00;0;  7.2914404E-03;  9.7488800E+01;  0.0000000E+00; -1.1126065E-03;  1.0000000E+02;  0.0000000E+00;  9.9966591E+01;  7.1922150E-03;  0.0000000E+00;  9.9225392E-05;  0.0000000E+00;
  1.2045131E+00;  9.9999998E-03; -8.0016506E-01;232;  3.1447897E-03;  0.0000000E+00; -1.6924254E-04;  9.9912777E+00;  4.0438890E-01; -9.3789834E-01;3;  1.8109579E-02;  0.0000000E+00; -1.0711366E-02;  0.0000000E+00;  0.0000000E+00;  0.0000000E+00;0;  6.5691504E-03;  9.7700424E+01;  0.0000000E+00;  4.3086587E-03;  1.0000000E+02;  0.0000000E+00;  9.9968193E+01;  6.4476691E-03;  0.0000000E+00;  1.2148124E-04;  0.0000000E+00;
  1.2033364E+00;  9.9999998E-03; -6.0009027E-01;233;  3.4661609E-04;  0.0000000E+00;  6.7579436E-05;  9.9921198E+00;  4.0423110E-01; -8.4734124E-01;3;  3.5932921E-03;  0.0000000E+00; -2.8052833E-02;  0.0000000E+00;  0.0000000E+00;  0.0000000E+00;0;  5.8683758E-03;  9.7788414E+01;  0.0000000E+00; -3.5460691E-03;  1.0000000E+02;  0.0000000E+00;  9.9973953E+01;  5.8510695E-03;  0.0000000E+00;  1.7306278E-05;  0.0000000E+00;
  1.2045100E+00;  9.9999998E-03; -4.0022591E-01;234;  2.2271585E-03;  0.0000000E+00; -5.2381802E-05;  9.9919901E+00;  4.0413159E-01; -8.6124623E-01;3; -4.2891465E-03;  0.0000000E+00; -1.5439594E-02;  0.0000000E+00;  0.0000000E+00;  0.0000000E+00;0;  5.9840037E-03;  9.7833588E+01;  0.0000000E+00; -5.7717180E-03;  1.0000000E+02;  0.0000000E+00;  9.9972816E+01;  5.9259571E-03;  0.0000000E+00;  5.8046535E-05;  0.0000000E+00;
  1.2039053E+00;  9.9999998E-03; -2.0010096E-01;235;  3.9047296E-03;  0.0000000E+00; -3.0890875E-05;  9.9922028E+00;  4.0398815E-01; -8.3843142E-01;3; -7.5974455E-04;  0.0000000E+00; -8.7169902E-03;  0.0000000E+00;  0.0000000E+00;  0.0000000E+00;0;  5.8543594E-03;  9.7898087E+01;  0.0000000E+00; -1.4639250E-03;  1.0000000E+02;  0.0000000E+00;  9.9983543E+01;  5.8027394E-03;  0.0000000E+00;  5.1620111E-05;  0.0000000E+00;
  1.4088643E+00;  9.9999998E-03; -1.0002142E+00;242;  5.4424903E-03;  0.0000000E+00; -9.9143341E-05;  9.9907322E+00;  4.0608120E-01; -9.9573755E-01;3; -2.8871043E-02;  0.0000000E+00;  3.0722232E-03;  0.0000000E+00;  0.0000000E+00;  0.0000000E+00;0;  8.5884323E-03;  9.6889397E+01;  0.0000000E+00; -2.2029139E-03;  1.0000000E+02;  0.0000000E+00;  9.9957504E+01;  8.4986249E-03;  0.0000000E+00;  8.9807858E-05;  0.0000000E+00;
  1.4068303E+00;  9.9999998E-03; -8.0009884E-01;243;  4.3385439E-03;  0.0000000E+00; -7.6628057E-05;  9.9911728E+00;  4.0587845E-01; -9.4842392E-01;3;  2.9234365E-03;  0.0000000E+00; -3.6115204E-03;  0.0000000E+00;  0.0000000E+00;  0.0000000E+00;0;  8.1675919E-03;  9.6992897E+01;  0.0000000E+00;  1.0226555E-03;  1.0000000E+02;  0.0000000E+00;  9.9958145E+01;  8.0634952E-03;  0.0000000E+00;  1.0409654E-04;  0.0000000E+00;
  1.4060122E+00;  9.9999998E-03; -6.0005754E-01;244;  3.0661817E-03;  0.0000000E+00; -6.0782600E-05;  9.9914732E+00;  4.0582520E-01; -9.1615236E-01;3; -1.5625053E-03;  0.0000000E+00; -1.3259625E-02;  0.0000000E+00;  0.0000000E+00;  0.0000000E+00;0;  7.8791445E-03;  9.7023682E+01;  0.0000000E+00; -7.2043026E-03;  1.0000000E+02;  0.0000000E+00;  9.9957779E+01;  7.7812662E-03;  0.0000000E+00;  9.7878437E-05;  0.0000000E+00;
  1.4060775E+00;  9.9999998E-03; -4.0016878E-01;245;  4.5901379E-03;  0.0000000E+00; -1.4333587E-04;  9.9915371E+00;  4.0576741E-01; -9.0923572E-01;3;  1.3236326E-04;  0.0000000E+00; -8.9621330E-03;  0.0000000E+00;  0.0000000E+00;  0.0000000E+00;0;  7.8335572E-03;  9.7051773E+01;  0.0000000E+00; -5.9207384E-03;  1.0000000E+02;  0.0000000E+00;  9.9959984E+01;  7.7316719E-03;  0.0000000E+00;  1.0188510E-04;  0.0000000E+00;
  1.4049680E+00;  9.9999998E-03; -2.0012946E-01;246;  4.5903604E-03;  0.0000000E+00; -2.0364078E-04;  9.9917603E+00;  4.0566894E-01; -8.8529038E-01;3;  1.0439386E-03;  0.0000000E+00; -5.6995498E-03;  0.0000000E+00;  0.0000000E+00;  0.0000000E+00;0;  7.6204962E-03;  9.7087097E+01;  0.0000000E+00; -1.3809655E-03;  1.0000000E+02;  0.0000000E+00;  9.9974792E+01;  7.5420234E-03;  0.0000000E+00;  7.8472680E-05;  0.0000000E+00;
  1.6115588E+00;  9.9999998E-03; -1.0002518E+00;253;  6.7266123E-03;  0.0000000E+00; -9.1102513E-05;  9.9911461E+00;  4.0761539E-01; -9.4953835E-01;3; -1.7414743E-02;  0.0000000E+00; -7.6884273E-05;  0.0000000E+00;  0.0000000E+00;  0.0000000E+00;0;  1.0023294E-02;  9.6181175E+01;  0.0000000E+00; -2.6000438E-03;  1.0000000E+02;  0.0000000E+00;  9.9945572E+01;  9.9174418E-03;  0.0000000E+00;  1.0585232E-04;  0.0000000E+00;
  1.6096395E+00;  9.9999998E-03; -8.0005968E-01;254;  5.8910991E-03;  0.0000000E+00; -2.3341132E-05;  9.9911194E+00;  4.0771478E-01; -9.5243806E-01;3; -1.4629567E-03;  0.0000000E+00; -4.4268146E-03;  0.0000000E+00;  0.0000000E+00;  0.0000000E+00;0;  1.0030350E-02;  9.6134239E+01;  0.0000000E+00; -7.2104344E-04;  1.0000000E+02;  0.0000000E+00;  9.9943657E+01;  9.9277450E-03;  0.0000000E+00;  1.0260428E-04;  0.0000000E+00;
  1.6080369E+00;  9.9999998E-03; -5.9989792E-01;255;  4.8541762E-03;  0.0000000E+00; -9.0352605E-06;  9.9910870E+00;  4.0783843E-01; -9.5597327E-01;3;  8.6886925E-04;  0.0000000E+00; -8.5544186E-03;  0.0000000E+00;  0.0000000E+00;  0.0000000E+00;0;  1.0058754E-02;  9.6073273E+01;  0.0000000E+00; -4.1621048E-03;  1.0000000E+02;  0.0000000E+00;  9.9944389E+01;  9.9386089E-03;  0.0000000E+00;  1.2014563E-04;  0.0000000E+00;
  1.6067595E+00;  9.9999998E-03; -3.9992028E-01;256;  4.7871508E-03;  0.0000000E+00; -7.3788287E-05;  9.9910421E+00;  4.0793830E-01; -9.6078324E-01;3;  8.4626733E-04;  0.0000000E+00; -5.6252289E-03;  0.0000000E+00;  0.0000000E+00;  0.0000000E+00;0;  1.0089550E-02;  9.6024094E+01;  0.0000000E+00; -3.0432083E-03;  1.0000000E+02;  0.0000000E+00;  9.9945190E+01;  9.9688135E-03;  0.0000000E+00;  1.2073702E-04;  0.0000000E+00;
  1.6055955E+00;  9.9999998E-03; -1.9993581E-01;257;  4.5645260E-03;  0.0000000E+00; -1.1828695E-04;  9.9910889E+00;  4.0798178E-01; -9.5574671E-01;3;  1.1158200E-03;  0.0000000E+00; -3.1438894E-03;  0.0000000E+00;  0.0000000E+00;  0.0000000E+00;0;  1.0025878E-02;  9.5993637E+01;  0.0000000E+00; -7.4734516E-04;  1.0000000E+02;  0.0000000E+00;  9.9958252E+01;  9.9395178E-03;  0.0000000E+00;  8.6360880E-05;  0.0000000E+00;
  1.8154998E+00;  9.9999998E-03; -1.0004334E+00;264;  8.4929885E-03;  0.0000000E+00; -1.1515761E-04;  9.9913626E+00;  4.0958643E-01; -9.2270988E-01;3; -1.0512348E-02;  0.0000000E+00; -4.0664175E-03;  0.0000000E+00;  0.0000000E+00;  0.0000000E+00;0;  1.1822156E-02;  9.5290970E+01;  0.0000000E+00; -4.4355630E-03;  1.0000000E+02;  0.0000000E+00;  9.9913177E+01;  1.1691023E-02;  0.0000000E+00;  1.3113317E-04;  0.0000000E+00;
  1.8137659E+00;  9.9999998E-03; -8.0010653E-01;265;  8.0093099E-03;  0.0000000E+00; -6.4668652E-06;  9.9910097E+00;  4.1000041E-01; -9.6045095E-01;3; -1.8979590E-03;  0.0000000E+00; -5.2169589E-03;  0.0000000E+00;  0.0000000E+00;  0.0000000E+00;0;  1.2316667E-02;  9.5094948E+01;  0.0000000E+00; -2.4444025E-03;  1.0000000E+02;  0.0000000E+00;  9.9908623E+01;  1.2175540E-02;  0.0000000E+00;  1.4112658E-04;  0.0000000E+00;
  1.8114679E+00;  9.9999998E-03; -5.9978616E-01;266;  6.4388122E-03;  0.0000000E+00;  6.7642046E-05;  9.9906931E+00;  4.1037676E-01; -9.9432606E-01;3;  2.8331049E-05;  0.0000000E+00; -4.7602826E-03;  0.0000000E+00;  0.0000000E+00;  0.0000000E+00;0;  1.2718326E-02;  9.4915802E+01;  0.0000000E+00; -1.6736009E-03;  1.0000000E+02;  0.0000000E+00;  9.9906731E+01;  1.2557685E-02;  0.0000000E+00;  1.6064089E-04;  0.0000000E+00;
  1.8085072E+00;  9.9999998E-03; -3.9960757E-01;267;  5.4031978E-03;  0.0000000E+00;  1.0664140E-04;  9.9904413E+00;  4.1068542E-01; -1.0213449E+00;3;  4.3402016E-04;  0.0000000E+00; -2.8442284E-03;  0.0000000E+00;  0.0000000E+00;  0.0000000E+00;0;  1.3019376E-02;  9.4769524E+01;  0.0000000E+00; -6.8008673E-04;  1.0000000E+02;  0.0000000E+00;  9.9906586E+01;  1.2875076E-02;  0.0000000E+00;  1.4429998E-04;  0.0000000E+00;
  1.8067117E+00;  9.9999998E-03; -1.9976629E-01;268;  4.5590410E-03;  0.0000000E+00;  7.3989337E-05;  9.9902725E+00;  4.1090932E-01; -1.0394182E+00;3;  8.8215823E-04;  0.0000000E+00; -1.0541279E-03;  0.0000000E+00;  0.0000000E+00;  0.0000000E+00;0;  1.3198303E-02;  9.4664467E+01;  0.0000000E+00; -1.8441040E-04;  1.0000000E+02;  0.0000000E+00;  9.9906715E+01;  1.3076793E-02;  0.0000000E+00;  1.2150953E-04;  0.0000000E+00;
  2.0214427E+00;  9.9999998E-03; -1.0008852E+00;275;  1.3285737E-02;  0.0000000E+00; -2.4699915E-04;  9.9914188E+00;  4.1193554E-01; -9.0905797E-01;3; -3.1121131E-03;  0.0000000E+00; -3.0713414E-03;  0.0000000E+00;  0.0000000E+00;  0.0000000E+00;0;  1.4118083E-02;  9.4281425E+01;  0.0000000E+00; -7.0923236E-03;  1.0000000E+02;  0.0000000E+00;  9.9836571E+01;  1.3866587E-02;  0.0000000E+00;  2.5149598E-04;  0.0000000E+00;
  2.0223742E+00;  9.9999998E-03; -8.0034065E-01;276;  1.1882628E-02;  0.0000000E+00; -5.8887170E-05;  9.9909353E+00;  4.1259983E-01; -9.6021515E-01;3;  5.0033629E-04;  0.0000000E+00; -3.4201825E-03;  0.0000000E+00;  0.0000000E+00;  0.0000000E+00;0;  1.4921121E-02;  9.3971916E+01;  0.0000000E+00; -8.7096309E-03;  1.0000000E+02;  0.0000000E+00;  9.9831581E+01;  1.4653943E-02;  0.0000000E+00;  2.6717922E-04;  0.0000000E+00;
  2.0200160E+00;  9.9999998E-03; -5.9973973E-01;277;  1.1850602E-02;  0.0000000E+00;  5.2681884E-05;  9.9903545E+00;  4.1318849E-01; -1.0218499E+00;3; -7.8719028E-04;  0.0000000E+00; -2.1709416E-03;  0.0000000E+00;  0.0000000E+00;  0.0000000E+00;0;  1.5839403E-02;  9.3700439E+01;  0.0000000E+00; -2.3783071E-03;  1.0000000E+02;  0.0000000E+00;  9.9826881E+01;  1.5501573E-02;  0.0000000E+00;  3.3783141E-04;  0.0000000E+00;
  2.0130217E+00;  9.9999998E-03; -3.9934558E-01;278;  7.0072114E-03;  0.0000000E+00;  3.0380505E-04;  9.9899569E+00;  4.1371834E-01; -1.0644505E+00;3; -2.3712823E-04;  0.0000000E+00; -9.6194766E-04;  0.0000000E+00;  0.0000000E+00;  0.0000000E+00;0;  1.6390005E-02;  9.3465416E+01;  0.0000000E+00; -1.0965594E-04;  1.0000000E+02;  0.0000000E+00;  9.9812210E+01;  1.6132833E-02;  0.0000000E+00;  2.5717088E-04;  0.0000000E+00;
  2.0107393E+00;  9.9999998E-03; -1.9964479E-01;279;  5.7895738E-03;  0.0000000E+00;  1.9048495E-04;  9.9896221E+00;  4.1413763E-01; -1.1000289E+00;3; -1.5806152E-05;  0.0000000E+00; -1.9186897E-04;  0.0000000E+00;  0.0000000E+00;  0.0000000E+00;0;  1.6901512E-02;  9.3289093E+01;  0.0000000E+00; -4.3634987E-05;  1.0000000E+02;  0.0000000E+00;  9.9792236E+01;  1.6626522E-02;  0.0000000E+00;  2.7498964E-04;  0.0000000E+00;
  2.2306569E+00;  9.9999998E-03; -1.0017989E+00;286;  1.5474568E-02;  0.0000000E+00; -5.2765297E-04;  9.9916220E+00;  4.1450408E-01; -8.7266582E-01;3; -6.7957141E-04;  0.0000000E+00; -7.9799088E-04;  0.0000000E+00;  0.0000000E+00;  0.0000000E+00;0;  1.6366739E-02;  9.3275398E+01;  0.0000000E+00; -6.5356465E-03;  1.0000000E+02;  0.0000000E+00;  9.9669556E+01;  1.5885876E-02;  0.0000000E+00;  4.8086318E-04;  0.0000000E+00;
  2.2295828E+00;  9.9999998E-03; -8.0097324E-01;287;  1.6148934E-02;  0.0000000E+00; -2.1330960E-04;  9.9910774E+00;  4.1515875E-01; -9.2951870E-01;3;  1.2697070E-03;  0.0000000E+00; -7.5882749E-04;  0.0000000E+00;  0.0000000E+00;  0.0000000E+00;0;  1.7441280E-02;  9.2977867E+01;  0.0000000E+00; -2.4714561E-03;  1.0000000E+02;  0.0000000E+00;  9.9662819E+01;  1.6933782E-02;  0.0000000E+00;  5.0749845E-04;  0.0000000E+00;
  2.2277713E+00;  9.9999998E-03; -6.0001624E-01;288;  1.5008711E-02;  0.0000000E+00;  1.2292192E-04;  9.9904575E+00;  4.1587231E-01; -9.9428725E-01;3;  1.1324855E-03;  0.0000000E+00; -3.2386382E-04;  0.0000000E+00;  0.0000000E+00;  0.0000000E+00;0;  1.8630616E-02;  9.2652283E+01;  0.0000000E+00; -5.2557298E-04;  1.0000000E+02;  0.0000000E+00;  9.9655899E+01;  1.8083297E-02;  0.0000000E+00;  5.4731988E-04;  0.0000000E+00;
  2.2264574E+00;  9.9999998E-03; -3.9935750E-01;289;  1.3016433E-02;  0.0000000E+00;  3.7334755E-04;  9.9898624E+00;  4.1661921E-01; -1.0564153E+00;3; -1.6047417E-03;  0.0000000E+00; -4.7648253E-05;  0.0000000E+00;  0.0000000E+00;  0.0000000E+00;0;  1.9767836E-02;  9.2345482E+01;  0.0000000E+00; -8.2675579E-05;  1.0000000E+02;  0.0000000E+00;  9.9620026E+01;  1.9175343E-02;  0.0000000E+00;  5.9249211E-04;  0.0000000E+00;
  2.2256553E+00;  9.9999998E-03; -1.9964267E-01;290;  1.1358183E-02;  0.0000000E+00;  2.0618511E-04;  9.9894352E+00;  4.1717440E-01; -1.1010441E+00;3; -2.5495426E-03;  0.0000000E+00;  1.0148578E-04;  0.0000000E+00;  0.0000000E+00;  0.0000000E+00;0;  2.0606957E-02;  9.2125183E+01;  0.0000000E+00; -5.3972385E-06;  1.0000000E+02;  0.0000000E+00;  9.9582375E+01;  1.9955924E-02;  0.0000000E+00;  6.5103435E-04;  0.0000000E+00;
  2.4311581E+00;  9.9999998E-03; -1.0033448E+00;297;  1.5447733E-02;  0.0000000E+00; -1.0706398E-03;  9.9915237E+00;  4.1740739E-01; -8.5907334E-01;3;  1.3345131E-04;  0.0000000E+00;  2.1207343E-04;  0.0000000E+00;  0.0000000E+00;  0.0000000E+00;0;  1.9328985E-02;  9.2261658E+01;  0.0000000E+00;  6.6042721E-04;  1.0000000E+02;  0.0000000E+00;  9.9366737E+01;  1.8353526E-02;  0.0000000E+00;  9.7546034E-04;  0.0000000E+00;
  2.4324722E+00;  9.9999998E-03; -8.0221766E-01;298;  1.6107997E-02;  0.0000000E+00; -6.2459591E-04;  9.9911070E+00;  4.1794464E-01; -9.0110457E-01;3;  1.4248440E-03;  0.0000000E+00;  4.7823958E-04;  0.0000000E+00;  0.0000000E+00;  0.0000000E+00;0;  2.0328416E-02;  9.2027519E+01;  0.0000000E+00;  6.7456574E-05;  1.0000000E+02;  0.0000000E+00;  9.9355156E+01;  1.9288447E-02;  0.0000000E+00;  1.0399690E-03;  0.0000000E+00;
  2.4360545E+00;  9.9999998E-03; -6.0092056E-01;299;  1.8265925E-02;  0.0000000E+00; -8.4860701E-05;  9.9906311E+00;  4.1854161E-01; -9.4873989E-01;3;  5.4064440E-04;  0.0000000E+00;  5.8190030E-04;  0.0000000E+00;  0.0000000E+00;  0.0000000E+00;0;  2.1452544E-02;  9.1765800E+01;  0.0000000E+00;  3.8206399E-06;  1.0000000E+02;  0.0000000E+00;  9.9344757E+01;  2.0369284E-02;  0.0000000E+00;  1.0832605E-03;  0.0000000E+00;
  2.4409392E+00;  9.9999998E-03; -3.9974803E-01;300;  2.1591814E-02;  0.0000000E+00;  2.9061508E-04;  9.9901714E+00;  4.1915116E-01; -9.9453163E-01;3;  5.0767376E-05;  0.0000000E+00;  1.0068445E-04;  0.0000000E+00;  0.0000000E+00;  0.0000000E+00;0;  2.2608180E-02;  9.1519920E+01;  0.0000000E+00;  6.0294456E-06;  1.0000000E+02;  0.0000000E+00;  9.9313705E+01;  2.1398220E-02;  0.0000000E+00;  1.2099588E-03;  0.0000000E+00;
  2.4444690E+00;  9.9999998E-03; -1.9977504E-01;301;  2.3625832E-02;  0.0000000E+00;  2.0763707E-04;  9.9898443E+00;  4.1964898E-01; -1.0269768E+00;3;  4.2107924E-05;  0.0000000E+00;  3.9511808E-05;  0.0000000E+00;  0.0000000E+00;  0.0000000E+00;0;  2.3458425E-02;  9.1342728E+01;  0.0000000E+00; -1.0668947E-06;  1.0000000E+02;  0.0000000E+00;  9.9260551E+01;  2.2142157E-02;  0.0000000E+00;  1.3162686E-03;  0.0000000E+00;
  2.6351018E+00;  9.9999998E-03; -1.0056576E+00;308;  1.5417154E-02;  0.0000000E+00; -2.0247586E-03;  9.9910221E+00;  4.2116639E-01; -8.7675697E-01;3;  2.8301612E-04;  0.0000000E+00;  5.0047750E-04;  0.0000000E+00;  0.0000000E+00;  0.0000000E+00;0;  2.3653615E-02;  9.1050957E+01;  0.0000000E+00;  5.7225430E-04;  1.0000000E+02;  0.0000000E+00;  9.8888451E+01;  2.1710290E-02;  0.0000000E+00;  1.9433256E-03;  0.0000000E+00;
  2.6386657E+00;  9.9999998E-03; -8.0420429E-01;309;  1.7927781E-02;  0.0000000E+00; -1.4045956E-03;  9.9908476E+00;  4.2137900E-01; -8.9320558E-01;3;  8.8371465E-04;  0.0000000E+00;  5.0110166E-04;  0.0000000E+00;  0.0000000E+00;  0.0000000E+00;0;  2.4171943E-02;  9.0965347E+01;  0.0000000E+00;  1.4151385E-04;  1.0000000E+02;  0.0000000E+00;  9.8878181E+01;  2.2181105E-02;  0.0000000E+00;  1.9908373E-03;  0.0000000E+00;
  2.6434202E+00;  9.9999998E-03; -6.0262316E-01;310;  2.1766098E-02;  0.0000000E+00; -7.3561503E-04;  9.9906549E+00;  4.2160052E-01; -9.1116887E-01;3;  5.6278514E-04;  0.0000000E+00;  4.4331595E-04;  0.0000000E+00;  0.0000000E+00;  0.0000000E+00;0;  2.4794584E-02;  9.0869370E+01;  0.0000000E+00;  9.4584721E-05;  1.0000000E+02;  0.0000000E+00;  9.8875397E+01;  2.2728413E-02;  0.0000000E+00;  2.0661708E-03;  0.0000000E+00;
  2.6490080E+00;  9.9999998E-03; -4.0087527E-01;311;  2.5935659E-02;  0.0000000E+00; -2.5970086E-05;  9.9904747E+00;  4.2179036E-01; -9.2779100E-01;3;  2.4554401E-03;  0.0000000E+00; -7.9269579E-05;  0.0000000E+00;  0.0000000E+00;  0.0000000E+00;0;  2.5368663E-02;  9.0779182E+01;  0.0000000E+00;  6.0333991E-06;  1.0000000E+02;  0.0000000E+00;  9.8878273E+01;  2.3245871E-02;  0.0000000E+00;  2.1227917E-03;  0.0000000E+00;
  2.6538923E+00;  9.9999998E-03; -1.9999576E-01;312;  2.9550144E-02;  0.0000000E+00;  1.4202255E-04;  9.9903231E+00;  4.2200822E-01; -9.4166178E-01;3;  2.1729376E-03;  0.0000000E+00;  2.1290719E-04;  0.0000000E+00;  0.0000000E+00;  0.0000000E+00;0;  2.5856238E-02;  9.0716736E+01;  0.0000000E+00; -9.6524964E-06;  1.0000000E+02;  0.0000000E+00;  9.8841537E+01;  2.3606349E-02;  0.0000000E+00;  2.2498881E-03;  0.0000000E+00;
  2.8458688E+00;  9.9999998E-03; -1.0085740E+00;319;  2.0715978E-02;  0.0000000E+00; -3.4549178E-03;  9.9902487E+00;  4.2581356E-01; -9.1705537E-01;3; -1.1189055E-03;  0.0000000E+00;  6.1032508E-04;  0.0000000E+00;  0.0000000E+00;  0.0000000E+00;0;  2.9443040E-02;  8.9616982E+01;  0.0000000E+00; -6.9258903E-04;  1.0000000E+02;  0.0000000E+00;  9.8274345E+01;  2.5951253E-02;  0.0000000E+00;  3.4917865E-03;  0.0000000E+00;
  2.8481917E+00;  9.9999998E-03; -8.0671531E-01;320;  2.2141045E-02;  0.0000000E+00; -2.5599715E-03;  9.9903402E+00;  4.2561987E-01; -9.0808928E-01;3; -1.0210006E-03;  0.0000000E+00; -3.2675377E-04;  0.0000000E+00;  0.0000000E+00;  0.0000000E+00;0;  2.9177113E-02;  8.9689018E+01;  0.0000000E+00; -5.2676670E-04;  1.0000000E+02;  0.0000000E+00;  9.8287125E+01;  2.5813904E-02;  0.0000000E+00;  3.3632095E-03;  0.0000000E+00;
  2.8510408E+00;  9.9999998E-03; -6.0487229E-01;321;  2.4903158E-02;  0.0000000E+00; -1.9036013E-03;  9.9903536E+00;  4.2539719E-01; -9.0644968E-01;3;  1.7932311E-03;  0.0000000E+00;  8.4392703E-04;  0.0000000E+00;  0.0000000E+00;  0.0000000E+00;0;  2.9198270E-02;  8.9770172E+01;  0.0000000E+00; -7.9925121E-05;  1.0000000E+02;  0.0000000E+00;  9.8299599E+01;  2.5667200E-02;  0.0000000E+00;  3.5310714E-03;  0.0000000E+00;
  2.8550353E+00;  9.9999998E-03; -4.0294138E-01;322;  2.8742053E-02;  0.0000000E+00; -7.8025681E-04;  9.9904795E+00;  4.2517179E-01; -8.9407223E-01;3;  2.3760023E-03;  0.0000000E+00; -6.7272043E-04;  0.0000000E+00;  0.0000000E+00;  0.0000000E+00;0;  2.8917380E-02;  8.9846466E+01;  0.0000000E+00;  2.8421819E-05;  1.0000000E+02;  0.0000000E+00;  9.8322510E+01;  2.5547998E-02;  0.0000000E+00;  3.3693819E-03;  0.0000000E+00;
  2.8584683E+00;  9.9999998E-03; -2.0082492E-01;323;  3.1438597E-02;  0.0000000E+00;  1.9294032E-05;  9.9905157E+00;  4.2500868E-01; -8.9018208E-01;3;  3.6304693E-03;  0.0000000E+00;  3.0921851E-07;  0.0000000E+00;  0.0000000E+00;  0.0000000E+00;0;  2.8868612E-02;  8.9902817E+01;  0.0000000E+00;  1.0143909E-05;  1.0000000E+02;  0.0000000E+00;  9.8338234E+01;  2.5465142E-02;  0.0000000E+00;  3.4034709E-03;  0.0000000E+00;
  3.0605676E+00;  9.9999998E-03; -1.0116584E+00;330;  2.9095355E-02;  0.0000000E+00; -5.1415940E-03;  9.9894953E+00;  4.3095216E-01; -9.6110088E-01;3;  1.8417068E-04;  0.0000000E+00; -6.5835734E-04;  0.0000000E+00;  0.0000000E+00;  0.0000000E+00;0;  3.5915572E-02;  8.8050964E+01;  0.0000000E+00; -9.1604039E-04;  1.0000000E+02;  0.0000000E+00;  9.7637444E+01;  3.0591687E-02;  0.0000000E+00;  5.3238841E-03;  0.0000000E+00;
  3.0611532E+00;  9.9999998E-03; -8.0936849E-01;331;  2.9403109E-02;  0.0000000E+00; -4.0315101E-03;  9.9897184E+00;  4.3045515E-01; -9.4065166E-01;3; -1.4714010E-04;  0.0000000E+00;  7.4628263E-04;  0.0000000E+00;  0.0000000E+00;  0.0000000E+00;0;  3.5091415E-02;  8.8227295E+01;  0.0000000E+00; -6.9410005E-04;  1.0000000E+02;  0.0000000E+00;  9.7671135E+01;  2.9994592E-02;  0.0000000E+00;  5.0968244E-03;  0.0000000E+00;
  3.0618689E+00;  9.9999998E-03; -6.0715204E-01;332;  3.0211456E-02;  0.0000000E+00; -3.1964674E-03;  9.9899092E+00;  4.2989498E-01; -9.2313766E-01;3;  8.0170184E-06;  0.0000000E+00;  1.0706676E-03;  0.0000000E+00;  0.0000000E+00;  0.0000000E+00;0;  3.4463279E-02;  8.8423706E+01;  0.0000000E+00; -2.1379402E-04;  1.0000000E+02;  0.0000000E+00;  9.7710762E+01;  2.9330861E-02;  0.0000000E+00;  5.1324181E-03;  0.0000000E+00;
  3.0633531E+00;  9.9999998E-03; -4.0486184E-01;333;  3.1847529E-02;  0.0000000E+00; -1.7047577E-03;  9.9902048E+00;  4.2936045E-01; -8.9596349E-01;3;  8.3213107E-04;  0.0000000E+00; -2.3459888E-03;  0.0000000E+00;  0.0000000E+00;  0.0000000E+00;0;  3.3507839E-02;  8.8607750E+01;  0.0000000E+00;  1.1758007E-05;  1.0000000E+02;  0.0000000E+00;  9.7756454E+01;  2.8724549E-02;  0.0000000E+00;  4.7832900E-03;  0.0000000E+00;
  3.0649371E+00;  9.9999998E-03; -2.0254038E-01;334;  3.3671673E-02;  0.0000000E+00; -4.7071942E-04;  9.9903440E+00;  4.2898563E-01; -8.8307106E-01;3;  2.0180042E-03;  0.0000000E+00; -4.8944647E-05;  0.0000000E+00;  0.0000000E+00;  0.0000000E+00;0;  3.3048254E-02;  8.8741714E+01;  0.0000000E+00;  1.8188008E-05;  1.0000000E+02;  0.0000000E+00;  9.7782486E+01;  2.8296137E-02;  0.0000000E+00;  4.7521172E-03;  0.0000000E+00;
  3.2779827E+00;  9.9999998E-03; -1.0144819E+00;341;  3.8587935E-02;  0.0000000E+00; -6.6438280E-03;  9.9890757E+00;  4.3590519E-01; -9.8410797E-01;3;  1.1933123E-03;  0.0000000E+00; -2.3766179E-03;  0.0000000E+00;  0.0000000E+00;  0.0000000E+00;0;  4.1662689E-02;  8.6545433E+01;  0.0000000E+00;  3.0891004E-04;  1.0000000E+02;  0.0000000E+00;  9.7082855E+01;  3.4846887E-02;  0.0000000E+00;  6.8158037E-03;  0.0000000E+00;
  3.2772710E+00;  9.9999998E-03; -8.1175894E-01;342;  3.8191151E-02;  0.0000000E+00; -5.3967983E-03;  9.9892778E+00;  4.3533215E-01; -9.6593940E-01;3;  7.2922569E-04;  0.0000000E+00;  6.1931688E-04;  0.0000000E+00;  0.0000000E+00;  0.0000000E+00;0;  4.0790401E-02;  8.6740257E+01;  0.0000000E+00;  4.3755412E-04;  1.0000000E+02;  0.0000000E+00;  9.7123459E+01;  3.4129467E-02;  0.0000000E+00;  6.6609345E-03;  0.0000000E+00;
  3.2765689E+00;  9.9999998E-03; -6.0916269E-01;343;  3.8136076E-02;  0.0000000E+00; -4.3583373E-03;  9.9894962E+00;  4.3469378E-01; -9.4626564E-01;3;  6.4639508E-04;  0.0000000E+00;  1.3773101E-03;  0.0000000E+00;  0.0000000E+00;  0.0000000E+00;0;  3.9939947E-02;  8.6957115E+01;  0.0000000E+00;  3.9361074E-04;  1.0000000E+02;  0.0000000E+00;  9.7169365E+01;  3.3327177E-02;  0.0000000E+00;  6.6127707E-03;  0.0000000E+00;
  3.2763588E+00;  9.9999998E-03; -4.0659842E-01;344;  3.8564131E-02;  0.0000000E+00; -2.8145593E-03;  9.9897900E+00;  4.3409440E-01; -9.1985577E-01;3;  9.5023599E-04;  0.0000000E+00; -3.8712460E-05;  0.0000000E+00;  0.0000000E+00;  0.0000000E+00;0;  3.8838632E-02;  8.7161552E+01;  0.0000000E+00;  2.5210268E-04;  1.0000000E+02;  0.0000000E+00;  9.7215034E+01;  3.2570034E-02;  0.0000000E+00;  6.2685991E-03;  0.0000000E+00;
  3.2763393E+00;  9.9999998E-03; -2.0393984E-01;345;  3.9119314E-02;  0.0000000E+00; -1.7979925E-03;  9.9899435E+00;  4.3365276E-01; -9.0600240E-01;3;  1.4748005E-03;  0.0000000E+00; -2.2317690E-04;  0.0000000E+00;  0.0000000E+00;  0.0000000E+00;0;  3.8254645E-02;  8.7311630E+01;  0.0000000E+00;  7.5399039E-05;  1.0000000E+02;  0.0000000E+00;  9.7248802E+01;  3.2014564E-02;  0.0000000E+00;  6.2400796E-03;  0.0000000E+00;
  3.4967623E+00;  9.9999998E-03; -1.0168160E+00;352;  4.8123427E-02;  0.0000000E+00; -7.7931210E-03;  9.9890203E+00;  4.4012091E-01; -9.8175657E-01;3;  1.8380666E-03;  0.0000000E+00; -2.6540570E-03;  0.0000000E+00;  0.0000000E+00;  0.0000000E+00;0;  4.5905050E-02;  8.5270172E+01;  0.0000000E+00;  1.0351137E-03;  1.0000000E+02;  0.0000000E+00;  9.6655304E+01;  3.8089998E-02;  0.0000000E+00;  7.8150509E-03;  0.0000000E+00;
  3.4954965E+00;  9.9999998E-03; -8.1368166E-01;353;  4.7570951E-02;  0.0000000E+00; -6.4253705E-03;  9.9891329E+00;  4.3968296E-01; -9.7171116E-01;3;  1.5689399E-03;  0.0000000E+00;  4.9761200E-04;  0.0000000E+00;  0.0000000E+00;  0.0000000E+00;0;  4.5358747E-02;  8.5413925E+01;  0.0000000E+00;  1.4887025E-03;  1.0000000E+02;  0.0000000E+00;  9.6686562E+01;  3.7560221E-02;  0.0000000E+00;  7.7985278E-03;  0.0000000E+00;
  3.4941261E+00;  9.9999998E-03; -6.1066765E-01;354;  4.7227975E-02;  0.0000000E+00; -5.2160388E-03;  9.9892712E+00;  4.3919060E-01; -9.5937562E-01;3;  1.6437911E-03;  0.0000000E+00;  1.3489474E-03;  0.0000000E+00;  0.0000000E+00;  0.0000000E+00;0;  4.4751346E-02;  8.5576294E+01;  0.0000000E+00;  1.0990259E-03;  1.0000000E+02;  0.0000000E+00;  9.6722229E+01;  3.6956355E-02;  0.0000000E+00;  7.7949916E-03;  0.0000000E+00;
  3.4929597E+00;  9.9999998E-03; -4.0770030E-01;355;  4.7011588E-02;  0.0000000E+00; -3.7354471E-03;  9.9894629E+00;  4.3872079E-01; -9.4223815E-01;3;  1.8016153E-03;  0.0000000E+00;  6.5492059E-04;  0.0000000E+00;  0.0000000E+00;  0.0000000E+00;0;  4.3943308E-02;  8.5732452E+01;  0.0000000E+00;  5.3721736E-04;  1.0000000E+02;  0.0000000E+00;  9.6756134E+01;  3.6365665E-02;  0.0000000E+00;  7.5776419E-03;  0.0000000E+00;
  3.4919188E+00;  9.9999998E-03; -2.0459016E-01;356;  4.6733066E-02;  0.0000000E+00; -2.4960281E-03;  9.9895821E+00;  4.3836266E-01; -9.3160009E-01;3;  1.8788102E-03;  0.0000000E+00; -3.5009661E-04;  0.0000000E+00;  0.0000000E+00;  0.0000000E+00;0;  4.3428816E-02;  8.5848961E+01;  0.0000000E+00;  1.3603998E-04;  1.0000000E+02;  0.0000000E+00;  9.6785324E+01;  3.5914436E-02;  0.0000000E+00;  7.5143813E-03;  0.0000000E+00;
  3.7158017E+00;  9.9999998E-03; -1.0186598E+00;363;  5.7306144E-02;  0.0000000E+00; -8.5864589E-03;  9.9892054E+00;  4.4349405E-01; -9.6200389E-01;3;  2.3511690E-03;  0.0000000E+00; -2.2074697E-03;  0.0000000E+00;  0.0000000E+00;  0.0000000E+00;0;  4.8618630E-02;  8.4254387E+01;  0.0000000E+00;  7.0491782E-04;  1.0000000E+02;  0.0000000E+00;  9.6341110E+01;  4.0223263E-02;  0.0000000E+00;  8.3953645E-03;  0.0000000E+00;
  3.7146025E+00;  9.9999998E-03; -8.1514102E-01;364;  5.6999043E-02;  0.0000000E+00; -7.1100472E-03;  9.9892111E+00;  4.4327030E-01; -9.6153694E-01;3;  2.5252085E-03;  0.0000000E+00;  8.0796593E-04;  0.0000000E+00;  0.0000000E+00;  0.0000000E+00;0;  4.8545264E-02;  8.4325790E+01;  0.0000000E+00;  1.3907392E-03;  1.0000000E+02;  0.0000000E+00;  9.6356644E+01;  4.0009510E-02;  0.0000000E+00;  8.5357549E-03;  0.0000000E+00;
  3.7131865E+00;  9.9999998E-03; -6.1166745E-01;365;  5.6722850E-02;  0.0000000E+00; -5.7074856E-03;  9.9892483E+00;  4.4300720E-01; -9.5820338E-01;3;  2.8769404E-03;  0.0000000E+00;  1.0339878E-03;  0.0000000E+00;  0.0000000E+00;  0.0000000E+00;0;  4.8363041E-02;  8.4410095E+01;  0.0000000E+00;  1.0582516E-03;  1.0000000E+02;  0.0000000E+00;  9.6375893E+01;  3.9749652E-02;  0.0000000E+00;  8.6133899E-03;  0.0000000E+00;
  3.7117555E+00;  9.9999998E-03; -4.0811601E-01;366;  5.6299780E-02;  0.0000000E+00; -4.1693221E-03;  9.9893217E+00;  4.4273713E-01; -9.5168269E-01;3;  3.0533683E-03;  0.0000000E+00;  9.4764677E-05;  0.0000000E+00;  0.0000000E+00;  0.0000000E+00;0;  4.8014108E-02;  8.4495354E+01;  0.0000000E+00;  4.8418468E-04;  1.0000000E+02;  0.0000000E+00;  9.6396744E+01;  3.9478071E-02;  0.0000000E+00;  8.5360371E-03;  0.0000000E+00;
  3.7102718E+00;  9.9999998E-03; -2.0421295E-01;367;  5.5602532E-02;  0.0000000E+00; -2.2701791E-03;  9.9893913E+00;  4.4251984E-01; -9.4548106E-01;3;  2.8986954E-03;  0.0000000E+00; -3.9788903E-04;  0.0000000E+00;  0.0000000E+00;  0.0000000E+00;0;  4.7689237E-02;  8.4562302E+01;  0.0000000E+00;  1.1112728E-04;  1.0000000E+02;  0.0000000E+00;  9.6416313E+01;  3.9256454E-02;  0.0000000E+00;  8.4327832E-03;  0.0000000E+00;
  3.9342651E+00;  9.9999998E-03; -1.0201631E+00;374;  6.6090196E-02;  0.0000000E+00; -9.1153681E-03;  9.9894190E+00;  4.4637924E-01; -9.4166231E-01;3;  3.0205357E-03;  0.0000000E+00; -1.3731084E-03;  0.0000000E+00;  0.0000000E+00;  0.0000000E+00;0;  5.0374608E-02;  8.3387527E+01;  0.0000000E+00;  4.1275148E-04;  1.0000000E+02;  0.0000000E+00;  9.6091835E+01;  4.1647952E-02;  0.0000000E+00;  8.7266564E-03;  0.0000000E+00;
  3.9335020E+00;  9.9999998E-03; -8.1630367E-01;375;  6.6144846E-02;  0.0000000E+00; -7.5572385E-03;  9.9893465E+00;  4.4629803E-01; -9.4813675E-01;3;  3.5861842E-03;  0.0000000E+00;  1.2819474E-03;  0.0000000E+00;  0.0000000E+00;  0.0000000E+00;0;  5.0705712E-02;  8.3411957E+01;  0.0000000E+00;  7.7393884E-04;  1.0000000E+02;  0.0000000E+00;  9.6096764E+01;  4.1691873E-02;  0.0000000E+00;  9.0138400E-03;  0.0000000E+00;
  3.9325378E+00;  9.9999998E-03; -6.1238146E-01;376;  6.6126935E-02;  0.0000000E+00; -5.9709065E-03;  9.9893131E+00;  4.4620153E-01; -9.5111102E-01;3;  4.1493755E-03;  0.0000000E+00;  3.3008034E-04;  0.0000000E+00;  0.0000000E+00;  0.0000000E+00;0;  5.0889947E-02;  8.3440514E+01;  0.0000000E+00;  5.5747863E-04;  1.0000000E+02;  0.0000000E+00;  9.6105270E+01;  4.1728806E-02;  0.0000000E+00;  9.1611398E-03;  0.0000000E+00;
  3.9315007E+00;  9.9999998E-03; -4.0817848E-01;377;  6.5900959E-02;  0.0000000E+00; -4.1690376E-03;  9.9893131E+00;  4.4608966E-01; -9.5111501E-01;3;  4.4314107E-03;  0.0000000E+00; -5.4443319E-04;  0.0000000E+00;  0.0000000E+00;  0.0000000E+00;0;  5.0893448E-02;  8.3472298E+01;  0.0000000E+00;  2.2993420E-04;  1.0000000E+02;  0.0000000E+00;  9.6116814E+01;  4.1749686E-02;  0.0000000E+00;  9.1437604E-03;  0.0000000E+00;
  3.9302893E+00;  9.9999998E-03; -2.0317875E-01;378;  6.5338694E-02;  0.0000000E+00; -1.4907329E-03;  9.9893341E+00;  4.4598866E-01; -9.4921005E-01;3;  4.3256367E-03;  0.0000000E+00; -2.9916738E-04;  0.0000000E+00;  0.0000000E+00;  0.0000000E+00;0;  5.0780565E-02;  8.3500114E+01;  0.0000000E+00;  4.5975416E-05;  1.0000000E+02;  0.0000000E+00;  9.6128960E+01;  4.1753069E-02;  0.0000000E+00;  9.0274978E-03;  0.0000000E+00;
  4.1513896E+00;  9.9999998E-03; -1.0214933E+00;385;  7.4305601E-02;  0.0000000E+00; -9.5121115E-03;  9.9894753E+00;  4.4926754E-01; -9.3612283E-01;3;  4.0904521E-03;  0.0000000E+00; -4.5259847E-05;  0.0000000E+00;  0.0000000E+00;  0.0000000E+00;0;  5.1925898E-02;  8.2520744E+01;  0.0000000E+00;  2.1548782E-04;  1.0000000E+02;  0.0000000E+00;  9.5856773E+01;  4.2914864E-02;  0.0000000E+00;  9.0110330E-03;  0.0000000E+00;
  4.1513495E+00;  9.9999998E-03; -8.1738341E-01;386;  7.4715555E-02;  0.0000000E+00; -7.9184230E-03;  9.9893723E+00;  4.4919121E-01; -9.4524139E-01;3;  4.7561554E-03;  0.0000000E+00;  1.6521799E-03;  0.0000000E+00;  0.0000000E+00;  0.0000000E+00;0;  5.2466799E-02;  8.2542747E+01;  0.0000000E+00;  3.2551313E-04;  1.0000000E+02;  0.0000000E+00;  9.5862053E+01;  4.3060020E-02;  0.0000000E+00;  9.4067799E-03;  0.0000000E+00;
  4.1513042E+00;  9.9999998E-03; -6.1314529E-01;387;  7.5119898E-02;  0.0000000E+00; -6.1825905E-03;  9.9893188E+00;  4.4912139E-01; -9.5001268E-01;3;  5.3546075E-03;  0.0000000E+00; -5.8829325E-04;  0.0000000E+00;  0.0000000E+00;  0.0000000E+00;0;  5.2783165E-02;  8.2561066E+01;  0.0000000E+00;  2.3516685E-04;  1.0000000E+02;  0.0000000E+00;  9.5870209E+01;  4.3229960E-02;  0.0000000E+00;  9.5532052E-03;  0.0000000E+00;
  4.1513324E+00;  9.9999998E-03; -4.0847838E-01;388;  7.5500153E-02;  0.0000000E+00; -4.1044699E-03;  9.9892893E+00;  4.4905022E-01; -9.5266336E-01;3;  5.7834978E-03;  0.0000000E+00; -6.3255796E-04;  0.0000000E+00;  0.0000000E+00;  0.0000000E+00;0;  5.2927863E-02;  8.2579002E+01;  0.0000000E+00;  9.5770680E-05;  1.0000000E+02;  0.0000000E+00;  9.5878784E+01;  4.3395631E-02;  0.0000000E+00;  9.5322328E-03;  0.0000000E+00;
  4.1511631E+00;  9.9999998E-03; -2.0261268E-01;389;  7.5689398E-02;  0.0000000E+00; -9.5719134E-04;  9.9892845E+00;  4.4899005E-01; -9.5308769E-01;3;  6.0114688E-03;  0.0000000E+00;  1.5864731E-05;  0.0000000E+00;  0.0000000E+00;  0.0000000E+00;0;  5.2953210E-02;  8.2593689E+01;  0.0000000E+00;  1.8922814E-05;  1.0000000E+02;  0.0000000E+00;  9.5887856E+01;  4.3520447E-02;  0.0000000E+00;  9.4327619E-03;  0.0000000E+00;
  4.3717442E+00;  9.9999998E-03; -2.0356703E-01;400;  8.5971646E-02;  0.0000000E+00; -1.3050982E-03;  9.9891558E+00;  4.5163980E-01; -9.6429610E-01;3;  7.8691607E-03;  0.0000000E+00;  3.7094380E-04;  0.0000000E+00;  0.0000000E+00;  0.0000000E+00;0;  5.4426420E-02;  8.1807381E+01;  0.0000000E+00;  2.3733943E-05;  1.0000000E+02;  0.0000000E+00;  9.5674423E+01;  4.4683207E-02;  0.0000000E+00;  9.7432127E-03;  0.0000000E+00;
  4.3683763E+00;  9.9999998E-03; -8.1844246E-01;397;  8.2759045E-02;  0.0000000E+00; -8.2519241E-03;  9.9892139E+00;  4.5205456E-01; -9.5910430E-01;3;  6.0154404E-03;  0.0000000E+00;  1.7312391E-03;  0.0000000E+00;  0.0000000E+00;  0.0000000E+00;0;  5.4076336E-02;  8.1689278E+01;  0.0000000E+00; -5.1152945E-04;  1.0000000E+02;  0.0000000E+00;  9.5637749E+01;  4.4299230E-02;  0.0000000E+00;  9.7771054E-03;  0.0000000E+00;
  4.3694324E+00;  9.9999998E-03; -6.1413312E-01;398;  8.3652414E-02;  0.0000000E+00; -6.4456281E-03;  9.9891844E+00;  4.5188048E-01; -9.6175367E-01;3;  6.5135215E-03;  0.0000000E+00; -1.3733025E-03;  0.0000000E+00;  0.0000000E+00;  0.0000000E+00;0;  5.4282207E-02;  8.1737480E+01;  0.0000000E+00; -8.3815132E-05;  1.0000000E+02;  0.0000000E+00;  9.5654167E+01;  4.4430241E-02;  0.0000000E+00;  9.8519651E-03;  0.0000000E+00;
  4.3706779E+00;  9.9999998E-03; -4.0943027E-01;399;  8.4776811E-02;  0.0000000E+00; -4.2928383E-03;  9.9891634E+00;  4.5173621E-01; -9.6360779E-01;3;  7.1352376E-03;  0.0000000E+00; -3.2012598E-04;  0.0000000E+00;  0.0000000E+00;  0.0000000E+00;0;  5.4373831E-02;  8.1779243E+01;  0.0000000E+00;  3.3072414E-05;  1.0000000E+02;  0.0000000E+00;  9.5666138E+01;  4.4568129E-02;  0.0000000E+00;  9.8057026E-03;  0.0000000E+00;
  4.3676353E+00;  9.9999998E-03; -1.0226651E+00;396;  8.2031980E-02;  0.0000000E+00; -9.8292241E-03;  9.9893084E+00;  4.5223367E-01; -9.5073062E-01;3;  5.5277925E-03;  0.0000000E+00;  1.5276669E-03;  0.0000000E+00;  0.0000000E+00;  0.0000000E+00;0;  5.3520378E-02;  8.1637909E+01;  0.0000000E+00; -1.4332571E-03;  1.0000000E+02;  0.0000000E+00;  9.5624336E+01;  4.4195153E-02;  0.0000000E+00;  9.3252249E-03;  0.0000000E+00;
  4.5874543E+00;  9.9999998E-03; -1.0234435E+00;407;  9.1062024E-02;  0.0000000E+00; -9.9990778E-03;  9.9889984E+00;  4.5455539E-01; -9.7818762E-01;3;  7.1184798E-03;  0.0000000E+00;  3.2488848E-03;  0.0000000E+00;  0.0000000E+00;  0.0000000E+00;0;  5.4591689E-02;  8.0953110E+01;  0.0000000E+00; -3.0278126E-03;  1.0000000E+02;  0.0000000E+00;  9.5445358E+01;  4.5001373E-02;  0.0000000E+00;  9.5903175E-03;  0.0000000E+00;
  4.5877938E+00;  9.9999998E-03; -8.1924933E-01;408;  9.1640987E-02;  0.0000000E+00; -8.4698517E-03;  9.9889345E+00;  4.5427322E-01; -9.8385805E-01;3;  7.3375334E-03;  0.0000000E+00;  1.4167181E-03;  0.0000000E+00;  0.0000000E+00;  0.0000000E+00;0;  5.5037428E-02;  8.1034088E+01;  0.0000000E+00; -8.9718064E-04;  1.0000000E+02;  0.0000000E+00;  9.5467140E+01;  4.5000728E-02;  0.0000000E+00;  1.0036699E-02;  0.0000000E+00;
  4.5886431E+00;  9.9999998E-03; -6.1511201E-01;409;  9.2524037E-02;  0.0000000E+00; -6.7070946E-03;  9.9889488E+00;  4.5395398E-01; -9.8258597E-01;3;  7.7463090E-03;  0.0000000E+00; -1.6109290E-03;  0.0000000E+00;  0.0000000E+00;  0.0000000E+00;0;  5.5010058E-02;  8.1125610E+01;  0.0000000E+00; -4.5676681E-04;  1.0000000E+02;  0.0000000E+00;  9.5493141E+01;  4.4986658E-02;  0.0000000E+00;  1.0023401E-02;  0.0000000E+00;
  4.5899730E+00;  9.9999998E-03; -4.1081604E-01;410;  9.3826994E-02;  0.0000000E+00; -4.8094736E-03;  9.9889584E+00;  4.5368448E-01; -9.8173767E-01;3;  8.4551778E-03;  0.0000000E+00; -2.9736638E-04;  0.0000000E+00;  0.0000000E+00;  0.0000000E+00;0;  5.4951921E-02;  8.1206490E+01;  0.0000000E+00; -2.9960673E-04;  1.0000000E+02;  0.0000000E+00;  9.5511772E+01;  4.4979308E-02;  0.0000000E+00;  9.9726133E-03;  0.0000000E+00;
  4.5913873E+00;  9.9999998E-03; -2.0603479E-01;411;  9.5428877E-02;  0.0000000E+00; -2.4085231E-03;  9.9889698E+00;  4.5351583E-01; -9.8073035E-01;3;  9.4837816E-03;  0.0000000E+00;  4.8409446E-04;  0.0000000E+00;  0.0000000E+00;  0.0000000E+00;0;  5.4888386E-02;  8.1260712E+01;  0.0000000E+00; -7.0682327E-05;  1.0000000E+02;  0.0000000E+00;  9.5519424E+01;  4.4982325E-02;  0.0000000E+00;  9.9060619E-03;  0.0000000E+00;
  4.8194437E+00;  9.9999998E-03; -1.0234221E+00;418;  1.0538436E-01;  0.0000000E+00; -9.8490957E-03;  9.9887142E+00;  4.5497638E-01; -1.0033678E+00;3;  8.9413039E-03;  0.0000000E+00;  4.8224316E-03;  0.0000000E+00;  0.0000000E+00;  0.0000000E+00;0;  5.3910203E-02;  8.0827675E+01;  0.0000000E+00;  6.9428096E-04;  1.0000000E+02;  0.0000000E+00;  9.5411629E+01;  4.4305649E-02;  0.0000000E+00;  9.6045528E-03;  0.0000000E+00;
  4.8164954E+00;  9.9999998E-03; -8.1933397E-01;419;  1.0464296E-01;  0.0000000E+00; -8.3664637E-03;  9.9886990E+00;  4.5462295E-01; -1.0047460E+00;3;  9.1375764E-03;  0.0000000E+00;  8.4918353E-04;  0.0000000E+00;  0.0000000E+00;  0.0000000E+00;0;  5.4191254E-02;  8.0930199E+01;  0.0000000E+00;  1.4766544E-04;  1.0000000E+02;  0.0000000E+00;  9.5439095E+01;  4.4207055E-02;  0.0000000E+00;  9.9841980E-03;  0.0000000E+00;
  4.8134027E+00;  9.9999998E-03; -6.1545080E-01;420;  1.0390481E-01;  0.0000000E+00; -6.6956799E-03;  9.9887638E+00;  4.5421264E-01; -9.9897015E-01;3;  9.3994746E-03;  0.0000000E+00; -1.5662753E-03;  0.0000000E+00;  0.0000000E+00;  0.0000000E+00;0;  5.3954627E-02;  8.1050278E+01;  0.0000000E+00;  7.4671803E-04;  1.0000000E+02;  0.0000000E+00;  9.5470291E+01;  4.4062391E-02;  0.0000000E+00;  9.8922355E-03;  0.0000000E+00;
  4.8117962E+00;  9.9999998E-03; -4.1173133E-01;421;  1.0390537E-01;  0.0000000E+00; -4.9771704E-03;  9.9888210E+00;  4.5387566E-01; -9.9388301E-01;3;  9.7893085E-03;  0.0000000E+00; -1.9643214E-04;  0.0000000E+00;  0.0000000E+00;  0.0000000E+00;0;  5.3695515E-02;  8.1153595E+01;  0.0000000E+00;  1.2521978E-04;  1.0000000E+02;  0.0000000E+00;  9.5491524E+01;  4.3914359E-02;  0.0000000E+00;  9.7811576E-03;  0.0000000E+00;
  4.8106799E+00;  9.9999998E-03; -2.0830780E-01;422;  1.0419691E-01;  0.0000000E+00; -3.2553778E-03;  9.9888630E+00;  4.5364794E-01; -9.9017376E-01;3;  1.0284009E-02;  0.0000000E+00; -4.1886917E-05;  0.0000000E+00;  0.0000000E+00;  0.0000000E+00;0;  5.3517140E-02;  8.1226883E+01;  0.0000000E+00; -6.0568087E-05;  1.0000000E+02;  0.0000000E+00;  9.5501816E+01;  4.3786511E-02;  0.0000000E+00;  9.7306315E-03;  0.0000000E+00;
  5.0619092E+00;  9.9999998E-03; -1.0224398E+00;429;  1.2136818E-01;  0.0000000E+00; -9.2453547E-03;  9.9885578E+00;  4.5318657E-01; -1.0172862E+00;3;  1.1048733E-02;  0.0000000E+00;  6.1248634E-03;  0.0000000E+00;  0.0000000E+00;  0.0000000E+00;0;  5.0584637E-02;  8.1351677E+01;  0.0000000E+00;  2.6634092E-02;  1.0000000E+02;  0.0000000E+00;  9.5545418E+01;  4.1374560E-02;  0.0000000E+00;  9.2100743E-03;  0.0000000E+00;
  5.0578766E+00;  9.9999998E-03; -8.1840587E-01;430;  1.2132554E-01;  0.0000000E+00; -7.7173528E-03;  9.9886494E+00;  4.5247954E-01; -1.0091257E+00;3;  8.8151051E-03;  0.0000000E+00; -6.1409076E-04;  0.0000000E+00;  0.0000000E+00;  0.0000000E+00;0;  5.0480489E-02;  8.1559013E+01;  0.0000000E+00; -1.8024329E-02;  1.0000000E+02;  0.0000000E+00;  9.5601257E+01;  4.1089132E-02;  0.0000000E+00;  9.3913572E-03;  0.0000000E+00;
  5.0468931E+00;  9.9999998E-03; -6.1457330E-01;431;  1.1883244E-01;  0.0000000E+00; -6.0653216E-03;  9.9888000E+00;  4.5173156E-01; -9.9571925E-01;3;  1.1321356E-02;  0.0000000E+00; -2.2400194E-03;  0.0000000E+00;  0.0000000E+00;  0.0000000E+00;0;  5.0043978E-02;  8.1782600E+01;  0.0000000E+00; -3.8883842E-03;  1.0000000E+02;  0.0000000E+00;  9.5658112E+01;  4.0814772E-02;  0.0000000E+00;  9.2292074E-03;  0.0000000E+00;
  5.0406117E+00;  9.9999998E-03; -4.1098979E-01;432;  1.1763805E-01;  0.0000000E+00; -4.2033475E-03;  9.9889307E+00;  4.5130378E-01; -9.8411423E-01;3;  1.1788589E-02;  0.0000000E+00; -2.2399584E-03;  0.0000000E+00;  0.0000000E+00;  0.0000000E+00;0;  4.9589973E-02;  8.1912071E+01;  0.0000000E+00;  2.8775816E-03;  1.0000000E+02;  0.0000000E+00;  9.5690392E+01;  4.0577110E-02;  0.0000000E+00;  9.0128640E-03;  0.0000000E+00;
  5.0350790E+00;  9.9999998E-03; -2.0794430E-01;433;  1.1538919E-01;  0.0000000E+00; -3.2936106E-03;  9.9889746E+00;  4.5105577E-01; -9.8024607E-01;3;  1.0999656E-02;  0.0000000E+00; -7.8310899E-04;  0.0000000E+00;  0.0000000E+00;  0.0000000E+00;0;  4.9505625E-02;  8.1992203E+01;  0.0000000E+00;  1.6162440E-03;  1.0000000E+02;  0.0000000E+00;  9.5702797E+01;  4.0392123E-02;  0.0000000E+00;  9.1135018E-03;  0.0000000E+00;
  5.2664075E+00;  9.9999998E-03; -1.0201830E+00;440;  1.2133788E-01;  0.0000000E+00; -8.1582451E-03;  9.9890652E+00;  4.4724971E-01; -9.7218394E-01;3;  1.1461947E-02;  0.0000000E+00;  5.6331027E-03;  0.0000000E+00;  0.0000000E+00;  0.0000000E+00;0;  4.3682329E-02;  8.3138542E+01;  0.0000000E+00;  3.3455171E-02;  1.0000000E+02;  0.0000000E+00;  9.5999512E+01;  3.5562884E-02;  0.0000000E+00;  8.1194453E-03;  0.0000000E+00;
  5.2745271E+00;  9.9999998E-03; -8.1645894E-01;441;  1.2931912E-01;  0.0000000E+00; -6.8294187E-03;  9.9886971E+00;  4.4765118E-01; -1.0048796E+00;3;  1.0845826E-02;  0.0000000E+00; -1.5928019E-03;  0.0000000E+00;  0.0000000E+00;  0.0000000E+00;0;  4.5178145E-02;  8.3005287E+01;  0.0000000E+00; -1.6554402E-02;  1.0000000E+02;  0.0000000E+00;  9.5973396E+01;  3.6593374E-02;  0.0000000E+00;  8.5847704E-03;  0.0000000E+00;
  5.2723041E+00;  9.9999998E-03; -6.1265320E-01;442;  1.2620020E-01;  0.0000000E+00; -4.9612331E-03;  9.9890833E+00;  4.4695681E-01; -9.7054112E-01;3;  1.1915962E-02;  0.0000000E+00; -3.3435512E-03;  0.0000000E+00;  0.0000000E+00;  0.0000000E+00;0;  4.3682877E-02;  8.3221420E+01;  0.0000000E+00; -9.2133889E-03;  1.0000000E+02;  0.0000000E+00;  9.6029068E+01;  3.5522107E-02;  0.0000000E+00;  8.1607690E-03;  0.0000000E+00;
  5.2768035E+00;  9.9999998E-03; -4.0930343E-01;443;  1.3376907E-01;  0.0000000E+00; -3.2719166E-03;  9.9890900E+00;  4.4666478E-01; -9.6995813E-01;3;  1.3194870E-02;  0.0000000E+00; -2.6422713E-03;  0.0000000E+00;  0.0000000E+00;  0.0000000E+00;0;  4.3525159E-02;  8.3307686E+01;  0.0000000E+00; -4.7508064E-03;  1.0000000E+02;  0.0000000E+00;  9.6055107E+01;  3.5552248E-02;  0.0000000E+00;  7.9729110E-03;  0.0000000E+00;
  5.2713675E+00;  9.9999998E-03; -2.0577645E-01;444;  1.3229647E-01;  0.0000000E+00; -3.0079521E-03;  9.9892321E+00;  4.4603112E-01; -9.5734626E-01;3;  1.2836905E-02;  0.0000000E+00; -7.5022958E-04;  0.0000000E+00;  0.0000000E+00;  0.0000000E+00;0;  4.3099411E-02;  8.3506058E+01;  0.0000000E+00;  2.1789970E-03;  1.0000000E+02;  0.0000000E+00;  9.6101372E+01;  3.4953937E-02;  0.0000000E+00;  8.1454730E-03;  0.0000000E+00;
  5.4762306E+00;  9.9999998E-03; -1.0172035E+00;451;  1.2954764E-01;  0.0000000E+00; -7.1503716E-03;  9.9890051E+00;  4.3954086E-01; -9.7748035E-01;3;  1.3840842E-02;  0.0000000E+00;  7.0153708E-03;  0.0000000E+00;  0.0000000E+00;  0.0000000E+00;0;  3.7828758E-02;  8.5534805E+01;  0.0000000E+00;  1.0863242E-02;  1.0000000E+02;  0.0000000E+00;  9.6609001E+01;  3.0512996E-02;  0.0000000E+00;  7.3157623E-03;  0.0000000E+00;
  5.4879856E+00;  9.9999998E-03; -8.1405753E-01;452;  1.3403487E-01;  0.0000000E+00; -5.7845940E-03;  9.9886742E+00;  4.4170284E-01; -1.0069436E+00;3;  1.1059590E-02;  0.0000000E+00; -2.0831218E-03;  0.0000000E+00;  0.0000000E+00;  0.0000000E+00;0;  3.8849585E-02;  8.4838898E+01;  0.0000000E+00;  7.8328332E-04;  1.0000000E+02;  0.0000000E+00;  9.6444885E+01;  3.1264335E-02;  0.0000000E+00;  7.5852498E-03;  0.0000000E+00;
  5.4877148E+00;  9.9999998E-03; -6.1029845E-01;453;  1.3399523E-01;  0.0000000E+00; -3.8642616E-03;  9.9891224E+00;  4.4092795E-01; -9.6709394E-01;3;  1.4868299E-02;  0.0000000E+00; -2.6433794E-03;  0.0000000E+00;  0.0000000E+00;  0.0000000E+00;0;  3.7284579E-02;  8.5089905E+01;  0.0000000E+00; -2.4465648E-03;  1.0000000E+02;  0.0000000E+00;  9.6506882E+01;  3.0265590E-02;  0.0000000E+00;  7.0189903E-03;  0.0000000E+00;
  5.4905486E+00;  9.9999998E-03; -4.0705380E-01;454;  1.3582961E-01;  0.0000000E+00; -2.7334657E-03;  9.9892130E+00;  4.4067946E-01; -9.5903927E-01;3;  1.0988508E-02;  0.0000000E+00; -2.3238943E-03;  0.0000000E+00;  0.0000000E+00;  0.0000000E+00;0;  3.6846634E-02;  8.5163765E+01;  0.0000000E+00;  6.1072055E-03;  1.0000000E+02;  0.0000000E+00;  9.6534119E+01;  2.9797204E-02;  0.0000000E+00;  7.0494302E-03;  0.0000000E+00;
  5.4902444E+00;  9.9999998E-03; -2.0415622E-01;455;  1.3657373E-01;  0.0000000E+00; -9.5904910E-04;  9.9894600E+00;  4.4010046E-01; -9.3704784E-01;3;  1.2231767E-02;  0.0000000E+00;  7.2629028E-04;  0.0000000E+00;  0.0000000E+00;  0.0000000E+00;0;  3.6007680E-02;  8.5354431E+01;  0.0000000E+00;  4.8705726E-03;  1.0000000E+02;  0.0000000E+00;  9.6576485E+01;  2.9242016E-02;  0.0000000E+00;  6.7656655E-03;  0.0000000E+00;
  5.6865592E+00;  9.9999998E-03; -1.0139208E+00;462;  1.3343172E-01;  0.0000000E+00; -6.1941585E-03;  9.9889851E+00;  4.3171367E-01; -9.7928089E-01;3;  1.5935868E-02;  0.0000000E+00;  3.6339143E-03;  0.0000000E+00;  0.0000000E+00;  0.0000000E+00;0;  3.0884961E-02;  8.8076950E+01;  0.0000000E+00; -4.4304639E-04;  1.0000000E+02;  0.0000000E+00;  9.7253624E+01;  2.4204550E-02;  0.0000000E+00;  6.6804099E-03;  0.0000000E+00;
  5.6928988E+00;  9.9999998E-03; -8.1093109E-01;463;  1.3392222E-01;  0.0000000E+00; -4.2934972E-03;  9.9896183E+00;  4.3333593E-01; -9.2300397E-01;3;  1.2644306E-02;  0.0000000E+00; -3.0052355E-03;  0.0000000E+00;  0.0000000E+00;  0.0000000E+00;0;  2.8966535E-02;  8.7545479E+01;  0.0000000E+00;  1.5515415E-02;  1.0000000E+02;  0.0000000E+00;  9.7125542E+01;  2.3085009E-02;  0.0000000E+00;  5.8815256E-03;  0.0000000E+00;
  5.6953125E+00;  9.9999998E-03; -6.0762352E-01;464;  1.3631800E-01;  0.0000000E+00; -2.7389661E-03;  9.9892702E+00;  4.3358159E-01; -9.5395094E-01;3;  1.0966953E-02;  0.0000000E+00; -4.1765720E-03;  0.0000000E+00;  0.0000000E+00;  0.0000000E+00;0;  2.9697368E-02;  8.7457336E+01;  0.0000000E+00;  1.1825182E-02;  1.0000000E+02;  0.0000000E+00;  9.7106148E+01;  2.3998974E-02;  0.0000000E+00;  5.6983945E-03;  0.0000000E+00;
  5.6946864E+00;  9.9999998E-03; -4.0411046E-01;465;  1.3680069E-01;  0.0000000E+00; -1.2660312E-03;  9.9894981E+00;  4.3294373E-01; -9.3365520E-01;3;  1.2040646E-02;  0.0000000E+00; -4.4551482E-03;  0.0000000E+00;  0.0000000E+00;  0.0000000E+00;0;  2.9089399E-02;  8.7668732E+01;  0.0000000E+00;  3.1957701E-02;  1.0000000E+02;  0.0000000E+00;  9.7161880E+01;  2.3542492E-02;  0.0000000E+00;  5.5469074E-03;  0.0000000E+00;
  5.6941471E+00;  9.9999998E-03; -2.0063819E-01;466;  1.3713580E-01;  0.0000000E+00;  2.6889931E-05;  9.9896383E+00;  4.3251821E-01; -9.2120224E-01;3;  1.2462931E-02;  0.0000000E+00; -3.1339936E-05;  0.0000000E+00;  0.0000000E+00;  0.0000000E+00;0;  2.8684484E-02;  8.7818787E+01;  0.0000000E+00;  1.7110253E-02;  1.0000000E+02;  0.0000000E+00;  9.7189400E+01;  2.3168758E-02;  0.0000000E+00;  5.5157263E-03;  0.0000000E+00;
  5.8979540E+00;  9.9999998E-03; -8.0790883E-01;473;  1.3786696E-01;  0.0000000E+00; -3.7324785E-03;  9.9881620E+00;  4.2521191E-01; -1.0524615E+00;3;  9.4099510E-03;  0.0000000E+00; -7.6025696E-03;  0.0000000E+00;  0.0000000E+00;  0.0000000E+00;0;  2.4335910E-02;  9.0260712E+01;  0.0000000E+00; -2.0759901E-02;  1.0000000E+02;  0.0000000E+00;  9.7809883E+01;  1.8887695E-02;  0.0000000E+00;  5.4482142E-03;  0.0000000E+00;
  5.8974457E+00;  9.9999998E-03; -6.0443956E-01;474;  1.3624582E-01;  0.0000000E+00; -1.4165039E-03;  9.9903164E+00;  4.2413586E-01; -8.6089766E-01;3;  1.1540049E-02;  0.0000000E+00; -4.4810884E-03;  0.0000000E+00;  0.0000000E+00;  0.0000000E+00;0;  1.9877223E-02;  9.0672897E+01;  0.0000000E+00; -2.1762598E-02;  1.0000000E+02;  0.0000000E+00;  9.7901131E+01;  1.5910115E-02;  0.0000000E+00;  3.9671087E-03;  0.0000000E+00;
  5.8968506E+00;  9.9999998E-03; -4.0098435E-01;475;  1.3686188E-01;  0.0000000E+00; -1.6271010E-04;  9.9901590E+00;  4.2370090E-01; -8.7488741E-01;3;  1.3229138E-02;  0.0000000E+00;  2.8304290E-05;  0.0000000E+00;  0.0000000E+00;  0.0000000E+00;0;  2.0128867E-02;  9.0831680E+01;  0.0000000E+00;  2.4315188E-02;  1.0000000E+02;  0.0000000E+00;  9.7928673E+01;  1.6097540E-02;  0.0000000E+00;  4.0313266E-03;  0.0000000E+00;
  5.9013562E+00;  9.9999998E-03; -1.9986311E-01;476;  1.3936006E-01;  0.0000000E+00;  2.1456568E-04;  9.9889021E+00;  4.2586029E-01; -9.8664618E-01;3;  1.0083118E-02;  0.0000000E+00;  8.6180866E-05;  0.0000000E+00;  0.0000000E+00;  0.0000000E+00;0;  2.2414865E-02;  9.0081375E+01;  0.0000000E+00;  1.2432097E-02;  1.0000000E+02;  0.0000000E+00;  9.7720840E+01;  1.7995421E-02;  0.0000000E+00;  4.4194446E-03;  0.0000000E+00;
  6.1020608E+00;  9.9999998E-03; -3.9982155E-01;483;  1.3909829E-01;  0.0000000E+00;  1.3770733E-04;  9.9882908E+00;  4.1683510E-01; -1.0410151E+00;3;  1.1683962E-02;  0.0000000E+00;  6.1713438E-04;  0.0000000E+00;  0.0000000E+00;  0.0000000E+00;0;  1.4519945E-02;  9.3273178E+01;  0.0000000E+00; -6.2058300E-02;  1.0000000E+02;  0.0000000E+00;  9.8497070E+01;  1.1546119E-02;  0.0000000E+00;  2.9738261E-03;  0.0000000E+00;
  6.1044507E+00;  9.9999998E-03; -6.0321707E-01;482;  1.4108573E-01;  0.0000000E+00; -1.4166308E-03;  9.9846792E+00;  4.1907391E-01; -1.3620898E+00;3;  1.1776318E-02;  0.0000000E+00; -2.7296161E-03;  0.0000000E+00;  0.0000000E+00;  0.0000000E+00;0;  1.9045791E-02;  9.2387375E+01;  0.0000000E+00; -6.0221110E-02;  1.0000000E+02;  0.0000000E+00;  9.8312134E+01;  1.5371971E-02;  0.0000000E+00;  3.6738198E-03;  0.0000000E+00;
  6.1057372E+00;  9.9999998E-03; -1.9914837E-01;484;  1.4065334E-01;  0.0000000E+00;  4.9260771E-04;  9.9864988E+00;  4.1929165E-01; -1.2003071E+00;3;  1.0263000E-02;  0.0000000E+00;  3.2650307E-05;  0.0000000E+00;  0.0000000E+00;  0.0000000E+00;0;  1.6566101E-02;  9.2393890E+01;  0.0000000E+00; -9.3642445E-03;  1.0000000E+02;  0.0000000E+00;  9.8239594E+01;  1.3195915E-02;  0.0000000E+00;  3.3701870E-03;  0.0000000E+00;
  6.3061476E+00;  9.9999998E-03; -3.9998999E-01;489;  1.4145115E-01;  0.0000000E+00; -4.5789903E-04;  9.9688034E+00;  4.1164908E-01; -2.7735140E+00;3;  6.6715274E-03;  0.0000000E+00; -1.7429329E-03;  0.0000000E+00;  0.0000000E+00;  0.0000000E+00;0;  1.2816211E-02;  9.4984818E+01;  0.0000000E+00; -1.2309579E-01;  1.0000000E+02;  0.0000000E+00;  9.8795219E+01;  9.8941252E-03;  0.0000000E+00;  2.9220860E-03;  0.0000000E+00;
  6.3064680E+00;  9.9999998E-03; -1.9791904E-01;490;  1.4106339E-01;  0.0000000E+00;  7.9381774E-04;  9.9735775E+00;  4.1158095E-01; -2.3491063E+00;3;  8.6123412E-03;  0.0000000E+00;  1.9312045E-04;  0.0000000E+00;  0.0000000E+00;  0.0000000E+00;0;  1.0944322E-02;  9.5120110E+01;  0.0000000E+00; -6.4233534E-02;  1.0000000E+02;  0.0000000E+00;  9.8781639E+01;  8.5394690E-03;  0.0000000E+00;  2.4048530E-03;  0.0000000E+00;
 -4.8913067E-04;  9.9999998E-03; -7.0439390E-11;170;  1.8380764E-04;  0.0000000E+00;  5.5873284E-10;  9.9989462E+00;  3.9981964E-01; -1.1338402E-01;3; -2.0954739E-02;  0.0000000E+00;  2.3765610E-08;  0.0000000E+00;  0.0000000E+00;  0.0000000E+00;0;  2.2393558E-04;  1.0006452E+02;  0.0000000E+00;  7.5955446E-18;  1.0000000E+02;  0.0000000E+00;  1.0000327E+02;  2.4500376E-04;  0.0000000E+00; -2.1068172E-05;  0.0000000E+00;
 -4.9379491E-04;  9.9999998E-03;  2.0000847E-01;171;  1.6900009E-04;  0.0000000E+00; -9.3924054E-06;  9.9989510E+00;  3.9982995E-01; -1.1287098E-01;3; -2.0311788E-02;  0.0000000E+00; -1.6863812E-03;  0.0000000E+00;  0.0000000E+00;  0.0000000E+00;0;  2.2353626E-04;  1.0006007E+02;  0.0000000E+00; -8.7632458E-07;  1.0000000E+02;  0.0000000E+00;  1.0000352E+02;  2.4247059E-04;  0.0000000E+00; -1.8934328E-05;  0.0000000E+00;
 -5.0392171E-04;  9.9999998E-03;  4.0001765E-01;172;  1.2855993E-04;  0.0000000E+00; -1.5246084E-05;  9.9989672E+00;  3.9985386E-01; -1.1113943E-01;3; -1.8249290E-02;  0.0000000E+00; -1.9827718E-03;  0.0000000E+00;  0.0000000E+00;  0.0000000E+00;0;  2.2149176E-04;  1.0004923E+02;  0.0000000E+00; -1.2430786E-05;  1.0000000E+02;  0.0000000E+00;  1.0000386E+02;  2.3476037E-04;  0.0000000E+00; -1.3268605E-05;  0.0000000E+00;
 -5.1541539E-04;  9.9999998E-03;  6.0003513E-01;173;  6.0251958E-05;  0.0000000E+00;  3.7397053E-06;  9.9989977E+00;  3.9988539E-01; -1.0786874E-01;3; -1.4163934E-02;  0.0000000E+00; -3.8527042E-04;  0.0000000E+00;  0.0000000E+00;  0.0000000E+00;0;  2.1638644E-04;  1.0003427E+02;  0.0000000E+00; -5.3335927E-05;  1.0000000E+02;  0.0000000E+00;  9.9998749E+01;  2.2223411E-04;  0.0000000E+00; -5.8476712E-06;  0.0000000E+00;
 -5.1049900E-04;  9.9999998E-03;  8.0005080E-01;174;  2.0768771E-06;  0.0000000E+00;  2.1694332E-05;  9.9990616E+00;  3.9991951E-01; -1.0094257E-01;3; -9.7482260E-03;  0.0000000E+00;  3.9794822E-03;  0.0000000E+00;  0.0000000E+00;  0.0000000E+00;0;  2.0537034E-04;  1.0001940E+02;  0.0000000E+00; -1.2137929E-04;  1.0000000E+02;  0.0000000E+00;  1.0000000E+02;  2.0350260E-04;  0.0000000E+00;  1.8677320E-06;  0.0000000E+00;
 -4.9527449E-04;  9.9999998E-03;  1.0000690E+00;175; -2.5858664E-05;  0.0000000E+00;  1.9990874E-05;  9.9991770E+00;  3.9994949E-01; -8.8565238E-02;3; -8.3852187E-03;  0.0000000E+00;  3.8869134E-03;  0.0000000E+00;  0.0000000E+00;  0.0000000E+00;0;  1.8525585E-04;  1.0000800E+02;  0.0000000E+00; -1.7031441E-04;  1.0000000E+02;  0.0000000E+00;  9.9999023E+01;  1.7614286E-04;  0.0000000E+00;  9.1129932E-06;  0.0000000E+00;
  1.9935116E-01;  9.9999998E-03; -7.0218501E-12;181;  1.4505941E-04;  0.0000000E+00;  1.0839810E-10;  9.9976406E+00;  4.0001842E-01; -2.5382981E-01;3; -4.9917721E-03;  0.0000000E+00;  9.6109085E-09;  0.0000000E+00;  0.0000000E+00;  0.0000000E+00;0;  5.3148699E-04;  9.9938316E+01;  0.0000000E+00; -2.5662106E-17;  1.0000000E+02;  0.0000000E+00;  1.0000424E+02;  5.5612496E-04;  0.0000000E+00; -2.4637979E-05;  0.0000000E+00;
  1.9934815E-01;  9.9999998E-03;  1.9999614E-01;182;  1.3000726E-04;  0.0000000E+00; -1.3321159E-05;  9.9976501E+00;  4.0002972E-01; -2.5280371E-01;3; -4.5711598E-03;  0.0000000E+00;  1.4481199E-03;  0.0000000E+00;  0.0000000E+00;  0.0000000E+00;0;  5.3089444E-04;  9.9933243E+01;  0.0000000E+00; -1.5100634E-05;  1.0000000E+02;  0.0000000E+00;  1.0000335E+02;  5.5331399E-04;  0.0000000E+00; -2.2419534E-05;  0.0000000E+00;
  1.9934182E-01;  9.9999998E-03;  3.9998978E-01;183;  8.6389235E-05;  0.0000000E+00; -2.2223765E-05;  9.9976912E+00;  4.0005520E-01; -2.4844283E-01;3; -3.4339104E-03;  0.0000000E+00;  4.2429073E-03;  0.0000000E+00;  0.0000000E+00;  0.0000000E+00;0;  5.2726670E-04;  9.9921333E+01;  0.0000000E+00; -9.8871635E-05;  1.0000000E+02;  0.0000000E+00;  1.0000372E+02;  5.4366596E-04;  0.0000000E+00; -1.6399230E-05;  0.0000000E+00;
  1.9933973E-01;  9.9999998E-03;  5.9998018E-01;184;  2.0803547E-05;  0.0000000E+00; -1.9620311E-05;  9.9977617E+00;  4.0008491E-01; -2.4081126E-01;3; -1.6566550E-03;  0.0000000E+00;  8.1870835E-03;  0.0000000E+00;  0.0000000E+00;  0.0000000E+00;0;  5.1438180E-04;  9.9909958E+01;  0.0000000E+00; -2.8686936E-04;  1.0000000E+02;  0.0000000E+00;  1.0000382E+02;  5.2247854E-04;  0.0000000E+00; -8.0967202E-06;  0.0000000E+00;
  1.9935481E-01;  9.9999998E-03;  7.9996103E-01;185; -1.5946902E-05;  0.0000000E+00; -2.2281176E-05;  9.9979296E+00;  4.0010175E-01; -2.2279049E-01;3; -2.1325641E-03;  0.0000000E+00;  1.1136772E-02;  0.0000000E+00;  0.0000000E+00;  0.0000000E+00;0;  4.8387947E-04;  9.9905785E+01;  0.0000000E+00; -5.0516380E-04;  1.0000000E+02;  0.0000000E+00;  9.9999870E+01;  4.8307807E-04;  0.0000000E+00;  8.0141581E-07;  0.0000000E+00;
  1.9937511E-01;  9.9999998E-03;  9.9993610E-01;186; -4.2506450E-05;  0.0000000E+00; -3.6869216E-05;  9.9982157E+00;  4.0010074E-01; -1.9200771E-01;3; -2.1617648E-03;  0.0000000E+00;  1.3072877E-02;  0.0000000E+00;  0.0000000E+00;  0.0000000E+00;0;  4.2708815E-04;  9.9913010E+01;  0.0000000E+00; -5.7348813E-04;  1.0000000E+02;  0.0000000E+00;  1.0000108E+02;  4.1933882E-04;  0.0000000E+00;  7.7493432E-06;  0.0000000E+00;
  3.9920130E-01;  9.9999998E-03;  6.8756410E-11;192;  1.2165133E-04;  0.0000000E+00; -3.2908853E-10;  9.9960737E+00;  4.0040886E-01; -4.2242378E-01;3; -4.3062564E-02;  0.0000000E+00;  2.2631465E-08;  0.0000000E+00;  0.0000000E+00;  0.0000000E+00;0;  1.1127475E-03;  9.9714470E+01;  0.0000000E+00; -6.6735430E-17;  1.0000000E+02;  0.0000000E+00;  1.0000327E+02;  1.1335532E-03;  0.0000000E+00; -2.0805699E-05;  0.0000000E+00;
  3.9920112E-01;  9.9999998E-03;  1.9998255E-01;193;  1.0794493E-04;  0.0000000E+00; -1.6946849E-05;  9.9960918E+00;  4.0041935E-01; -4.2049989E-01;3; -4.2288698E-02;  0.0000000E+00;  1.3911361E-02;  0.0000000E+00;  0.0000000E+00;  0.0000000E+00;0;  1.1099773E-03;  9.9708504E+01;  0.0000000E+00; -7.9031655E-05;  1.0000000E+02;  0.0000000E+00;  1.0000328E+02;  1.1292449E-03;  0.0000000E+00; -1.9267638E-05;  0.0000000E+00;
  3.9920434E-01;  9.9999998E-03;  3.9996246E-01;194;  6.4226544E-05;  0.0000000E+00; -3.0215911E-05;  9.9961500E+00;  4.0044567E-01; -4.1421515E-01;3; -3.9931368E-02;  0.0000000E+00;  3.2871481E-02;  0.0000000E+00;  0.0000000E+00;  0.0000000E+00;0;  1.0998776E-03;  9.9696098E+01;  0.0000000E+00; -3.7644189E-04;  1.0000000E+02;  0.0000000E+00;  1.0000343E+02;  1.1148896E-03;  0.0000000E+00; -1.5011989E-05;  0.0000000E+00;
  3.9922369E-01;  9.9999998E-03;  5.9993339E-01;195;  8.7437147E-06;  0.0000000E+00; -4.5020159E-05;  9.9962721E+00;  4.0046838E-01; -4.0106851E-01;3; -3.6861062E-02;  0.0000000E+00;  5.8720369E-02;  0.0000000E+00;  0.0000000E+00;  0.0000000E+00;0;  1.0732611E-03;  9.9688324E+01;  0.0000000E+00; -8.1677083E-04;  1.0000000E+02;  0.0000000E+00;  1.0000417E+02;  1.0822554E-03;  0.0000000E+00; -8.9942896E-06;  0.0000000E+00;
  3.9927247E-01;  9.9999998E-03;  7.9989493E-01;196; -1.6297216E-05;  0.0000000E+00; -7.3065748E-05;  9.9964991E+00;  4.0046418E-01; -3.7669915E-01;3; -3.5301995E-02;  0.0000000E+00;  8.7178677E-02;  0.0000000E+00;  0.0000000E+00;  0.0000000E+00;0;  1.0121625E-03;  9.9697838E+01;  0.0000000E+00; -9.9421060E-04;  1.0000000E+02;  0.0000000E+00;  9.9999763E+01;  1.0152498E-03;  0.0000000E+00; -3.0872325E-06;  0.0000000E+00;
  3.9937139E-01;  9.9999998E-03;  9.9988443E-01;197; -9.6866370E-06;  0.0000000E+00; -9.8135926E-05;  9.9969244E+00;  4.0041217E-01; -3.3091038E-01;3; -3.2447722E-02;  0.0000000E+00;  1.0945383E-01;  0.0000000E+00;  0.0000000E+00;  0.0000000E+00;0;  8.9694385E-04;  9.9731789E+01;  0.0000000E+00; -5.2212330E-04;  1.0000000E+02;  0.0000000E+00;  1.0000108E+02;  8.9729688E-04;  0.0000000E+00; -3.5303674E-07;  0.0000000E+00;
  5.9910703E-01;  9.9999998E-03;  6.6124911E-11;203;  1.1913832E-04;  0.0000000E+00; -8.8303137E-10;  9.9945745E+00;  4.0099210E-01; -5.8369219E-01;3; -2.1547711E-02;  0.0000000E+00;  6.6170877E-08;  0.0000000E+00;  0.0000000E+00;  0.0000000E+00;0;  1.9930466E-03;  9.9396347E+01;  0.0000000E+00; -1.7530544E-15;  1.0000000E+02;  0.0000000E+00;  1.0000008E+02;  2.0006092E-03;  0.0000000E+00; -7.5625990E-06;  0.0000000E+00;
  5.9911120E-01;  9.9999998E-03;  1.9997492E-01;204;  1.0588865E-04;  0.0000000E+00; -1.6101028E-05;  9.9945908E+00;  4.0100864E-01; -5.8196074E-01;3; -2.0764222E-02;  0.0000000E+00;  1.5329056E-02;  0.0000000E+00;  0.0000000E+00;  0.0000000E+00;0;  1.9888177E-03;  9.9388069E+01;  0.0000000E+00; -2.3096525E-04;  1.0000000E+02;  0.0000000E+00;  1.0000034E+02;  1.9960566E-03;  0.0000000E+00; -7.2388539E-06;  0.0000000E+00;
  5.9912556E-01;  9.9999998E-03;  3.9994669E-01;205;  5.7414869E-05;  0.0000000E+00; -3.0740935E-05;  9.9946461E+00;  4.0104464E-01; -5.7599676E-01;3; -1.8028410E-02;  0.0000000E+00;  3.7074566E-02;  0.0000000E+00;  0.0000000E+00;  0.0000000E+00;0;  1.9754104E-03;  9.9370964E+01;  0.0000000E+00; -8.8450994E-04;  1.0000000E+02;  0.0000000E+00;  1.0000173E+02;  1.9818284E-03;  0.0000000E+00; -6.4180481E-06;  0.0000000E+00;
  5.9916443E-01;  9.9999998E-03;  5.9990656E-01;206; -5.9662934E-06;  0.0000000E+00; -5.8666672E-05;  9.9947720E+00;  4.0106210E-01; -5.6246579E-01;3; -1.4223860E-02;  0.0000000E+00;  6.9354184E-02;  0.0000000E+00;  0.0000000E+00;  0.0000000E+00;0;  1.9399907E-03;  9.9362679E+01;  0.0000000E+00; -1.2660412E-03;  1.0000000E+02;  0.0000000E+00;  1.0000328E+02;  1.9465180E-03;  0.0000000E+00; -6.5273161E-06;  0.0000000E+00;
  5.9924561E-01;  9.9999998E-03;  7.9985493E-01;207; -4.3097742E-05;  0.0000000E+00; -1.0545132E-04;  9.9950466E+00;  4.0103382E-01; -5.3290284E-01;3; -1.0688137E-02;  0.0000000E+00;  1.0913060E-01;  0.0000000E+00;  0.0000000E+00;  0.0000000E+00;0;  1.8476405E-03;  9.9382896E+01;  0.0000000E+00;  9.7871991E-05;  1.0000000E+02;  0.0000000E+00;  1.0000407E+02;  1.8584231E-03;  0.0000000E+00; -1.0782598E-05;  0.0000000E+00;
  5.9946978E-01;  9.9999998E-03;  9.9985093E-01;208;  2.5453664E-05;  0.0000000E+00; -1.5146108E-04;  9.9955645E+00;  4.0093115E-01; -4.7723982E-01;3; -4.7456315E-03;  0.0000000E+00;  1.4058064E-01;  0.0000000E+00;  0.0000000E+00;  0.0000000E+00;0;  1.6674504E-03;  9.9442337E+01;  0.0000000E+00;  3.5173602E-03;  1.0000000E+02;  0.0000000E+00;  1.0000503E+02;  1.6893008E-03;  0.0000000E+00; -2.1850326E-05;  0.0000000E+00;
  7.9910141E-01;  9.9999998E-03; -7.9021872E-11;214;  1.4531589E-04;  0.0000000E+00; -1.8145824E-09;  9.9934359E+00;  4.0175542E-01; -7.0619106E-01;3; -9.5563438E-03;  0.0000000E+00;  2.6092801E-08;  0.0000000E+00;  0.0000000E+00;  0.0000000E+00;0;  3.1052753E-03;  9.9001297E+01;  0.0000000E+00;  1.0489727E-15;  1.0000000E+02;  0.0000000E+00;  9.9995682E+01;  3.0922494E-03;  0.0000000E+00;  1.3025880E-05;  0.0000000E+00;
  7.9908329E-01;  9.9999998E-03;  1.9998187E-01;215;  1.1457947E-04;  0.0000000E+00; -4.4521930E-06;  9.9934349E+00;  4.0177900E-01; -7.0625520E-01;3; -8.7372791E-03;  0.0000000E+00;  1.4492881E-02;  0.0000000E+00;  0.0000000E+00;  0.0000000E+00;0;  3.1049843E-03;  9.8989105E+01;  0.0000000E+00; -4.6292928E-04;  1.0000000E+02;  0.0000000E+00;  9.9995796E+01;  3.0926168E-03;  0.0000000E+00;  1.2367437E-05;  0.0000000E+00;
  7.9911047E-01;  9.9999998E-03;  3.9996368E-01;216;  4.7152760E-05;  0.0000000E+00; -5.3961903E-06;  9.9934387E+00;  4.0183172E-01; -7.0587045E-01;3; -5.3627468E-03;  0.0000000E+00;  3.5573594E-02;  0.0000000E+00;  0.0000000E+00;  0.0000000E+00;0;  3.1035175E-03;  9.8962730E+01;  0.0000000E+00; -1.4114348E-03;  1.0000000E+02;  0.0000000E+00;  9.9996605E+01;  3.0926755E-03;  0.0000000E+00;  1.0841979E-05;  0.0000000E+00;
  7.9920793E-01;  9.9999998E-03;  5.9994268E-01;217; -3.5442645E-05;  0.0000000E+00; -2.5681074E-05;  9.9935026E+00;  4.0186343E-01; -6.9900918E-01;3;  1.8192249E-03;  0.0000000E+00;  6.7890376E-02;  0.0000000E+00;  0.0000000E+00;  0.0000000E+00;0;  3.0791766E-03;  9.8946312E+01;  0.0000000E+00; -4.4479407E-04;  1.0000000E+02;  0.0000000E+00;  9.9997978E+01;  3.0735794E-03;  0.0000000E+00;  5.5971364E-06;  0.0000000E+00;
  7.9939473E-01;  9.9999998E-03;  7.9993504E-01;218; -6.8372472E-05;  0.0000000E+00; -5.2566091E-05;  9.9937325E+00;  4.0182534E-01; -6.7425758E-01;3;  2.6105622E-02;  0.0000000E+00;  1.0195474E-01;  0.0000000E+00;  0.0000000E+00;  0.0000000E+00;0;  2.9774841E-03;  9.8965401E+01;  0.0000000E+00;  6.2611746E-03;  1.0000000E+02;  0.0000000E+00;  1.0000214E+02;  2.9850120E-03;  0.0000000E+00; -7.5279931E-06;  0.0000000E+00;
  8.0023795E-01;  9.9999998E-03;  9.9997288E-01;219;  6.2532956E-04;  0.0000000E+00; -2.6431549E-05;  9.9937916E+00;  4.0175503E-01; -6.6790903E-01;3;  8.3880506E-02;  0.0000000E+00;  1.2030366E-01;  0.0000000E+00;  0.0000000E+00;  0.0000000E+00;0;  2.9770448E-03;  9.9001694E+01;  0.0000000E+00;  1.5748445E-02;  1.0000000E+02;  0.0000000E+00;  1.0000264E+02;  2.9897778E-03;  0.0000000E+00; -1.2732931E-05;  0.0000000E+00;
  1.0005095E+00;  9.9999998E-03;  8.5687940E-10;225;  1.6417482E-03;  0.0000000E+00;  9.2954870E-09;  9.9927359E+00;  4.0270323E-01; -7.8134900E-01;3; -5.1499647E-03;  0.0000000E+00; -4.2113932E-08;  0.0000000E+00;  0.0000000E+00;  0.0000000E+00;0;  4.3682498E-03;  9.8525902E+01;  0.0000000E+00;  3.5249642E-15;  1.0000000E+02;  0.0000000E+00;  9.9990814E+01;  4.3335026E-03;  0.0000000E+00;  3.4746990E-05;  0.0000000E+00;
  1.0004584E+00;  9.9999998E-03;  2.0005664E-01;226;  7.0852460E-04;  0.0000000E+00;  2.2457236E-05;  9.9926920E+00;  4.0274104E-01; -7.8609335E-01;3; -5.4209698E-03;  0.0000000E+00;  1.2122712E-02;  0.0000000E+00;  0.0000000E+00;  0.0000000E+00;0;  4.3850844E-03;  9.8508011E+01;  0.0000000E+00; -8.3094474E-04;  1.0000000E+02;  0.0000000E+00;  9.9989594E+01;  4.3503246E-03;  0.0000000E+00;  3.4759571E-05;  0.0000000E+00;
  1.0011686E+00;  9.9999998E-03;  4.0011850E-01;227;  4.4648077E-05;  0.0000000E+00;  3.6011392E-05;  9.9926462E+00;  4.0285030E-01; -7.9102945E-01;3; -7.5815048E-04;  0.0000000E+00;  2.7883710E-02;  0.0000000E+00;  0.0000000E+00;  0.0000000E+00;0;  4.4129295E-03;  9.8457382E+01;  0.0000000E+00; -2.8206916E-03;  1.0000000E+02;  0.0000000E+00;  9.9987595E+01;  4.3775886E-03;  0.0000000E+00;  3.5341000E-05;  0.0000000E+00;
  1.0011972E+00;  9.9999998E-03;  6.0010254E-01;228; -4.3640808E-05;  0.0000000E+00;  8.4912890E-06;  9.9926548E+00;  4.0295076E-01; -7.9006767E-01;3;  5.1034722E-03;  0.0000000E+00;  4.9076773E-02;  0.0000000E+00;  0.0000000E+00;  0.0000000E+00;0;  4.4076075E-03;  9.8410088E+01;  0.0000000E+00; -1.1710952E-03;  1.0000000E+02;  0.0000000E+00;  9.9985374E+01;  4.3803025E-03;  0.0000000E+00;  2.7304883E-05;  0.0000000E+00;
  1.0009629E+00;  9.9999998E-03;  8.0016458E-01;229;  8.0818491E-04;  0.0000000E+00;  2.3762566E-04;  9.9923792E+00;  4.0294600E-01; -8.1975240E-01;3;  5.1795747E-02;  0.0000000E+00;  4.7437061E-02;  0.0000000E+00;  0.0000000E+00;  0.0000000E+00;0;  4.6010441E-03;  9.8410294E+01;  0.0000000E+00;  1.3337236E-02;  1.0000000E+02;  0.0000000E+00;  9.9982513E+01;  4.5004277E-03;  0.0000000E+00;  1.0061635E-04;  0.0000000E+00;
  1.0047024E+00;  9.9999998E-03;  1.0002657E+00;230;  3.5316006E-03;  0.0000000E+00;  2.2796373E-04;  9.9905539E+00;  4.0343091E-01; -1.0160629E+00;3;  7.4571883E-04;  0.0000000E+00;  4.6084508E-02;  0.0000000E+00;  0.0000000E+00;  0.0000000E+00;0;  5.6981682E-03;  9.8146553E+01;  0.0000000E+00;  3.7769533E-03;  1.0000000E+02;  0.0000000E+00;  9.9976166E+01;  5.5951308E-03;  0.0000000E+00;  1.0303722E-04;  0.0000000E+00;
  1.2032915E+00;  9.9999998E-03; -1.4677755E-09;236;  4.4617546E-03;  0.0000000E+00;  4.2036206E-09;  9.9923143E+00;  4.0393588E-01; -8.2638371E-01;3;  8.6404158E-05;  0.0000000E+00; -5.5014226E-08;  0.0000000E+00;  0.0000000E+00;  0.0000000E+00;0;  5.7740067E-03;  9.7922287E+01;  0.0000000E+00; -7.7548233E-16;  1.0000000E+02;  0.0000000E+00;  9.9987106E+01;  5.7241451E-03;  0.0000000E+00;  4.9861443E-05;  0.0000000E+00;
  1.2039053E+00;  9.9999998E-03;  2.0010096E-01;237;  3.9047808E-03;  0.0000000E+00;  3.0897168E-05;  9.9922028E+00;  4.0398815E-01; -8.3843142E-01;3; -7.5963588E-04;  0.0000000E+00;  8.7167826E-03;  0.0000000E+00;  0.0000000E+00;  0.0000000E+00;0;  5.8543705E-03;  9.7898079E+01;  0.0000000E+00; -1.4639241E-03;  1.0000000E+02;  0.0000000E+00;  9.9983543E+01;  5.8027497E-03;  0.0000000E+00;  5.1620729E-05;  0.0000000E+00;
  1.2045099E+00;  9.9999998E-03;  4.0022591E-01;238;  2.2272372E-03;  0.0000000E+00;  5.2382842E-05;  9.9919901E+00;  4.0413159E-01; -8.6124623E-01;3; -4.2889691E-03;  0.0000000E+00;  1.5439594E-02;  0.0000000E+00;  0.0000000E+00;  0.0000000E+00;0;  5.9840232E-03;  9.7833595E+01;  0.0000000E+00; -5.7717180E-03;  1.0000000E+02;  0.0000000E+00;  9.9972816E+01;  5.9259757E-03;  0.0000000E+00;  5.8047328E-05;  0.0000000E+00;
  1.2033364E+00;  9.9999998E-03;  6.0009027E-01;239;  3.4669379E-04;  0.0000000E+00; -6.7576468E-05;  9.9921198E+00;  4.0423110E-01; -8.4734124E-01;3;  3.5927766E-03;  0.0000000E+00;  2.8052727E-02;  0.0000000E+00;  0.0000000E+00;  0.0000000E+00;0;  5.8684084E-03;  9.7788406E+01;  0.0000000E+00; -3.5461644E-03;  1.0000000E+02;  0.0000000E+00;  9.9973953E+01;  5.8510997E-03;  0.0000000E+00;  1.7308408E-05;  0.0000000E+00;
  1.2045131E+00;  9.9999998E-03;  8.0016506E-01;240;  3.1448607E-03;  0.0000000E+00;  1.6924019E-04;  9.9912777E+00;  4.0438890E-01; -9.3789834E-01;3;  1.8108586E-02;  0.0000000E+00;  1.0711828E-02;  0.0000000E+00;  0.0000000E+00;  0.0000000E+00;0;  6.5691886E-03;  9.7700432E+01;  0.0000000E+00;  4.3084761E-03;  1.0000000E+02;  0.0000000E+00;  9.9968193E+01;  6.4477078E-03;  0.0000000E+00;  1.2148076E-04;  0.0000000E+00;
  1.2068447E+00;  9.9999998E-03;  1.0002344E+00;241;  4.4531147E-03;  0.0000000E+00;  1.5065048E-04;  9.9903088E+00;  4.0479419E-01; -1.0420390E+00;3; -2.7652817E-02;  0.0000000E+00;  8.2644252E-03;  0.0000000E+00;  0.0000000E+00;  0.0000000E+00;0;  7.2914599E-03;  9.7488792E+01;  0.0000000E+00; -1.1127723E-03;  1.0000000E+02;  0.0000000E+00;  9.9966591E+01;  7.1922415E-03;  0.0000000E+00;  9.9218225E-05;  0.0000000E+00;
  1.4044102E+00;  9.9999998E-03;  2.1305668E-09;247;  4.4936268E-03;  0.0000000E+00;  1.1725518E-08;  9.9918642E+00;  4.0563560E-01; -8.7415022E-01;3;  9.6908893E-04;  0.0000000E+00; -2.2042781E-07;  0.0000000E+00;  0.0000000E+00;  0.0000000E+00;0;  7.5197620E-03;  9.7099190E+01;  0.0000000E+00;  2.0895249E-16;  1.0000000E+02;  0.0000000E+00;  9.9981728E+01;  7.4645421E-03;  0.0000000E+00;  5.5219902E-05;  0.0000000E+00;
  1.4049680E+00;  9.9999998E-03;  2.0012946E-01;248;  4.5903833E-03;  0.0000000E+00;  2.0363764E-04;  9.9917603E+00;  4.0566894E-01; -8.8529038E-01;3;  1.0437429E-03;  0.0000000E+00;  5.6996159E-03;  0.0000000E+00;  0.0000000E+00;  0.0000000E+00;0;  7.6205023E-03;  9.7087097E+01;  0.0000000E+00; -1.3809636E-03;  1.0000000E+02;  0.0000000E+00;  9.9974808E+01;  7.5420281E-03;  0.0000000E+00;  7.8474099E-05;  0.0000000E+00;
  1.4060775E+00;  9.9999998E-03;  4.0016878E-01;249;  4.5901677E-03;  0.0000000E+00;  1.4333217E-04;  9.9915371E+00;  4.0576741E-01; -9.0923572E-01;3;  1.3219698E-04;  0.0000000E+00;  8.9622159E-03;  0.0000000E+00;  0.0000000E+00;  0.0000000E+00;0;  7.8335702E-03;  9.7051773E+01;  0.0000000E+00; -5.9207431E-03;  1.0000000E+02;  0.0000000E+00;  9.9959984E+01;  7.7316826E-03;  0.0000000E+00;  1.0188768E-04;  0.0000000E+00;
  1.4060122E+00;  9.9999998E-03;  6.0005754E-01;250;  3.0662587E-03;  0.0000000E+00;  6.0781975E-05;  9.9914732E+00;  4.0582520E-01; -9.1615236E-01;3; -1.5630156E-03;  0.0000000E+00;  1.3259691E-02;  0.0000000E+00;  0.0000000E+00;  0.0000000E+00;0;  7.8791706E-03;  9.7023689E+01;  0.0000000E+00; -7.2043738E-03;  1.0000000E+02;  0.0000000E+00;  9.9957771E+01;  7.7812877E-03;  0.0000000E+00;  9.7882883E-05;  0.0000000E+00;
  1.4068303E+00;  9.9999998E-03;  8.0009878E-01;251;  4.3385918E-03;  0.0000000E+00;  7.6634940E-05;  9.9911728E+00;  4.0587845E-01; -9.4842392E-01;3;  2.9219449E-03;  0.0000000E+00;  3.6115223E-03;  0.0000000E+00;  0.0000000E+00;  0.0000000E+00;0;  8.1676301E-03;  9.6992920E+01;  0.0000000E+00;  1.0224432E-03;  1.0000000E+02;  0.0000000E+00;  9.9958153E+01;  8.0635231E-03;  0.0000000E+00;  1.0410698E-04;  0.0000000E+00;
  1.4088643E+00;  9.9999998E-03;  1.0002142E+00;252;  5.4423832E-03;  0.0000000E+00;  9.9111036E-05;  9.9907322E+00;  4.0608120E-01; -9.9573755E-01;3; -2.8872294E-02;  0.0000000E+00; -3.0705682E-03;  0.0000000E+00;  0.0000000E+00;  0.0000000E+00;0;  8.5883811E-03;  9.6889397E+01;  0.0000000E+00; -2.2030752E-03;  1.0000000E+02;  0.0000000E+00;  9.9957497E+01;  8.4986053E-03;  0.0000000E+00;  8.9775567E-05;  0.0000000E+00;
  1.6051747E+00;  9.9999998E-03; -4.8231943E-11;258;  4.4385456E-03;  0.0000000E+00; -1.2646207E-08;  9.9911222E+00;  4.0799379E-01; -9.5217156E-01;3;  1.1602049E-03;  0.0000000E+00; -1.5379291E-07;  0.0000000E+00;  0.0000000E+00;  0.0000000E+00;0;  9.9847894E-03;  9.5982719E+01;  0.0000000E+00; -1.0831049E-14;  1.0000000E+02;  0.0000000E+00;  9.9963409E+01;  9.9227512E-03;  0.0000000E+00;  6.2038016E-05;  0.0000000E+00;
  1.6055955E+00;  9.9999998E-03;  1.9993581E-01;259;  4.5645484E-03;  0.0000000E+00;  1.1828376E-04;  9.9910889E+00;  4.0798178E-01; -9.5574671E-01;3;  1.1157343E-03;  0.0000000E+00;  3.1439958E-03;  0.0000000E+00;  0.0000000E+00;  0.0000000E+00;0;  1.0025884E-02;  9.5993637E+01;  0.0000000E+00; -7.4734312E-04;  1.0000000E+02;  0.0000000E+00;  9.9958252E+01;  9.9395197E-03;  0.0000000E+00;  8.6364693E-05;  0.0000000E+00;
  1.6067595E+00;  9.9999998E-03;  3.9992028E-01;260;  4.7871913E-03;  0.0000000E+00;  7.3789757E-05;  9.9910421E+00;  4.0793830E-01; -9.6078324E-01;3;  8.4613945E-04;  0.0000000E+00;  5.6253923E-03;  0.0000000E+00;  0.0000000E+00;  0.0000000E+00;0;  1.0089566E-02;  9.6024086E+01;  0.0000000E+00; -3.0432139E-03;  1.0000000E+02;  0.0000000E+00;  9.9945190E+01;  9.9688210E-03;  0.0000000E+00;  1.2074544E-04;  0.0000000E+00;
  1.6080369E+00;  9.9999998E-03;  5.9989792E-01;261;  4.8542232E-03;  0.0000000E+00;  9.0390922E-06;  9.9910870E+00;  4.0783846E-01; -9.5597327E-01;3;  8.6831109E-04;  0.0000000E+00;  8.5546430E-03;  0.0000000E+00;  0.0000000E+00;  0.0000000E+00;0;  1.0058783E-02;  9.6073273E+01;  0.0000000E+00; -4.1621495E-03;  1.0000000E+02;  0.0000000E+00;  9.9944389E+01;  9.9386247E-03;  0.0000000E+00;  1.2015853E-04;  0.0000000E+00;
  1.6096395E+00;  9.9999998E-03;  8.0005968E-01;262;  5.8911573E-03;  0.0000000E+00;  2.3349263E-05;  9.9911194E+00;  4.0771481E-01; -9.5243806E-01;3; -1.4631579E-03;  0.0000000E+00;  4.4265734E-03;  0.0000000E+00;  0.0000000E+00;  0.0000000E+00;0;  1.0030396E-02;  9.6134224E+01;  0.0000000E+00; -7.2106154E-04;  1.0000000E+02;  0.0000000E+00;  9.9943657E+01;  9.9277729E-03;  0.0000000E+00;  1.0262352E-04;  0.0000000E+00;
  1.6115588E+00;  9.9999998E-03;  1.0002518E+00;263;  6.7266440E-03;  0.0000000E+00;  9.1093185E-05;  9.9911461E+00;  4.0761539E-01; -9.4953835E-01;3; -1.7416378E-02;  0.0000000E+00;  7.6734264E-05;  0.0000000E+00;  0.0000000E+00;  0.0000000E+00;0;  1.0023324E-02;  9.6181183E+01;  0.0000000E+00; -2.6002277E-03;  1.0000000E+02;  0.0000000E+00;  9.9945572E+01;  9.9174753E-03;  0.0000000E+00;  1.0584871E-04;  0.0000000E+00;
  1.8063325E+00;  9.9999998E-03; -9.6835950E-10;269;  4.4401572E-03;  0.0000000E+00; -1.0033100E-08;  9.9902210E+00;  4.1098341E-01; -1.0449060E+00;3;  8.9945830E-04;  0.0000000E+00;  7.4326124E-08;  0.0000000E+00;  0.0000000E+00;  0.0000000E+00;0;  1.3263151E-02;  9.4625702E+01;  0.0000000E+00; -1.2441991E-14;  1.0000000E+02;  0.0000000E+00;  9.9909836E+01;  1.3152707E-02;  0.0000000E+00;  1.1044371E-04;  0.0000000E+00;
  1.8067117E+00;  9.9999998E-03;  1.9976629E-01;270;  4.5590601E-03;  0.0000000E+00; -7.4006944E-05;  9.9902725E+00;  4.1090932E-01; -1.0394182E+00;3;  8.8207738E-04;  0.0000000E+00;  1.0542755E-03;  0.0000000E+00;  0.0000000E+00;  0.0000000E+00;0;  1.3198311E-02;  9.4664467E+01;  0.0000000E+00; -1.8440852E-04;  1.0000000E+02;  0.0000000E+00;  9.9906715E+01;  1.3076798E-02;  0.0000000E+00;  1.2151357E-04;  0.0000000E+00;
  1.8085071E+00;  9.9999998E-03;  3.9960757E-01;271;  5.4031862E-03;  0.0000000E+00; -1.0666336E-04;  9.9904413E+00;  4.1068539E-01; -1.0213449E+00;3;  4.3395683E-04;  0.0000000E+00;  2.8442785E-03;  0.0000000E+00;  0.0000000E+00;  0.0000000E+00;0;  1.3019385E-02;  9.4769516E+01;  0.0000000E+00; -6.8008807E-04;  1.0000000E+02;  0.0000000E+00;  9.9906586E+01;  1.2875080E-02;  0.0000000E+00;  1.4430514E-04;  0.0000000E+00;
  1.8114679E+00;  9.9999998E-03;  5.9978616E-01;272;  6.4388439E-03;  0.0000000E+00; -6.7648594E-05;  9.9906931E+00;  4.1037682E-01; -9.9432606E-01;3;  2.8186347E-05;  0.0000000E+00;  4.7601922E-03;  0.0000000E+00;  0.0000000E+00;  0.0000000E+00;0;  1.2718354E-02;  9.4915787E+01;  0.0000000E+00; -1.6736004E-03;  1.0000000E+02;  0.0000000E+00;  9.9906731E+01;  1.2557700E-02;  0.0000000E+00;  1.6065408E-04;  0.0000000E+00;
  1.8137659E+00;  9.9999998E-03;  8.0010653E-01;273;  8.0093453E-03;  0.0000000E+00;  6.4623396E-06;  9.9910097E+00;  4.1000044E-01; -9.6045095E-01;3; -1.8982297E-03;  0.0000000E+00;  5.2166614E-03;  0.0000000E+00;  0.0000000E+00;  0.0000000E+00;0;  1.2316696E-02;  9.5094955E+01;  0.0000000E+00; -2.4444393E-03;  1.0000000E+02;  0.0000000E+00;  9.9908630E+01;  1.2175557E-02;  0.0000000E+00;  1.4113948E-04;  0.0000000E+00;
  1.8154998E+00;  9.9999998E-03;  1.0004334E+00;274;  8.4931161E-03;  0.0000000E+00;  1.1515918E-04;  9.9913626E+00;  4.0958643E-01; -9.2270988E-01;3; -1.0512332E-02;  0.0000000E+00;  4.0657972E-03;  0.0000000E+00;  0.0000000E+00;  0.0000000E+00;0;  1.1822215E-02;  9.5290970E+01;  0.0000000E+00; -4.4354568E-03;  1.0000000E+02;  0.0000000E+00;  9.9913177E+01;  1.1691066E-02;  0.0000000E+00;  1.3114954E-04;  0.0000000E+00;
  2.0101848E+00;  9.9999998E-03; -7.4213419E-10;280;  5.4390253E-03;  0.0000000E+00; -1.1143491E-08;  9.9895086E+00;  4.1427505E-01; -1.1121302E+00;3;  1.1779049E-04;  0.0000000E+00;  6.8832153E-09;  0.0000000E+00;  0.0000000E+00;  0.0000000E+00;0;  1.7077345E-02;  9.3224701E+01;  0.0000000E+00; -3.4031775E-14;  1.0000000E+02;  0.0000000E+00;  9.9792831E+01;  1.6806453E-02;  0.0000000E+00;  2.7089266E-04;  0.0000000E+00;
  2.0107393E+00;  9.9999998E-03;  1.9964479E-01;281;  5.7895817E-03;  0.0000000E+00; -1.9050819E-04;  9.9896221E+00;  4.1413763E-01; -1.1000289E+00;3; -1.5991047E-05;  0.0000000E+00;  1.9184328E-04;  0.0000000E+00;  0.0000000E+00;  0.0000000E+00;0;  1.6901517E-02;  9.3289093E+01;  0.0000000E+00; -4.3630465E-05;  1.0000000E+02;  0.0000000E+00;  9.9792244E+01;  1.6626522E-02;  0.0000000E+00;  2.7499444E-04;  0.0000000E+00;
  2.0130215E+00;  9.9999998E-03;  3.9934558E-01;282;  7.0072096E-03;  0.0000000E+00; -3.0382979E-04;  9.9899569E+00;  4.1371834E-01; -1.0644505E+00;3; -2.3730431E-04;  0.0000000E+00;  9.6187281E-04;  0.0000000E+00;  0.0000000E+00;  0.0000000E+00;0;  1.6390009E-02;  9.3465416E+01;  0.0000000E+00; -1.0965077E-04;  1.0000000E+02;  0.0000000E+00;  9.9812218E+01;  1.6132830E-02;  0.0000000E+00;  2.5717865E-04;  0.0000000E+00;
  2.0200157E+00;  9.9999998E-03;  5.9973973E-01;283;  1.1850579E-02;  0.0000000E+00; -5.2718213E-05;  9.9903545E+00;  4.1318849E-01; -1.0218499E+00;3; -7.8748952E-04;  0.0000000E+00;  2.1703348E-03;  0.0000000E+00;  0.0000000E+00;  0.0000000E+00;0;  1.5839413E-02;  9.3700439E+01;  0.0000000E+00; -2.3782698E-03;  1.0000000E+02;  0.0000000E+00;  9.9826881E+01;  1.5501583E-02;  0.0000000E+00;  3.3782894E-04;  0.0000000E+00;
  2.0223742E+00;  9.9999998E-03;  8.0034065E-01;284;  1.1882858E-02;  0.0000000E+00;  5.8889083E-05;  9.9909353E+00;  4.1259959E-01; -9.6021515E-01;3;  4.9990608E-04;  0.0000000E+00;  3.4195660E-03;  0.0000000E+00;  0.0000000E+00;  0.0000000E+00;0;  1.4921172E-02;  9.3971909E+01;  0.0000000E+00; -8.7096924E-03;  1.0000000E+02;  0.0000000E+00;  9.9831589E+01;  1.4653964E-02;  0.0000000E+00;  2.6720727E-04;  0.0000000E+00;
  2.0214427E+00;  9.9999998E-03;  1.0008852E+00;285;  1.3285725E-02;  0.0000000E+00;  2.4693878E-04;  9.9914188E+00;  4.1193563E-01; -9.0905797E-01;3; -3.1126882E-03;  0.0000000E+00;  3.0707065E-03;  0.0000000E+00;  0.0000000E+00;  0.0000000E+00;0;  1.4118009E-02;  9.4281418E+01;  0.0000000E+00; -7.0924219E-03;  1.0000000E+02;  0.0000000E+00;  9.9836578E+01;  1.3866596E-02;  0.0000000E+00;  2.5141332E-04;  0.0000000E+00;
  2.2254040E+00;  9.9999998E-03; -1.4153320E-09;291;  1.1033915E-02;  0.0000000E+00; -1.4141046E-08;  9.9892979E+00;  4.1735548E-01; -1.1153610E+00;3; -1.7068514E-03;  0.0000000E+00; -2.3780285E-07;  0.0000000E+00;  0.0000000E+00;  0.0000000E+00;0;  2.0886449E-02;  9.2045006E+01;  0.0000000E+00; -3.2989196E-14;  1.0000000E+02;  0.0000000E+00;  9.9579903E+01;  2.0238237E-02;  0.0000000E+00;  6.4821087E-04;  0.0000000E+00;
  2.2256553E+00;  9.9999998E-03;  1.9964267E-01;292;  1.1358185E-02;  0.0000000E+00; -2.0621048E-04;  9.9894352E+00;  4.1717440E-01; -1.1010441E+00;3; -2.5496853E-03;  0.0000000E+00; -1.0189894E-04;  0.0000000E+00;  0.0000000E+00;  0.0000000E+00;0;  2.0606961E-02;  9.2125183E+01;  0.0000000E+00; -5.3942463E-06;  1.0000000E+02;  0.0000000E+00;  9.9582382E+01;  1.9955922E-02;  0.0000000E+00;  6.5103965E-04;  0.0000000E+00;
  2.2264574E+00;  9.9999998E-03;  3.9935750E-01;293;  1.3016461E-02;  0.0000000E+00; -3.7336763E-04;  9.9898624E+00;  4.1661924E-01; -1.0564153E+00;3; -1.6050270E-03;  0.0000000E+00;  4.7170917E-05;  0.0000000E+00;  0.0000000E+00;  0.0000000E+00;0;  1.9767832E-02;  9.2345482E+01;  0.0000000E+00; -8.2672486E-05;  1.0000000E+02;  0.0000000E+00;  9.9620026E+01;  1.9175328E-02;  0.0000000E+00;  5.9250410E-04;  0.0000000E+00;
  2.2277713E+00;  9.9999998E-03;  6.0001624E-01;294;  1.5008774E-02;  0.0000000E+00; -1.2295421E-04;  9.9904575E+00;  4.1587231E-01; -9.9428725E-01;3;  1.1321554E-03;  0.0000000E+00;  3.2327874E-04;  0.0000000E+00;  0.0000000E+00;  0.0000000E+00;0;  1.8630622E-02;  9.2652290E+01;  0.0000000E+00; -5.2557053E-04;  1.0000000E+02;  0.0000000E+00;  9.9655907E+01;  1.8083297E-02;  0.0000000E+00;  5.4732477E-04;  0.0000000E+00;
  2.2295830E+00;  9.9999998E-03;  8.0097324E-01;295;  1.6149046E-02;  0.0000000E+00;  2.1345774E-04;  9.9910774E+00;  4.1515875E-01; -9.2951870E-01;3;  1.2694091E-03;  0.0000000E+00;  7.5922080E-04;  0.0000000E+00;  0.0000000E+00;  0.0000000E+00;0;  1.7441500E-02;  9.2977859E+01;  0.0000000E+00; -2.4714682E-03;  1.0000000E+02;  0.0000000E+00;  9.9662819E+01;  1.6933778E-02;  0.0000000E+00;  5.0772208E-04;  0.0000000E+00;
  2.2306569E+00;  9.9999998E-03;  1.0017989E+00;296;  1.5474680E-02;  0.0000000E+00;  5.2779575E-04;  9.9916220E+00;  4.1450405E-01; -8.7266582E-01;3; -6.7996874E-04;  0.0000000E+00;  7.9984136E-04;  0.0000000E+00;  0.0000000E+00;  0.0000000E+00;0;  1.6366992E-02;  9.3275375E+01;  0.0000000E+00; -6.5357797E-03;  1.0000000E+02;  0.0000000E+00;  9.9669594E+01;  1.5885871E-02;  0.0000000E+00;  4.8112188E-04;  0.0000000E+00;
  2.4458263E+00;  9.9999998E-03;  3.8242545E-10;302;  2.4368815E-02;  0.0000000E+00; -1.2713226E-08;  9.9897299E+00;  4.1981113E-01; -1.0383137E+00;3; -2.0228954E-04;  0.0000000E+00; -1.6663022E-07;  0.0000000E+00;  0.0000000E+00;  0.0000000E+00;0;  2.3744643E-02;  9.1277916E+01;  0.0000000E+00;  6.7206331E-16;  1.0000000E+02;  0.0000000E+00;  9.9252541E+01;  2.2413852E-02;  0.0000000E+00;  1.3307913E-03;  0.0000000E+00;
  2.4444690E+00;  9.9999998E-03;  1.9977504E-01;303;  2.3625866E-02;  0.0000000E+00; -2.0765726E-04;  9.9898443E+00;  4.1964900E-01; -1.0269768E+00;3;  4.2055020E-05;  0.0000000E+00; -3.9792547E-05;  0.0000000E+00;  0.0000000E+00;  0.0000000E+00;0;  2.3458427E-02;  9.1342728E+01;  0.0000000E+00; -1.0685944E-06;  1.0000000E+02;  0.0000000E+00;  9.9260551E+01;  2.2142151E-02;  0.0000000E+00;  1.3162757E-03;  0.0000000E+00;
  2.4409392E+00;  9.9999998E-03;  3.9974803E-01;304;  2.1591825E-02;  0.0000000E+00; -2.9063103E-04;  9.9901714E+00;  4.1915116E-01; -9.9453163E-01;3;  5.0886825E-05;  0.0000000E+00; -1.0108962E-04;  0.0000000E+00;  0.0000000E+00;  0.0000000E+00;0;  2.2608180E-02;  9.1519920E+01;  0.0000000E+00;  6.0278985E-06;  1.0000000E+02;  0.0000000E+00;  9.9313705E+01;  2.1398205E-02;  0.0000000E+00;  1.2099750E-03;  0.0000000E+00;
  2.4360545E+00;  9.9999998E-03;  6.0092056E-01;305;  1.8265970E-02;  0.0000000E+00;  8.4798266E-05;  9.9906311E+00;  4.1854152E-01; -9.4873989E-01;3;  5.4028974E-04;  0.0000000E+00; -5.8157445E-04;  0.0000000E+00;  0.0000000E+00;  0.0000000E+00;0;  2.1452505E-02;  9.1765800E+01;  0.0000000E+00;  3.8182757E-06;  1.0000000E+02;  0.0000000E+00;  9.9344727E+01;  2.0369262E-02;  0.0000000E+00;  1.0832445E-03;  0.0000000E+00;
  2.4324725E+00;  9.9999998E-03;  8.0221766E-01;306;  1.6108114E-02;  0.0000000E+00;  6.2455912E-04;  9.9911070E+00;  4.1794470E-01; -9.0110457E-01;3;  1.4244614E-03;  0.0000000E+00; -4.7705197E-04;  0.0000000E+00;  0.0000000E+00;  0.0000000E+00;0;  2.0328376E-02;  9.2027512E+01;  0.0000000E+00;  6.7444729E-05;  1.0000000E+02;  0.0000000E+00;  9.9355156E+01;  1.9288426E-02;  0.0000000E+00;  1.0399497E-03;  0.0000000E+00;
  2.4311583E+00;  9.9999998E-03;  1.0033448E+00;307;  1.5447845E-02;  0.0000000E+00;  1.0705235E-03;  9.9915237E+00;  4.1740757E-01; -8.5907334E-01;3;  1.3318021E-04;  0.0000000E+00; -2.1246205E-04;  0.0000000E+00;  0.0000000E+00;  0.0000000E+00;0;  1.9328786E-02;  9.2261658E+01;  0.0000000E+00;  6.6039927E-04;  1.0000000E+02;  0.0000000E+00;  9.9366722E+01;  1.8353505E-02;  0.0000000E+00;  9.7528042E-04;  0.0000000E+00;
  2.6556091E+00;  9.9999998E-03; -5.0468779E-10;313;  3.0493611E-02;  0.0000000E+00;  6.2538139E-09;  9.9902725E+00;  4.2209181E-01; -9.4628310E-01;3;  3.3580041E-03;  0.0000000E+00; -1.8501989E-07;  0.0000000E+00;  0.0000000E+00;  0.0000000E+00;0;  2.6022453E-02;  9.0694397E+01;  0.0000000E+00;  5.4645585E-14;  1.0000000E+02;  0.0000000E+00;  9.8825294E+01;  2.3738107E-02;  0.0000000E+00;  2.2843454E-03;  0.0000000E+00;
  2.6538923E+00;  9.9999998E-03;  1.9999576E-01;314;  2.9550195E-02;  0.0000000E+00; -1.4200957E-04;  9.9903231E+00;  4.2200822E-01; -9.4166178E-01;3;  2.1727788E-03;  0.0000000E+00; -2.1325443E-04;  0.0000000E+00;  0.0000000E+00;  0.0000000E+00;0;  2.5856240E-02;  9.0716728E+01;  0.0000000E+00; -9.6552358E-06;  1.0000000E+02;  0.0000000E+00;  9.8841537E+01;  2.3606336E-02;  0.0000000E+00;  2.2499035E-03;  0.0000000E+00;
  2.6490080E+00;  9.9999998E-03;  4.0087527E-01;315;  2.5935685E-02;  0.0000000E+00;  2.5978983E-05;  9.9904747E+00;  4.2179039E-01; -9.2779100E-01;3;  2.4551898E-03;  0.0000000E+00;  7.8986188E-05;  0.0000000E+00;  0.0000000E+00;  0.0000000E+00;0;  2.5368685E-02;  9.0779182E+01;  0.0000000E+00;  6.0300231E-06;  1.0000000E+02;  0.0000000E+00;  9.8878273E+01;  2.3245862E-02;  0.0000000E+00;  2.1228227E-03;  0.0000000E+00;
  2.6434202E+00;  9.9999998E-03;  6.0262316E-01;316;  2.1766124E-02;  0.0000000E+00;  7.3552958E-04;  9.9906549E+00;  4.2160025E-01; -9.1116887E-01;3;  5.6269072E-04;  0.0000000E+00; -4.4348667E-04;  0.0000000E+00;  0.0000000E+00;  0.0000000E+00;0;  2.4794519E-02;  9.0869377E+01;  0.0000000E+00;  9.4578405E-05;  1.0000000E+02;  0.0000000E+00;  9.8875412E+01;  2.2728378E-02;  0.0000000E+00;  2.0661419E-03;  0.0000000E+00;
  2.6386657E+00;  9.9999998E-03;  8.0420429E-01;317;  1.7927879E-02;  0.0000000E+00;  1.4045783E-03;  9.9908476E+00;  4.2137900E-01; -8.9320558E-01;3;  8.8280212E-04;  0.0000000E+00; -5.0233520E-04;  0.0000000E+00;  0.0000000E+00;  0.0000000E+00;0;  2.4171919E-02;  9.0965340E+01;  0.0000000E+00;  1.4151359E-04;  1.0000000E+02;  0.0000000E+00;  9.8878189E+01;  2.2181069E-02;  0.0000000E+00;  1.9908496E-03;  0.0000000E+00;
  2.6351020E+00;  9.9999998E-03;  1.0056576E+00;318;  1.5417264E-02;  0.0000000E+00;  2.0248815E-03;  9.9910221E+00;  4.2116642E-01; -8.7675697E-01;3;  2.8273370E-04;  0.0000000E+00; -4.9956574E-04;  0.0000000E+00;  0.0000000E+00;  0.0000000E+00;0;  2.3653798E-02;  9.1050957E+01;  0.0000000E+00;  5.7226641E-04;  1.0000000E+02;  0.0000000E+00;  9.8888481E+01;  2.1710245E-02;  0.0000000E+00;  1.9435533E-03;  0.0000000E+00;
  2.8599961E+00;  9.9999998E-03; -2.6397278E-09;324;  3.2905992E-02;  0.0000000E+00; -8.3872651E-09;  9.9905148E+00;  4.2498758E-01; -8.9008325E-01;3;  4.4840784E-03;  0.0000000E+00; -2.2422640E-08;  0.0000000E+00;  0.0000000E+00;  0.0000000E+00;0;  2.8897120E-02;  8.9924042E+01;  0.0000000E+00;  8.1482293E-14;  1.0000000E+02;  0.0000000E+00;  9.8325386E+01;  2.5434893E-02;  0.0000000E+00;  3.4622268E-03;  0.0000000E+00;
  2.8584683E+00;  9.9999998E-03;  2.0082492E-01;325;  3.1438615E-02;  0.0000000E+00; -1.9310361E-05;  9.9905157E+00;  4.2500868E-01; -8.9018208E-01;3;  3.6303680E-03;  0.0000000E+00; -3.3602387E-07;  0.0000000E+00;  0.0000000E+00;  0.0000000E+00;0;  2.8868627E-02;  8.9902817E+01;  0.0000000E+00;  1.0144273E-05;  1.0000000E+02;  0.0000000E+00;  9.8338242E+01;  2.5465138E-02;  0.0000000E+00;  3.4034888E-03;  0.0000000E+00;
  2.8550355E+00;  9.9999998E-03;  4.0294138E-01;326;  2.8742073E-02;  0.0000000E+00;  7.8025629E-04;  9.9904795E+00;  4.2517179E-01; -8.9407223E-01;3;  2.3758602E-03;  0.0000000E+00;  6.7265751E-04;  0.0000000E+00;  0.0000000E+00;  0.0000000E+00;0;  2.8917400E-02;  8.9846466E+01;  0.0000000E+00;  2.8423954E-05;  1.0000000E+02;  0.0000000E+00;  9.8322510E+01;  2.5547979E-02;  0.0000000E+00;  3.3694203E-03;  0.0000000E+00;
  2.8510411E+00;  9.9999998E-03;  6.0487229E-01;327;  2.4903204E-02;  0.0000000E+00;  1.9036150E-03;  9.9903536E+00;  4.2539719E-01; -9.0644956E-01;3;  1.7930501E-03;  0.0000000E+00; -8.4433245E-04;  0.0000000E+00;  0.0000000E+00;  0.0000000E+00;0;  2.9198319E-02;  8.9770164E+01;  0.0000000E+00; -7.9915430E-05;  1.0000000E+02;  0.0000000E+00;  9.8299576E+01;  2.5667187E-02;  0.0000000E+00;  3.5311319E-03;  0.0000000E+00;
  2.8481917E+00;  9.9999998E-03;  8.0671531E-01;328;  2.2141028E-02;  0.0000000E+00;  2.5601306E-03;  9.9903412E+00;  4.2561990E-01; -9.0803325E-01;3; -1.0212153E-03;  0.0000000E+00;  3.3509315E-04;  0.0000000E+00;  0.0000000E+00;  0.0000000E+00;0;  2.9177319E-02;  8.9689011E+01;  0.0000000E+00; -5.2675250E-04;  1.0000000E+02;  0.0000000E+00;  9.8287079E+01;  2.5813861E-02;  0.0000000E+00;  3.3634587E-03;  0.0000000E+00;
  2.8458688E+00;  9.9999998E-03;  1.0085740E+00;329;  2.0715905E-02;  0.0000000E+00;  3.4546652E-03;  9.9902487E+00;  4.2581350E-01; -9.1705537E-01;3; -1.1190273E-03;  0.0000000E+00; -6.0723769E-04;  0.0000000E+00;  0.0000000E+00;  0.0000000E+00;0;  2.9442580E-02;  8.9616982E+01;  0.0000000E+00; -6.9256197E-04;  1.0000000E+02;  0.0000000E+00;  9.8274368E+01;  2.5951218E-02;  0.0000000E+00;  3.4913621E-03;  0.0000000E+00;
  3.0656331E+00;  9.9999998E-03; -3.1131195E-09;335;  3.4503266E-02;  0.0000000E+00; -1.7775415E-08;  9.9903793E+00;  4.2884451E-01; -8.7979609E-01;3;  2.6350075E-03;  0.0000000E+00;  1.4244426E-07;  0.0000000E+00;  0.0000000E+00;  0.0000000E+00;0;  3.2939177E-02;  8.8791222E+01;  0.0000000E+00;  7.0732340E-14;  1.0000000E+02;  0.0000000E+00;  9.7792618E+01;  2.8140603E-02;  0.0000000E+00;  4.7985758E-03;  0.0000000E+00;
  3.0649371E+00;  9.9999998E-03;  2.0254038E-01;336;  3.3671670E-02;  0.0000000E+00;  4.7069808E-04;  9.9903440E+00;  4.2898563E-01; -8.8307106E-01;3;  2.0179548E-03;  0.0000000E+00;  4.9194321E-05;  0.0000000E+00;  0.0000000E+00;  0.0000000E+00;0;  3.3048283E-02;  8.8741707E+01;  0.0000000E+00;  1.8194651E-05;  1.0000000E+02;  0.0000000E+00;  9.7782486E+01;  2.8296143E-02;  0.0000000E+00;  4.7521405E-03;  0.0000000E+00;
  3.0633531E+00;  9.9999998E-03;  4.0486184E-01;337;  3.1847548E-02;  0.0000000E+00;  1.7046868E-03;  9.9902048E+00;  4.2936045E-01; -8.9596349E-01;3;  8.3207170E-04;  0.0000000E+00;  2.3459622E-03;  0.0000000E+00;  0.0000000E+00;  0.0000000E+00;0;  3.3507865E-02;  8.8607758E+01;  0.0000000E+00;  1.1769851E-05;  1.0000000E+02;  0.0000000E+00;  9.7756447E+01;  2.8724549E-02;  0.0000000E+00;  4.7833151E-03;  0.0000000E+00;
  3.0618691E+00;  9.9999998E-03;  6.0715204E-01;338;  3.0211484E-02;  0.0000000E+00;  3.1965151E-03;  9.9899092E+00;  4.2989501E-01; -9.2313766E-01;3;  7.9944057E-06;  0.0000000E+00; -1.0723373E-03;  0.0000000E+00;  0.0000000E+00;  0.0000000E+00;0;  3.4463365E-02;  8.8423714E+01;  0.0000000E+00; -2.1377616E-04;  1.0000000E+02;  0.0000000E+00;  9.7710747E+01;  2.9330844E-02;  0.0000000E+00;  5.1325215E-03;  0.0000000E+00;
  3.0611532E+00;  9.9999998E-03;  8.0936849E-01;339;  2.9403102E-02;  0.0000000E+00;  4.0314584E-03;  9.9897184E+00;  4.3045515E-01; -9.4065166E-01;3; -1.4710541E-04;  0.0000000E+00; -7.4543821E-04;  0.0000000E+00;  0.0000000E+00;  0.0000000E+00;0;  3.5091378E-02;  8.8227318E+01;  0.0000000E+00; -6.9409329E-04;  1.0000000E+02;  0.0000000E+00;  9.7671135E+01;  2.9994570E-02;  0.0000000E+00;  5.0968062E-03;  0.0000000E+00;
  3.0605676E+00;  9.9999998E-03;  1.0116584E+00;340;  2.9095324E-02;  0.0000000E+00;  5.1416662E-03;  9.9894953E+00;  4.3095216E-01; -9.6110088E-01;3;  1.8422217E-04;  0.0000000E+00;  6.5919571E-04;  0.0000000E+00;  0.0000000E+00;  0.0000000E+00;0;  3.5915677E-02;  8.8050957E+01;  0.0000000E+00; -9.1603561E-04;  1.0000000E+02;  0.0000000E+00;  9.7637444E+01;  3.0591657E-02;  0.0000000E+00;  5.3240191E-03;  0.0000000E+00;
  3.2762949E+00;  9.9999998E-03; -9.6355246E-10;346;  3.9291903E-02;  0.0000000E+00; -1.6952775E-08;  9.9900150E+00;  4.3345946E-01; -8.9956057E-01;3;  1.6399811E-03;  0.0000000E+00;  3.5882877E-07;  0.0000000E+00;  0.0000000E+00;  0.0000000E+00;0;  3.7979096E-02;  8.7367424E+01;  0.0000000E+00;  2.3363363E-14;  1.0000000E+02;  0.0000000E+00;  9.7274300E+01;  3.1805303E-02;  0.0000000E+00;  6.1737946E-03;  0.0000000E+00;
  3.2763393E+00;  9.9999998E-03;  2.0393983E-01;347;  3.9119340E-02;  0.0000000E+00;  1.7979520E-03;  9.9899435E+00;  4.3365276E-01; -9.0600240E-01;3;  1.4748251E-03;  0.0000000E+00;  2.2386017E-04;  0.0000000E+00;  0.0000000E+00;  0.0000000E+00;0;  3.8254675E-02;  8.7311630E+01;  0.0000000E+00;  7.5410979E-05;  1.0000000E+02;  0.0000000E+00;  9.7248802E+01;  3.2014567E-02;  0.0000000E+00;  6.2401071E-03;  0.0000000E+00;
  3.2763588E+00;  9.9999998E-03;  4.0659842E-01;348;  3.8564168E-02;  0.0000000E+00;  2.8145099E-03;  9.9897900E+00;  4.3409440E-01; -9.1985577E-01;3;  9.5030421E-04;  0.0000000E+00;  3.9090119E-05;  0.0000000E+00;  0.0000000E+00;  0.0000000E+00;0;  3.8838681E-02;  8.7161552E+01;  0.0000000E+00;  2.5212235E-04;  1.0000000E+02;  0.0000000E+00;  9.7215034E+01;  3.2570027E-02;  0.0000000E+00;  6.2686531E-03;  0.0000000E+00;
  3.2765689E+00;  9.9999998E-03;  6.0916269E-01;349;  3.8136162E-02;  0.0000000E+00;  4.3583815E-03;  9.9894962E+00;  4.3469378E-01; -9.4626564E-01;3;  6.4652198E-04;  0.0000000E+00; -1.3774051E-03;  0.0000000E+00;  0.0000000E+00;  0.0000000E+00;0;  3.9940067E-02;  8.6957123E+01;  0.0000000E+00;  3.9363481E-04;  1.0000000E+02;  0.0000000E+00;  9.7169342E+01;  3.3327173E-02;  0.0000000E+00;  6.6128913E-03;  0.0000000E+00;
  3.2772710E+00;  9.9999998E-03;  8.1175894E-01;350;  3.8191136E-02;  0.0000000E+00;  5.3968579E-03;  9.9892778E+00;  4.3533218E-01; -9.6593940E-01;3;  7.2940177E-04;  0.0000000E+00; -6.1822205E-04;  0.0000000E+00;  0.0000000E+00;  0.0000000E+00;0;  4.0790550E-02;  8.6740250E+01;  0.0000000E+00;  4.3755028E-04;  1.0000000E+02;  0.0000000E+00;  9.7123428E+01;  3.4129467E-02;  0.0000000E+00;  6.6610840E-03;  0.0000000E+00;
  3.2779827E+00;  9.9999998E-03;  1.0144819E+00;351;  3.8587928E-02;  0.0000000E+00;  6.6438941E-03;  9.9890757E+00;  4.3590519E-01; -9.8410797E-01;3;  1.1935183E-03;  0.0000000E+00;  2.3775678E-03;  0.0000000E+00;  0.0000000E+00;  0.0000000E+00;0;  4.1662831E-02;  8.6545433E+01;  0.0000000E+00;  3.0888704E-04;  1.0000000E+02;  0.0000000E+00;  9.7082855E+01;  3.4846898E-02;  0.0000000E+00;  6.8159332E-03;  0.0000000E+00;
  3.4914167E+00;  9.9999998E-03; -1.4040840E-09;357;  4.6500999E-02;  0.0000000E+00; -1.6556083E-08;  9.9896460E+00;  4.3819422E-01; -9.2590725E-01;3;  1.7698871E-03;  0.0000000E+00;  5.7789396E-07;  0.0000000E+00;  0.0000000E+00;  0.0000000E+00;0;  4.3153778E-02;  8.5892761E+01;  0.0000000E+00; -9.3908705E-15;  1.0000000E+02;  0.0000000E+00;  9.6811188E+01;  3.5740003E-02;  0.0000000E+00;  7.4137766E-03;  0.0000000E+00;
  3.4919190E+00;  9.9999998E-03;  2.0459014E-01;358;  4.6733104E-02;  0.0000000E+00;  2.4959815E-03;  9.9895821E+00;  4.3836263E-01; -9.3159992E-01;3;  1.8789021E-03;  0.0000000E+00;  3.5124033E-04;  0.0000000E+00;  0.0000000E+00;  0.0000000E+00;0;  4.3428849E-02;  8.5848961E+01;  0.0000000E+00;  1.3605243E-04;  1.0000000E+02;  0.0000000E+00;  9.6785324E+01;  3.5914432E-02;  0.0000000E+00;  7.5144176E-03;  0.0000000E+00;
  3.4929597E+00;  9.9999998E-03;  4.0770030E-01;359;  4.7011595E-02;  0.0000000E+00;  3.7354382E-03;  9.9894629E+00;  4.3872079E-01; -9.4223815E-01;3;  1.8017999E-03;  0.0000000E+00; -6.5402698E-04;  0.0000000E+00;  0.0000000E+00;  0.0000000E+00;0;  4.3943383E-02;  8.5732452E+01;  0.0000000E+00;  5.3723634E-04;  1.0000000E+02;  0.0000000E+00;  9.6756134E+01;  3.6365665E-02;  0.0000000E+00;  7.5777154E-03;  0.0000000E+00;
  3.4941261E+00;  9.9999998E-03;  6.1066765E-01;360;  4.7227997E-02;  0.0000000E+00;  5.2160285E-03;  9.9892712E+00;  4.3919060E-01; -9.5937562E-01;3;  1.6440410E-03;  0.0000000E+00; -1.3477986E-03;  0.0000000E+00;  0.0000000E+00;  0.0000000E+00;0;  4.4751450E-02;  8.5576294E+01;  0.0000000E+00;  1.0990407E-03;  1.0000000E+02;  0.0000000E+00;  9.6722206E+01;  3.6956370E-02;  0.0000000E+00;  7.7950801E-03;  0.0000000E+00;
  3.4954965E+00;  9.9999998E-03;  8.1368166E-01;361;  4.7570992E-02;  0.0000000E+00;  6.4253272E-03;  9.9891329E+00;  4.3968293E-01; -9.7171116E-01;3;  1.5692676E-03;  0.0000000E+00; -4.9533253E-04;  0.0000000E+00;  0.0000000E+00;  0.0000000E+00;0;  4.5358770E-02;  8.5413918E+01;  0.0000000E+00;  1.4887095E-03;  1.0000000E+02;  0.0000000E+00;  9.6686546E+01;  3.7560221E-02;  0.0000000E+00;  7.7985483E-03;  0.0000000E+00;
  3.4967623E+00;  9.9999998E-03;  1.0168161E+00;362;  4.8123389E-02;  0.0000000E+00;  7.7938172E-03;  9.9890203E+00;  4.4012085E-01; -9.8175657E-01;3;  1.8383433E-03;  0.0000000E+00;  2.6414574E-03;  0.0000000E+00;  0.0000000E+00;  0.0000000E+00;0;  4.5906287E-02;  8.5270172E+01;  0.0000000E+00;  1.0350788E-03;  1.0000000E+02;  0.0000000E+00;  9.6655319E+01;  3.8089994E-02;  0.0000000E+00;  7.8162914E-03;  0.0000000E+00;
  3.7095368E+00;  9.9999998E-03; -9.7736730E-10;368;  5.5172782E-02;  0.0000000E+00; -1.6456216E-08;  9.9894180E+00;  4.4243866E-01; -9.4315052E-01;3;  2.7107394E-03;  0.0000000E+00;  7.4754291E-07;  0.0000000E+00;  0.0000000E+00;  0.0000000E+00;0;  4.7560364E-02;  8.4588287E+01;  0.0000000E+00; -1.1729262E-14;  1.0000000E+02;  0.0000000E+00;  9.6422546E+01;  3.9167613E-02;  0.0000000E+00;  8.3927494E-03;  0.0000000E+00;
  3.7102718E+00;  9.9999998E-03;  2.0421295E-01;369;  5.5602551E-02;  0.0000000E+00;  2.2701449E-03;  9.9893913E+00;  4.4251984E-01; -9.4548106E-01;3;  2.8988749E-03;  0.0000000E+00;  3.9939093E-04;  0.0000000E+00;  0.0000000E+00;  0.0000000E+00;0;  4.7689274E-02;  8.4562302E+01;  0.0000000E+00;  1.1113509E-04;  1.0000000E+02;  0.0000000E+00;  9.6416313E+01;  3.9256450E-02;  0.0000000E+00;  8.4328242E-03;  0.0000000E+00;
  3.7117558E+00;  9.9999998E-03;  4.0811601E-01;370;  5.6299783E-02;  0.0000000E+00;  4.1692816E-03;  9.9893217E+00;  4.4273713E-01; -9.5168269E-01;3;  3.0536770E-03;  0.0000000E+00; -9.3406910E-05;  0.0000000E+00;  0.0000000E+00;  0.0000000E+00;0;  4.8014183E-02;  8.4495354E+01;  0.0000000E+00;  4.8419801E-04;  1.0000000E+02;  0.0000000E+00;  9.6396736E+01;  3.9478075E-02;  0.0000000E+00;  8.5361069E-03;  0.0000000E+00;
  3.7131865E+00;  9.9999998E-03;  6.1166745E-01;371;  5.6722913E-02;  0.0000000E+00;  5.7074632E-03;  9.9892483E+00;  4.4300717E-01; -9.5820338E-01;3;  2.8772983E-03;  0.0000000E+00; -1.0333095E-03;  0.0000000E+00;  0.0000000E+00;  0.0000000E+00;0;  4.8363116E-02;  8.4410095E+01;  0.0000000E+00;  1.0582666E-03;  1.0000000E+02;  0.0000000E+00;  9.6375885E+01;  3.9749645E-02;  0.0000000E+00;  8.6134700E-03;  0.0000000E+00;
  3.7146025E+00;  9.9999998E-03;  8.1514102E-01;372;  5.6999121E-02;  0.0000000E+00;  7.1101882E-03;  9.9892111E+00;  4.4327027E-01; -9.6153694E-01;3;  2.5255466E-03;  0.0000000E+00; -8.0933433E-04;  0.0000000E+00;  0.0000000E+00;  0.0000000E+00;0;  4.8545528E-02;  8.4325783E+01;  0.0000000E+00;  1.3907520E-03;  1.0000000E+02;  0.0000000E+00;  9.6356613E+01;  4.0009502E-02;  0.0000000E+00;  8.5360259E-03;  0.0000000E+00;
  3.7158017E+00;  9.9999998E-03;  1.0186598E+00;373;  5.7306238E-02;  0.0000000E+00;  8.5862232E-03;  9.9892044E+00;  4.4349396E-01; -9.6211016E-01;3;  2.3516901E-03;  0.0000000E+00;  2.1907608E-03;  0.0000000E+00;  0.0000000E+00;  0.0000000E+00;0;  4.8618298E-02;  8.4254356E+01;  0.0000000E+00;  7.0493249E-04;  1.0000000E+02;  0.0000000E+00;  9.6341148E+01;  4.0223271E-02;  0.0000000E+00;  8.3950283E-03;  0.0000000E+00;
  3.9296160E+00;  9.9999998E-03;  5.0083226E-10;379;  6.4952843E-02;  0.0000000E+00; -1.6910088E-08;  9.9893198E+00;  4.4601756E-01; -9.5048583E-01;3;  4.1483841E-03;  0.0000000E+00;  7.8923557E-07;  0.0000000E+00;  0.0000000E+00;  0.0000000E+00;0;  5.0843645E-02;  8.3511436E+01;  0.0000000E+00; -1.2271325E-14;  1.0000000E+02;  0.0000000E+00;  9.6103302E+01;  4.1750126E-02;  0.0000000E+00;  9.0935193E-03;  0.0000000E+00;
  3.9302895E+00;  9.9999998E-03;  2.0317875E-01;380;  6.5338753E-02;  0.0000000E+00;  1.4906891E-03;  9.9893341E+00;  4.4598866E-01; -9.4921005E-01;3;  4.3259156E-03;  0.0000000E+00;  3.0079187E-04;  0.0000000E+00;  0.0000000E+00;  0.0000000E+00;0;  5.0780602E-02;  8.3500114E+01;  0.0000000E+00;  4.5978737E-05;  1.0000000E+02;  0.0000000E+00;  9.6128960E+01;  4.1753069E-02;  0.0000000E+00;  9.0275332E-03;  0.0000000E+00;
  3.9315007E+00;  9.9999998E-03;  4.0817848E-01;381;  6.5900967E-02;  0.0000000E+00;  4.1690120E-03;  9.9893131E+00;  4.4608966E-01; -9.5111501E-01;3;  4.4319043E-03;  0.0000000E+00;  5.4599874E-04;  0.0000000E+00;  0.0000000E+00;  0.0000000E+00;0;  5.0893534E-02;  8.3472305E+01;  0.0000000E+00;  2.2993979E-04;  1.0000000E+02;  0.0000000E+00;  9.6116814E+01;  4.1749705E-02;  0.0000000E+00;  9.1438284E-03;  0.0000000E+00;
  3.9325378E+00;  9.9999998E-03;  6.1238146E-01;382;  6.6126965E-02;  0.0000000E+00;  5.9708660E-03;  9.9893131E+00;  4.4620150E-01; -9.5111102E-01;3;  4.1499501E-03;  0.0000000E+00; -3.2905236E-04;  0.0000000E+00;  0.0000000E+00;  0.0000000E+00;0;  5.0889999E-02;  8.3440506E+01;  0.0000000E+00;  5.5748346E-04;  1.0000000E+02;  0.0000000E+00;  9.6105270E+01;  4.1728783E-02;  0.0000000E+00;  9.1612153E-03;  0.0000000E+00;
  3.9335020E+00;  9.9999998E-03;  8.1630367E-01;383;  6.6144988E-02;  0.0000000E+00;  7.5573847E-03;  9.9893465E+00;  4.4629797E-01; -9.4813675E-01;3;  3.5866336E-03;  0.0000000E+00; -1.2820007E-03;  0.0000000E+00;  0.0000000E+00;  0.0000000E+00;0;  5.0705969E-02;  8.3411964E+01;  0.0000000E+00;  7.7395712E-04;  1.0000000E+02;  0.0000000E+00;  9.6096779E+01;  4.1691855E-02;  0.0000000E+00;  9.0141166E-03;  0.0000000E+00;
  3.9342651E+00;  9.9999998E-03;  1.0201631E+00;384;  6.6090219E-02;  0.0000000E+00;  9.1153607E-03;  9.9894190E+00;  4.4637924E-01; -9.4166231E-01;3;  3.0206833E-03;  0.0000000E+00;  1.3706076E-03;  0.0000000E+00;  0.0000000E+00;  0.0000000E+00;0;  5.0374590E-02;  8.3387535E+01;  0.0000000E+00;  4.1274942E-04;  1.0000000E+02;  0.0000000E+00;  9.6091843E+01;  4.1647930E-02;  0.0000000E+00;  8.7266620E-03;  0.0000000E+00;
  4.1510453E+00;  9.9999998E-03;  2.8890701E-09;390;  7.5873271E-02;  0.0000000E+00; -1.8314138E-08;  9.9892473E+00;  4.4908431E-01; -9.5637476E-01;3;  6.2635285E-03;  0.0000000E+00;  6.7012365E-07;  0.0000000E+00;  0.0000000E+00;  0.0000000E+00;0;  5.3139038E-02;  8.2599518E+01;  0.0000000E+00;  3.6736242E-15;  1.0000000E+02;  0.0000000E+00;  9.5839958E+01;  4.3568075E-02;  0.0000000E+00;  9.5709637E-03;  0.0000000E+00;
  4.1511631E+00;  9.9999998E-03;  2.0261268E-01;391;  7.5689413E-02;  0.0000000E+00;  9.5715583E-04;  9.9892845E+00;  4.4899005E-01; -9.5308769E-01;3;  6.0118502E-03;  0.0000000E+00; -1.4419584E-05;  0.0000000E+00;  0.0000000E+00;  0.0000000E+00;0;  5.2953243E-02;  8.2593704E+01;  0.0000000E+00;  1.8924302E-05;  1.0000000E+02;  0.0000000E+00;  9.5887856E+01;  4.3520447E-02;  0.0000000E+00;  9.4327973E-03;  0.0000000E+00;
  4.1513324E+00;  9.9999998E-03;  4.0847841E-01;392;  7.5500146E-02;  0.0000000E+00;  4.1044750E-03;  9.9892893E+00;  4.4905013E-01; -9.5266336E-01;3;  5.7841945E-03;  0.0000000E+00;  6.3376594E-04;  0.0000000E+00;  0.0000000E+00;  0.0000000E+00;0;  5.2927941E-02;  8.2578995E+01;  0.0000000E+00;  9.5772637E-05;  1.0000000E+02;  0.0000000E+00;  9.5878777E+01;  4.3395624E-02;  0.0000000E+00;  9.5323175E-03;  0.0000000E+00;
  4.1513042E+00;  9.9999998E-03;  6.1314529E-01;393;  7.5119831E-02;  0.0000000E+00;  6.1825872E-03;  9.9893188E+00;  4.4912139E-01; -9.5001268E-01;3;  5.3554671E-03;  0.0000000E+00;  5.8988784E-04;  0.0000000E+00;  0.0000000E+00;  0.0000000E+00;0;  5.2783236E-02;  8.2561058E+01;  0.0000000E+00;  2.3516537E-04;  1.0000000E+02;  0.0000000E+00;  9.5870209E+01;  4.3229926E-02;  0.0000000E+00;  9.5533077E-03;  0.0000000E+00;
  4.1513495E+00;  9.9999998E-03;  8.1738341E-01;394;  7.4715525E-02;  0.0000000E+00;  7.9186009E-03;  9.9893723E+00;  4.4919124E-01; -9.4524139E-01;3;  4.7569424E-03;  0.0000000E+00; -1.6528652E-03;  0.0000000E+00;  0.0000000E+00;  0.0000000E+00;0;  5.2467108E-02;  8.2542747E+01;  0.0000000E+00;  3.2552521E-04;  1.0000000E+02;  0.0000000E+00;  9.5862061E+01;  4.3060008E-02;  0.0000000E+00;  9.4070993E-03;  0.0000000E+00;
  4.1513896E+00;  9.9999998E-03;  1.0214933E+00;395;  7.4305549E-02;  0.0000000E+00;  9.5121125E-03;  9.9894753E+00;  4.4926754E-01; -9.3612283E-01;3;  4.0909033E-03;  0.0000000E+00;  4.1543630E-05;  0.0000000E+00;  0.0000000E+00;  0.0000000E+00;0;  5.1925901E-02;  8.2520752E+01;  0.0000000E+00;  2.1547917E-04;  1.0000000E+02;  0.0000000E+00;  9.5856766E+01;  4.2914841E-02;  0.0000000E+00;  9.0110609E-03;  0.0000000E+00;
  4.3726163E+00;  9.9999998E-03;  5.1211795E-09;401;  8.7030977E-02;  0.0000000E+00; -2.2811063E-08;  9.9891224E+00;  4.5170388E-01; -9.6726352E-01;3;  8.7179132E-03;  0.0000000E+00;  3.6227573E-07;  0.0000000E+00;  0.0000000E+00;  0.0000000E+00;0;  5.4595977E-02;  8.1816193E+01;  0.0000000E+00;  7.3076929E-15;  1.0000000E+02;  0.0000000E+00;  9.5636406E+01;  4.4735961E-02;  0.0000000E+00;  9.8600164E-03;  0.0000000E+00;
  4.3717442E+00;  9.9999998E-03;  2.0356703E-01;402;  8.5971683E-02;  0.0000000E+00;  1.3050415E-03;  9.9891558E+00;  4.5163980E-01; -9.6429610E-01;3;  7.8695836E-03;  0.0000000E+00; -3.7003917E-04;  0.0000000E+00;  0.0000000E+00;  0.0000000E+00;0;  5.4426480E-02;  8.1807396E+01;  0.0000000E+00;  2.3735993E-05;  1.0000000E+02;  0.0000000E+00;  9.5674423E+01;  4.4683222E-02;  0.0000000E+00;  9.7432584E-03;  0.0000000E+00;
  4.3706779E+00;  9.9999998E-03;  4.0943027E-01;403;  8.4776834E-02;  0.0000000E+00;  4.2926692E-03;  9.9891634E+00;  4.5173606E-01; -9.6360779E-01;3;  7.1360003E-03;  0.0000000E+00;  3.2164290E-04;  0.0000000E+00;  0.0000000E+00;  0.0000000E+00;0;  5.4373838E-02;  8.1779251E+01;  0.0000000E+00;  3.3073597E-05;  1.0000000E+02;  0.0000000E+00;  9.5666145E+01;  4.4568114E-02;  0.0000000E+00;  9.8057240E-03;  0.0000000E+00;
  4.3694324E+00;  9.9999998E-03;  6.1413312E-01;404;  8.3652481E-02;  0.0000000E+00;  6.4456025E-03;  9.9891844E+00;  4.5188046E-01; -9.6175367E-01;3;  6.5144831E-03;  0.0000000E+00;  1.3752679E-03;  0.0000000E+00;  0.0000000E+00;  0.0000000E+00;0;  5.4282278E-02;  8.1737488E+01;  0.0000000E+00; -8.3811719E-05;  1.0000000E+02;  0.0000000E+00;  9.5654167E+01;  4.4430226E-02;  0.0000000E+00;  9.8520508E-03;  0.0000000E+00;
  4.3683763E+00;  9.9999998E-03;  8.1844246E-01;405;  8.2759000E-02;  0.0000000E+00;  8.2520079E-03;  9.9892130E+00;  4.5205456E-01; -9.5921034E-01;3;  6.0163182E-03;  0.0000000E+00; -1.7462315E-03;  0.0000000E+00;  0.0000000E+00;  0.0000000E+00;0;  5.4076541E-02;  8.1689278E+01;  0.0000000E+00; -5.1154330E-04;  1.0000000E+02;  0.0000000E+00;  9.5637764E+01;  4.4299215E-02;  0.0000000E+00;  9.7773271E-03;  0.0000000E+00;
  4.3676353E+00;  9.9999998E-03;  1.0226651E+00;406;  8.2031898E-02;  0.0000000E+00;  9.8294998E-03;  9.9893084E+00;  4.5223391E-01; -9.5073062E-01;3;  5.5286507E-03;  0.0000000E+00; -1.5405915E-03;  0.0000000E+00;  0.0000000E+00;  0.0000000E+00;0;  5.3520881E-02;  8.1637924E+01;  0.0000000E+00; -1.4332960E-03;  1.0000000E+02;  0.0000000E+00;  9.5624344E+01;  4.4195119E-02;  0.0000000E+00;  9.3257595E-03;  0.0000000E+00;
  4.5922313E+00;  9.9999998E-03;  3.3634662E-09;412;  9.6375421E-02;  0.0000000E+00; -2.7151659E-08;  9.9889688E+00;  4.5344365E-01; -9.8078299E-01;3;  1.0047771E-02;  0.0000000E+00; -1.0929899E-08;  0.0000000E+00;  0.0000000E+00;  0.0000000E+00;0;  5.4899700E-02;  8.1279251E+01;  0.0000000E+00;  1.1874693E-14;  1.0000000E+02;  0.0000000E+00;  9.5527611E+01;  4.4986479E-02;  0.0000000E+00;  9.9132210E-03;  0.0000000E+00;
  4.5913873E+00;  9.9999998E-03;  2.0603479E-01;413;  9.5428877E-02;  0.0000000E+00;  2.4084614E-03;  9.9889698E+00;  4.5351583E-01; -9.8073035E-01;3;  9.4841598E-03;  0.0000000E+00; -4.8391713E-04;  0.0000000E+00;  0.0000000E+00;  0.0000000E+00;0;  5.4888416E-02;  8.1260712E+01;  0.0000000E+00; -7.0681541E-05;  1.0000000E+02;  0.0000000E+00;  9.5519417E+01;  4.4982314E-02;  0.0000000E+00;  9.9061020E-03;  0.0000000E+00;
  4.5899730E+00;  9.9999998E-03;  4.1081604E-01;414;  9.3827069E-02;  0.0000000E+00;  4.8096734E-03;  9.9889584E+00;  4.5368466E-01; -9.8173767E-01;3;  8.4558548E-03;  0.0000000E+00;  2.9803696E-04;  0.0000000E+00;  0.0000000E+00;  0.0000000E+00;0;  5.4952025E-02;  8.1206482E+01;  0.0000000E+00; -2.9960638E-04;  1.0000000E+02;  0.0000000E+00;  9.5511780E+01;  4.4979263E-02;  0.0000000E+00;  9.9727642E-03;  0.0000000E+00;
  4.5886431E+00;  9.9999998E-03;  6.1511201E-01;415;  9.2524178E-02;  0.0000000E+00;  6.7071011E-03;  9.9889488E+00;  4.5395398E-01; -9.8258597E-01;3;  7.7471607E-03;  0.0000000E+00;  1.6127829E-03;  0.0000000E+00;  0.0000000E+00;  0.0000000E+00;0;  5.5010162E-02;  8.1125626E+01;  0.0000000E+00; -4.5676323E-04;  1.0000000E+02;  0.0000000E+00;  9.5493156E+01;  4.4986658E-02;  0.0000000E+00;  1.0023505E-02;  0.0000000E+00;
  4.5877938E+00;  9.9999998E-03;  8.1924933E-01;416;  9.1641024E-02;  0.0000000E+00;  8.4692836E-03;  9.9889345E+00;  4.5427299E-01; -9.8385805E-01;3;  7.3383441E-03;  0.0000000E+00; -1.4084991E-03;  0.0000000E+00;  0.0000000E+00;  0.0000000E+00;0;  5.5036772E-02;  8.1034088E+01;  0.0000000E+00; -8.9718093E-04;  1.0000000E+02;  0.0000000E+00;  9.5467102E+01;  4.5000736E-02;  0.0000000E+00;  1.0036037E-02;  0.0000000E+00;
  4.5874543E+00;  9.9999998E-03;  1.0234435E+00;417;  9.1061912E-02;  0.0000000E+00;  9.9991886E-03;  9.9889984E+00;  4.5455524E-01; -9.7818762E-01;3;  7.1194638E-03;  0.0000000E+00; -3.2548772E-03;  0.0000000E+00;  0.0000000E+00;  0.0000000E+00;0;  5.4591894E-02;  8.0953102E+01;  0.0000000E+00; -3.0278682E-03;  1.0000000E+02;  0.0000000E+00;  9.5445343E+01;  4.5001332E-02;  0.0000000E+00;  9.5905624E-03;  0.0000000E+00;
  4.8101354E+00;  9.9999998E-03; -1.4089200E-09;423;  1.0407781E-01;  0.0000000E+00; -2.4860595E-08;  9.9888973E+00;  4.5342350E-01; -9.8710012E-01;3;  1.0207803E-02;  0.0000000E+00; -4.0330360E-07;  0.0000000E+00;  0.0000000E+00;  0.0000000E+00;0;  5.3362973E-02;  8.1254776E+01;  0.0000000E+00;  6.0115605E-15;  1.0000000E+02;  0.0000000E+00;  9.5564102E+01;  4.3726571E-02;  0.0000000E+00;  9.6364021E-03;  0.0000000E+00;
  4.8106799E+00;  9.9999998E-03;  2.0830779E-01;424;  1.0419694E-01;  0.0000000E+00;  3.2553300E-03;  9.9888630E+00;  4.5364794E-01; -9.9017376E-01;3;  1.0284340E-02;  0.0000000E+00;  4.1282077E-05;  0.0000000E+00;  0.0000000E+00;  0.0000000E+00;0;  5.3517159E-02;  8.1226883E+01;  0.0000000E+00; -6.0574203E-05;  1.0000000E+02;  0.0000000E+00;  9.5501816E+01;  4.3786500E-02;  0.0000000E+00;  9.7306604E-03;  0.0000000E+00;
  4.8117967E+00;  9.9999998E-03;  4.1173133E-01;425;  1.0390542E-01;  0.0000000E+00;  4.9771485E-03;  9.9888210E+00;  4.5387566E-01; -9.9388301E-01;3;  9.7898878E-03;  0.0000000E+00;  1.9645196E-04;  0.0000000E+00;  0.0000000E+00;  0.0000000E+00;0;  5.3695552E-02;  8.1153595E+01;  0.0000000E+00;  1.2520404E-04;  1.0000000E+02;  0.0000000E+00;  9.5491516E+01;  4.3914322E-02;  0.0000000E+00;  9.7812312E-03;  0.0000000E+00;
  4.8134027E+00;  9.9999998E-03;  6.1545074E-01;426;  1.0390484E-01;  0.0000000E+00;  6.6957679E-03;  9.9887638E+00;  4.5421270E-01; -9.9897015E-01;3;  9.4001293E-03;  0.0000000E+00;  1.5701668E-03;  0.0000000E+00;  0.0000000E+00;  0.0000000E+00;0;  5.3954747E-02;  8.1050270E+01;  0.0000000E+00;  7.4672542E-04;  1.0000000E+02;  0.0000000E+00;  9.5470299E+01;  4.4062339E-02;  0.0000000E+00;  9.8924069E-03;  0.0000000E+00;
  4.8164954E+00;  9.9999998E-03;  8.1933397E-01;427;  1.0464305E-01;  0.0000000E+00;  8.3665922E-03;  9.9886990E+00;  4.5462298E-01; -1.0047460E+00;3;  9.1383308E-03;  0.0000000E+00; -8.4505737E-04;  0.0000000E+00;  0.0000000E+00;  0.0000000E+00;0;  5.4191500E-02;  8.0930206E+01;  0.0000000E+00;  1.4766562E-04;  1.0000000E+02;  0.0000000E+00;  9.5439095E+01;  4.4207025E-02;  0.0000000E+00;  9.9844728E-03;  0.0000000E+00;
  4.8194437E+00;  9.9999998E-03;  1.0234221E+00;428;  1.0538441E-01;  0.0000000E+00;  9.8493127E-03;  9.9887142E+00;  4.5497635E-01; -1.0033678E+00;3;  8.9421896E-03;  0.0000000E+00; -4.8212074E-03;  0.0000000E+00;  0.0000000E+00;  0.0000000E+00;0;  5.3910580E-02;  8.0827675E+01;  0.0000000E+00;  6.9432356E-04;  1.0000000E+02;  0.0000000E+00;  9.5411621E+01;  4.4305615E-02;  0.0000000E+00;  9.6049635E-03;  0.0000000E+00;
  5.0318413E+00;  9.9999998E-03; -9.0946290E-09;434;  1.1344511E-01;  0.0000000E+00; -1.4571671E-08;  9.9890299E+00;  4.5081601E-01; -9.7531801E-01;3;  1.0472713E-02;  0.0000000E+00; -7.2164403E-07;  0.0000000E+00;  0.0000000E+00;  0.0000000E+00;0;  4.9317878E-02;  8.2018272E+01;  0.0000000E+00;  8.6013197E-15;  1.0000000E+02;  0.0000000E+00;  9.5774681E+01;  4.0341787E-02;  0.0000000E+00;  8.9760898E-03;  0.0000000E+00;
  5.0350795E+00;  9.9999998E-03;  2.0794430E-01;435;  1.1538914E-01;  0.0000000E+00;  3.2935711E-03;  9.9889746E+00;  4.5105577E-01; -9.8024607E-01;3;  1.0999971E-02;  0.0000000E+00;  7.8185124E-04;  0.0000000E+00;  0.0000000E+00;  0.0000000E+00;0;  4.9505640E-02;  8.1992203E+01;  0.0000000E+00;  1.6162368E-03;  1.0000000E+02;  0.0000000E+00;  9.5702797E+01;  4.0392108E-02;  0.0000000E+00;  9.1135306E-03;  0.0000000E+00;
  5.0406117E+00;  9.9999998E-03;  4.1098976E-01;436;  1.1763802E-01;  0.0000000E+00;  4.2032744E-03;  9.9889307E+00;  4.5130375E-01; -9.8411423E-01;3;  1.1789160E-02;  0.0000000E+00;  2.2395053E-03;  0.0000000E+00;  0.0000000E+00;  0.0000000E+00;0;  4.9589977E-02;  8.1912071E+01;  0.0000000E+00;  2.8776121E-03;  1.0000000E+02;  0.0000000E+00;  9.5690392E+01;  4.0577073E-02;  0.0000000E+00;  9.0129049E-03;  0.0000000E+00;
  5.0468931E+00;  9.9999998E-03;  6.1457330E-01;437;  1.1883239E-01;  0.0000000E+00;  6.0653114E-03;  9.9888000E+00;  4.5173162E-01; -9.9571925E-01;3;  1.1322054E-02;  0.0000000E+00;  2.2415828E-03;  0.0000000E+00;  0.0000000E+00;  0.0000000E+00;0;  5.0044045E-02;  8.1782600E+01;  0.0000000E+00; -3.8883740E-03;  1.0000000E+02;  0.0000000E+00;  9.5658104E+01;  4.0814750E-02;  0.0000000E+00;  9.2292940E-03;  0.0000000E+00;
  5.0578766E+00;  9.9999998E-03;  8.1840587E-01;438;  1.2132558E-01;  0.0000000E+00;  7.7174231E-03;  9.9886494E+00;  4.5247954E-01; -1.0091257E+00;3;  8.8159991E-03;  0.0000000E+00;  6.1584252E-04;  0.0000000E+00;  0.0000000E+00;  0.0000000E+00;0;  5.0480638E-02;  8.1559006E+01;  0.0000000E+00; -1.8024234E-02;  1.0000000E+02;  0.0000000E+00;  9.5601227E+01;  4.1089091E-02;  0.0000000E+00;  9.3915472E-03;  0.0000000E+00;
  5.0619092E+00;  9.9999998E-03;  1.0224398E+00;439;  1.2136819E-01;  0.0000000E+00;  9.2458846E-03;  9.9885578E+00;  4.5318642E-01; -1.0172862E+00;3;  1.1049381E-02;  0.0000000E+00; -6.1252224E-03;  0.0000000E+00;  0.0000000E+00;  0.0000000E+00;0;  5.0585553E-02;  8.1351677E+01;  0.0000000E+00;  2.6634086E-02;  1.0000000E+02;  0.0000000E+00;  9.5545448E+01;  4.1374519E-02;  0.0000000E+00;  9.2110345E-03;  0.0000000E+00;
  5.2634749E+00;  9.9999998E-03; -1.0996936E-08;445;  1.2724708E-01;  0.0000000E+00; -1.7210655E-09;  9.9893827E+00;  4.4566864E-01; -9.4393945E-01;3;  1.0955422E-02;  0.0000000E+00; -9.1042602E-07;  0.0000000E+00;  0.0000000E+00;  0.0000000E+00;0;  4.2697612E-02;  8.3602493E+01;  0.0000000E+00; -2.1033785E-15;  1.0000000E+02;  0.0000000E+00;  9.6148140E+01;  3.4742415E-02;  0.0000000E+00;  7.9551972E-03;  0.0000000E+00;
  5.2713675E+00;  9.9999998E-03;  2.0577644E-01;446;  1.3229650E-01;  0.0000000E+00;  3.0078769E-03;  9.9892321E+00;  4.4603109E-01; -9.5734626E-01;3;  1.2837220E-02;  0.0000000E+00;  7.4857741E-04;  0.0000000E+00;  0.0000000E+00;  0.0000000E+00;0;  4.3099407E-02;  8.3506058E+01;  0.0000000E+00;  2.1789933E-03;  1.0000000E+02;  0.0000000E+00;  9.6101364E+01;  3.4953933E-02;  0.0000000E+00;  8.1454730E-03;  0.0000000E+00;
  5.2768035E+00;  9.9999998E-03;  4.0930340E-01;447;  1.3376880E-01;  0.0000000E+00;  3.2718636E-03;  9.9890900E+00;  4.4666478E-01; -9.6995813E-01;3;  1.3195401E-02;  0.0000000E+00;  2.6417843E-03;  0.0000000E+00;  0.0000000E+00;  0.0000000E+00;0;  4.3525133E-02;  8.3307686E+01;  0.0000000E+00; -4.7507295E-03;  1.0000000E+02;  0.0000000E+00;  9.6055122E+01;  3.5552215E-02;  0.0000000E+00;  7.9729185E-03;  0.0000000E+00;
  5.2723041E+00;  9.9999998E-03;  6.1265320E-01;448;  1.2620009E-01;  0.0000000E+00;  4.9612443E-03;  9.9890833E+00;  4.4695681E-01; -9.7054112E-01;3;  1.1916702E-02;  0.0000000E+00;  3.3449673E-03;  0.0000000E+00;  0.0000000E+00;  0.0000000E+00;0;  4.3682922E-02;  8.3221436E+01;  0.0000000E+00; -9.2133312E-03;  1.0000000E+02;  0.0000000E+00;  9.6029068E+01;  3.5522081E-02;  0.0000000E+00;  8.1608417E-03;  0.0000000E+00;
  5.2745271E+00;  9.9999998E-03;  8.1645888E-01;449;  1.2931907E-01;  0.0000000E+00;  6.8296562E-03;  9.9886971E+00;  4.4765109E-01; -1.0048796E+00;3;  1.0846034E-02;  0.0000000E+00;  1.6007388E-03;  0.0000000E+00;  0.0000000E+00;  0.0000000E+00;0;  4.5178518E-02;  8.3005287E+01;  0.0000000E+00; -1.6554244E-02;  1.0000000E+02;  0.0000000E+00;  9.5973419E+01;  3.6593352E-02;  0.0000000E+00;  8.5851662E-03;  0.0000000E+00;
  5.2664075E+00;  9.9999998E-03;  1.0201828E+00;450;  1.2133788E-01;  0.0000000E+00;  8.1584826E-03;  9.9890652E+00;  4.4724959E-01; -9.7218394E-01;3;  1.1463192E-02;  0.0000000E+00; -5.6293039E-03;  0.0000000E+00;  0.0000000E+00;  0.0000000E+00;0;  4.3682709E-02;  8.3138557E+01;  0.0000000E+00;  3.3455219E-02;  1.0000000E+02;  0.0000000E+00;  9.5999466E+01;  3.5562806E-02;  0.0000000E+00;  8.1199054E-03;  0.0000000E+00;
  5.4875197E+00;  9.9999998E-03; -1.9059801E-08;456;  1.3205634E-01;  0.0000000E+00; -8.6872296E-09;  9.9897718E+00;  4.3961871E-01; -9.0933329E-01;3;  1.1205660E-02;  0.0000000E+00; -9.7975135E-07;  0.0000000E+00;  0.0000000E+00;  0.0000000E+00;0;  3.5025518E-02;  8.5503426E+01;  0.0000000E+00;  1.1510177E-14;  1.0000000E+02;  0.0000000E+00;  9.6625084E+01;  2.8244168E-02;  0.0000000E+00;  6.7813522E-03;  0.0000000E+00;
  5.4902444E+00;  9.9999998E-03;  2.0415621E-01;457;  1.3657373E-01;  0.0000000E+00;  9.5893268E-04;  9.9894600E+00;  4.4010046E-01; -9.3704784E-01;3;  1.2232305E-02;  0.0000000E+00; -7.2798599E-04;  0.0000000E+00;  0.0000000E+00;  0.0000000E+00;0;  3.6007658E-02;  8.5354416E+01;  0.0000000E+00;  4.8706220E-03;  1.0000000E+02;  0.0000000E+00;  9.6576477E+01;  2.9242031E-02;  0.0000000E+00;  6.7656254E-03;  0.0000000E+00;
  5.4905486E+00;  9.9999998E-03;  4.0705377E-01;458;  1.3582960E-01;  0.0000000E+00;  2.7335749E-03;  9.9892130E+00;  4.4067946E-01; -9.5903927E-01;3;  1.0987578E-02;  0.0000000E+00;  2.3222319E-03;  0.0000000E+00;  0.0000000E+00;  0.0000000E+00;0;  3.6846690E-02;  8.5163757E+01;  0.0000000E+00;  6.1073541E-03;  1.0000000E+02;  0.0000000E+00;  9.6534119E+01;  2.9797226E-02;  0.0000000E+00;  7.0494646E-03;  0.0000000E+00;
  5.4877148E+00;  9.9999998E-03;  6.1029840E-01;459;  1.3399537E-01;  0.0000000E+00;  3.8640173E-03;  9.9891224E+00;  4.4092789E-01; -9.6709394E-01;3;  1.4868421E-02;  0.0000000E+00;  2.6458760E-03;  0.0000000E+00;  0.0000000E+00;  0.0000000E+00;0;  3.7284426E-02;  8.5089897E+01;  0.0000000E+00; -2.4464910E-03;  1.0000000E+02;  0.0000000E+00;  9.6506874E+01;  3.0265644E-02;  0.0000000E+00;  7.0187803E-03;  0.0000000E+00;
  5.4879856E+00;  9.9999998E-03;  8.1405747E-01;460;  1.3403495E-01;  0.0000000E+00;  5.7847016E-03;  9.9886742E+00;  4.4170290E-01; -1.0069436E+00;3;  1.1058774E-02;  0.0000000E+00;  2.0832936E-03;  0.0000000E+00;  0.0000000E+00;  0.0000000E+00;0;  3.8849834E-02;  8.4838875E+01;  0.0000000E+00;  7.8327296E-04;  1.0000000E+02;  0.0000000E+00;  9.6444870E+01;  3.1264368E-02;  0.0000000E+00;  7.5854645E-03;  0.0000000E+00;
  5.4762306E+00;  9.9999998E-03;  1.0172035E+00;461;  1.2954779E-01;  0.0000000E+00;  7.1498831E-03;  9.9890051E+00;  4.3954083E-01; -9.7748035E-01;3;  1.3847682E-02;  0.0000000E+00; -7.0222076E-03;  0.0000000E+00;  0.0000000E+00;  0.0000000E+00;0;  3.7828077E-02;  8.5534821E+01;  0.0000000E+00;  1.0861368E-02;  1.0000000E+02;  0.0000000E+00;  9.6608963E+01;  3.0513041E-02;  0.0000000E+00;  7.3150373E-03;  0.0000000E+00;
  5.6961336E+00;  9.9999998E-03; -1.3247700E-08;467;  1.3838626E-01;  0.0000000E+00; -5.7625291E-09;  9.9894466E+00;  4.3295655E-01; -9.3826544E-01;3;  1.3788518E-02;  0.0000000E+00; -4.3725595E-07;  0.0000000E+00;  0.0000000E+00;  0.0000000E+00;0;  2.9158266E-02;  8.7695374E+01;  0.0000000E+00;  3.6439794E-14;  1.0000000E+02;  0.0000000E+00;  9.7126053E+01;  2.3501653E-02;  0.0000000E+00;  5.6566126E-03;  0.0000000E+00;
  5.6941471E+00;  9.9999998E-03;  2.0063816E-01;468;  1.3713579E-01;  0.0000000E+00; -2.6906650E-05;  9.9896383E+00;  4.3251786E-01; -9.2120224E-01;3;  1.2462977E-02;  0.0000000E+00;  3.0346680E-05;  0.0000000E+00;  0.0000000E+00;  0.0000000E+00;0;  2.8684448E-02;  8.7818794E+01;  0.0000000E+00;  1.7110325E-02;  1.0000000E+02;  0.0000000E+00;  9.7189400E+01;  2.3168778E-02;  0.0000000E+00;  5.5156695E-03;  0.0000000E+00;
  5.6946864E+00;  9.9999998E-03;  4.0411043E-01;469;  1.3680045E-01;  0.0000000E+00;  1.2661463E-03;  9.9894981E+00;  4.3294370E-01; -9.3365520E-01;3;  1.2042539E-02;  0.0000000E+00;  4.4531943E-03;  0.0000000E+00;  0.0000000E+00;  0.0000000E+00;0;  2.9089330E-02;  8.7668739E+01;  0.0000000E+00;  3.1957995E-02;  1.0000000E+02;  0.0000000E+00;  9.7161896E+01;  2.3542432E-02;  0.0000000E+00;  5.5468972E-03;  0.0000000E+00;
  5.6953125E+00;  9.9999998E-03;  6.0762346E-01;470;  1.3631806E-01;  0.0000000E+00;  2.7387002E-03;  9.9892702E+00;  4.3358162E-01; -9.5395094E-01;3;  1.0964412E-02;  0.0000000E+00;  4.1788975E-03;  0.0000000E+00;  0.0000000E+00;  0.0000000E+00;0;  2.9697195E-02;  8.7457336E+01;  0.0000000E+00;  1.1825515E-02;  1.0000000E+02;  0.0000000E+00;  9.7106155E+01;  2.3999102E-02;  0.0000000E+00;  5.6980914E-03;  0.0000000E+00;
  5.6928992E+00;  9.9999998E-03;  8.1093103E-01;471;  1.3392226E-01;  0.0000000E+00;  4.2928890E-03;  9.9896183E+00;  4.3333590E-01; -9.2300397E-01;3;  1.2642263E-02;  0.0000000E+00;  3.0127671E-03;  0.0000000E+00;  0.0000000E+00;  0.0000000E+00;0;  2.8965805E-02;  8.7545502E+01;  0.0000000E+00;  1.5515371E-02;  1.0000000E+02;  0.0000000E+00;  9.7125526E+01;  2.3085101E-02;  0.0000000E+00;  5.8807046E-03;  0.0000000E+00;
  5.6865592E+00;  9.9999998E-03;  1.0139208E+00;472;  1.3343155E-01;  0.0000000E+00;  6.1944313E-03;  9.9889851E+00;  4.3171364E-01; -9.7928089E-01;3;  1.5942171E-02;  0.0000000E+00; -3.6385953E-03;  0.0000000E+00;  0.0000000E+00;  0.0000000E+00;0;  3.0885397E-02;  8.8076935E+01;  0.0000000E+00; -4.4265584E-04;  1.0000000E+02;  0.0000000E+00;  9.7253571E+01;  2.4204390E-02;  0.0000000E+00;  6.6810069E-03;  0.0000000E+00;
  5.9032931E+00;  9.9999998E-03; -2.6591643E-08;477;  1.4034137E-01;  0.0000000E+00;  7.6516841E-08;  9.9884253E+00;  4.2673549E-01; -1.0290393E+00;3;  9.4094295E-03;  0.0000000E+00; -4.2095780E-07;  0.0000000E+00;  0.0000000E+00;  0.0000000E+00;0;  2.3272792E-02;  8.9788742E+01;  0.0000000E+00;  3.7787671E-14;  1.0000000E+02;  0.0000000E+00;  9.7629036E+01;  1.8671583E-02;  0.0000000E+00;  4.6012080E-03;  0.0000000E+00;
  5.9013562E+00;  9.9999998E-03;  1.9986306E-01;478;  1.3935994E-01;  0.0000000E+00; -2.1441857E-04;  9.9889021E+00;  4.2586026E-01; -9.8664618E-01;3;  1.0082470E-02;  0.0000000E+00; -8.6992048E-05;  0.0000000E+00;  0.0000000E+00;  0.0000000E+00;0;  2.2414779E-02;  9.0081375E+01;  0.0000000E+00;  1.2432181E-02;  1.0000000E+02;  0.0000000E+00;  9.7720856E+01;  1.7995382E-02;  0.0000000E+00;  4.4193976E-03;  0.0000000E+00;
  5.8968506E+00;  9.9999998E-03;  4.0098429E-01;479;  1.3686180E-01;  0.0000000E+00;  1.6277365E-04;  9.9901590E+00;  4.2370075E-01; -8.7488741E-01;3;  1.3226550E-02;  0.0000000E+00; -2.8171227E-05;  0.0000000E+00;  0.0000000E+00;  0.0000000E+00;0;  2.0128824E-02;  9.0831718E+01;  0.0000000E+00;  2.4315178E-02;  1.0000000E+02;  0.0000000E+00;  9.7928696E+01;  1.6097592E-02;  0.0000000E+00;  4.0312307E-03;  0.0000000E+00;
  5.8974452E+00;  9.9999998E-03;  6.0443950E-01;480;  1.3624585E-01;  0.0000000E+00;  1.4163747E-03;  9.9903164E+00;  4.2413607E-01; -8.6089766E-01;3;  1.1536972E-02;  0.0000000E+00;  4.4870246E-03;  0.0000000E+00;  0.0000000E+00;  0.0000000E+00;0;  1.9877197E-02;  9.0672882E+01;  0.0000000E+00; -2.1763306E-02;  1.0000000E+02;  0.0000000E+00;  9.7901161E+01;  1.5910314E-02;  0.0000000E+00;  3.9668824E-03;  0.0000000E+00;
  5.8979540E+00;  9.9999998E-03;  8.0790871E-01;481;  1.3786538E-01;  0.0000000E+00;  3.7328119E-03;  9.9881620E+00;  4.2521200E-01; -1.0524615E+00;3;  9.3875071E-03;  0.0000000E+00;  7.6312087E-03;  0.0000000E+00;  0.0000000E+00;  0.0000000E+00;0;  2.4334531E-02;  9.0260696E+01;  0.0000000E+00; -2.0760573E-02;  1.0000000E+02;  0.0000000E+00;  9.7809906E+01;  1.8885797E-02;  0.0000000E+00;  5.4487344E-03;  0.0000000E+00;
  6.1020608E+00;  9.9999998E-03;  3.9982149E-01;487;  1.3909808E-01;  0.0000000E+00; -1.3742357E-04;  9.9882908E+00;  4.1683510E-01; -1.0410151E+00;3;  1.1681270E-02;  0.0000000E+00; -6.1677257E-04;  0.0000000E+00;  0.0000000E+00;  0.0000000E+00;0;  1.4519798E-02;  9.3273193E+01;  0.0000000E+00; -6.2058479E-02;  1.0000000E+02;  0.0000000E+00;  9.8497063E+01;  1.1545931E-02;  0.0000000E+00;  2.9738662E-03;  0.0000000E+00;
  6.1044507E+00;  9.9999998E-03;  6.0321707E-01;488;  1.4108762E-01;  0.0000000E+00;  1.4145741E-03;  9.9846773E+00;  4.1907379E-01; -1.3622487E+00;3;  1.1759123E-02;  0.0000000E+00;  2.6938301E-03;  0.0000000E+00;  0.0000000E+00;  0.0000000E+00;0;  1.9046143E-02;  9.2387344E+01;  0.0000000E+00; -6.0219388E-02;  1.0000000E+02;  0.0000000E+00;  9.8312149E+01;  1.5375072E-02;  0.0000000E+00;  3.6710710E-03;  0.0000000E+00;
  6.1057372E+00;  9.9999998E-03;  1.9914833E-01;486;  1.4065318E-01;  0.0000000E+00; -4.9229496E-04;  9.9864988E+00;  4.1929165E-01; -1.2003071E+00;3;  1.0262018E-02;  0.0000000E+00; -3.2348558E-05;  0.0000000E+00;  0.0000000E+00;  0.0000000E+00;0;  1.6565954E-02;  9.2393890E+01;  0.0000000E+00; -9.3642725E-03;  1.0000000E+02;  0.0000000E+00;  9.8239594E+01;  1.3195773E-02;  0.0000000E+00;  3.3701821E-03;  0.0000000E+00;
  6.1074719E+00;  9.9999998E-03; -1.9242394E-08;485;  1.4163542E-01;  0.0000000E+00;  1.9418542E-07;  9.9850187E+00;  4.2048833E-01; -1.3318846E+00;3;  7.0909718E-03;  0.0000000E+00;  5.7742000E-08;  0.0000000E+00;  0.0000000E+00;  0.0000000E+00;0;  1.8044524E-02;  9.1972946E+01;  0.0000000E+00;  9.6911157E-15;  1.0000000E+02;  0.0000000E+00;  9.8099892E+01;  1.4376525E-02;  0.0000000E+00;  3.6679993E-03;  0.0000000E+00;
  6.3089895E+00;  9.9999998E-03; -3.5412018E-08;491;  1.4229752E-01;  0.0000000E+00; -3.1897152E-08;  9.9671278E+00;  4.1346070E-01; -2.9224727E+00;3;  5.0179758E-03;  0.0000000E+00;  3.6507845E-07;  0.0000000E+00;  0.0000000E+00;  0.0000000E+00;0;  1.3244590E-02;  9.4390999E+01;  0.0000000E+00;  1.0121531E-14;  1.0000000E+02;  0.0000000E+00;  9.8518471E+01;  1.0366189E-02;  0.0000000E+00;  2.8784005E-03;  0.0000000E+00;
  6.3064680E+00;  9.9999998E-03;  1.9791898E-01;492;  1.4106418E-01;  0.0000000E+00; -7.9383352E-04;  9.9735785E+00;  4.1158086E-01; -2.3490005E+00;3;  8.6024981E-03;  0.0000000E+00; -1.9361079E-04;  0.0000000E+00;  0.0000000E+00;  0.0000000E+00;0;  1.0945513E-02;  9.5120049E+01;  0.0000000E+00; -6.4233422E-02;  1.0000000E+02;  0.0000000E+00;  9.8781616E+01;  8.5408296E-03;  0.0000000E+00;  2.4046830E-03;  0.0000000E+00;
  6.3061476E+00;  9.9999998E-03;  3.9998996E-01;493;  1.4145139E-01;  0.0000000E+00;  4.5792997E-04;  9.9688034E+00;  4.1164908E-01; -2.7735140E+00;3;  6.6642463E-03;  0.0000000E+00;  1.7455593E-03;  0.0000000E+00;  0.0000000E+00;  0.0000000E+00;0;  1.2816466E-02;  9.4984810E+01;  0.0000000E+00; -1.2309587E-01;  1.0000000E+02;  0.0000000E+00;  9.8795204E+01;  9.8945871E-03;  0.0000000E+00;  2.9218791E-03;  0.0000000E+00;
