TimeStep;Np;Nbound;Nfixed;Nmoving;Nfloat;Nfluid
6.00194;615;165;165;0;0;450

Pos.x;Pos.y;Pos.z;Idp;Vel.x;Vel.y;Vel.z;Rhop;Mass;Press;Type;Acec.x;Acec.y;Acec.z;AceVisc.x;AceVisc.y;AceVisc.z;CellOffSpring;GradVel;Qfxx;Qfxy;Qfxz;Qfyy;Qfyz;Qfzz;StrainDot.x;StrainDot.y;StrainDot.z;VonMises3D;
 -1.0000000E+00;  9.9999998E-03; -2.0000000E+00;0;  0.0000000E+00;  0.0000000E+00;  0.0000000E+00;  1.0000000E+01;  4.0000001E-01;  0.0000000E+00;0;  0.0000000E+00;  0.0000000E+00;  0.0000000E+00;  0.0000000E+00;  0.0000000E+00;  0.0000000E+00;0; -1.2093624E-07;  1.0000000E+02;  0.0000000E+00;  0.0000000E+00;  1.0000000E+02;  0.0000000E+00;  1.0000000E+02;  2.0512063E-07;  0.0000000E+00; -3.2605686E-07;  0.0000000E+00;
 -8.0000001E-01;  9.9999998E-03; -2.0000000E+00;21;  0.0000000E+00;  0.0000000E+00;  0.0000000E+00;  1.0000000E+01;  4.0000001E-01;  0.0000000E+00;0;  0.0000000E+00;  0.0000000E+00;  0.0000000E+00;  0.0000000E+00;  0.0000000E+00;  0.0000000E+00;0; -8.6346006E-08;  1.0000000E+02;  0.0000000E+00;  0.0000000E+00;  1.0000000E+02;  0.0000000E+00;  1.0000000E+02;  7.0727867E-07;  0.0000000E+00; -7.9362468E-07;  0.0000000E+00;
 -6.0000002E-01;  9.9999998E-03; -2.0000000E+00;42;  0.0000000E+00;  0.0000000E+00;  0.0000000E+00;  1.0000000E+01;  4.0000001E-01;  0.0000000E+00;0;  0.0000000E+00;  0.0000000E+00;  0.0000000E+00;  0.0000000E+00;  0.0000000E+00;  0.0000000E+00;0;  2.0630807E-07;  1.0000000E+02;  0.0000000E+00;  0.0000000E+00;  1.0000000E+02;  0.0000000E+00;  1.0000000E+02;  1.4238171E-06;  0.0000000E+00; -1.2175091E-06;  0.0000000E+00;
 -4.0000001E-01;  9.9999998E-03; -2.0000000E+00;63;  0.0000000E+00;  0.0000000E+00;  0.0000000E+00;  1.0000092E+01;  4.0000001E-01;  9.8762605E-03;0;  0.0000000E+00;  0.0000000E+00;  0.0000000E+00;  0.0000000E+00;  0.0000000E+00;  0.0000000E+00;0;  1.1168212E-06;  1.0000000E+02;  0.0000000E+00;  0.0000000E+00;  1.0000000E+02;  0.0000000E+00;  1.0000000E+02;  2.2177724E-06;  0.0000000E+00; -1.1009512E-06;  0.0000000E+00;
 -2.0000000E-01;  9.9999998E-03; -2.0000000E+00;84;  0.0000000E+00;  0.0000000E+00;  0.0000000E+00;  1.0000140E+01;  4.0000001E-01;  1.5135045E-02;0;  0.0000000E+00;  0.0000000E+00;  0.0000000E+00;  0.0000000E+00;  0.0000000E+00;  0.0000000E+00;0;  4.2783963E-06;  1.0000000E+02;  0.0000000E+00;  0.0000000E+00;  1.0000000E+02;  0.0000000E+00;  1.0000000E+02;  4.2136676E-06;  0.0000000E+00;  6.4728660E-08;  0.0000000E+00;
  0.0000000E+00;  9.9999998E-03; -2.0000000E+00;105;  0.0000000E+00;  0.0000000E+00;  0.0000000E+00;  1.0000150E+01;  4.0000001E-01;  1.6161144E-02;0;  0.0000000E+00;  0.0000000E+00;  0.0000000E+00;  0.0000000E+00;  0.0000000E+00;  0.0000000E+00;0;  1.2907179E-05;  1.0000000E+02;  0.0000000E+00;  0.0000000E+00;  1.0000000E+02;  0.0000000E+00;  1.0000000E+02;  1.0522691E-05;  0.0000000E+00;  2.3844875E-06;  0.0000000E+00;
  2.0000000E-01;  9.9999998E-03; -2.0000000E+00;115;  0.0000000E+00;  0.0000000E+00;  0.0000000E+00;  1.0000000E+01;  4.0000001E-01;  0.0000000E+00;0;  0.0000000E+00;  0.0000000E+00;  0.0000000E+00;  0.0000000E+00;  0.0000000E+00;  0.0000000E+00;0;  3.1919324E-05;  1.0000000E+02;  0.0000000E+00;  0.0000000E+00;  1.0000000E+02;  0.0000000E+00;  1.0000000E+02;  2.6865115E-05;  0.0000000E+00;  5.0542085E-06;  0.0000000E+00;
  4.0000001E-01;  9.9999998E-03; -2.0000000E+00;125;  0.0000000E+00;  0.0000000E+00;  0.0000000E+00;  1.0000000E+01;  4.0000001E-01;  0.0000000E+00;0;  0.0000000E+00;  0.0000000E+00;  0.0000000E+00;  0.0000000E+00;  0.0000000E+00;  0.0000000E+00;0;  6.9284688E-05;  1.0000000E+02;  0.0000000E+00;  0.0000000E+00;  1.0000000E+02;  0.0000000E+00;  1.0000000E+02;  6.2781241E-05;  0.0000000E+00;  6.5034455E-06;  0.0000000E+00;
  6.0000002E-01;  9.9999998E-03; -2.0000000E+00;135;  0.0000000E+00;  0.0000000E+00;  0.0000000E+00;  1.0000000E+01;  4.0000001E-01;  0.0000000E+00;0;  0.0000000E+00;  0.0000000E+00;  0.0000000E+00;  0.0000000E+00;  0.0000000E+00;  0.0000000E+00;0;  1.3548686E-04;  1.0000000E+02;  0.0000000E+00;  0.0000000E+00;  1.0000000E+02;  0.0000000E+00;  1.0000000E+02;  1.3044175E-04;  0.0000000E+00;  5.0451126E-06;  0.0000000E+00;
  8.0000001E-01;  9.9999998E-03; -2.0000000E+00;145;  0.0000000E+00;  0.0000000E+00;  0.0000000E+00;  1.0000000E+01;  4.0000001E-01;  0.0000000E+00;0;  0.0000000E+00;  0.0000000E+00;  0.0000000E+00;  0.0000000E+00;  0.0000000E+00;  0.0000000E+00;0;  2.3469662E-04;  1.0000000E+02;  0.0000000E+00;  0.0000000E+00;  1.0000000E+02;  0.0000000E+00;  1.0000000E+02;  2.3557630E-04;  0.0000000E+00; -8.7967322E-07;  0.0000000E+00;
  1.0000000E+00;  9.9999998E-03; -2.0000000E+00;155;  0.0000000E+00;  0.0000000E+00;  0.0000000E+00;  1.0000000E+01;  4.0000001E-01;  0.0000000E+00;0;  0.0000000E+00;  0.0000000E+00;  0.0000000E+00;  0.0000000E+00;  0.0000000E+00;  0.0000000E+00;0;  3.4460929E-04;  1.0000000E+02;  0.0000000E+00;  0.0000000E+00;  1.0000000E+02;  0.0000000E+00;  1.0000000E+02;  3.5759766E-04;  0.0000000E+00; -1.2988360E-05;  0.0000000E+00;
 -1.0000000E+00;  9.9999998E-03; -1.8000000E+00;1;  0.0000000E+00;  0.0000000E+00;  0.0000000E+00;  1.0000000E+01;  4.0000001E-01;  0.0000000E+00;0;  0.0000000E+00;  0.0000000E+00;  0.0000000E+00;  0.0000000E+00;  0.0000000E+00;  0.0000000E+00;0; -1.6156969E-07;  1.0000000E+02;  0.0000000E+00;  0.0000000E+00;  1.0000000E+02;  0.0000000E+00;  1.0000000E+02;  7.3110073E-07;  0.0000000E+00; -8.9267041E-07;  0.0000000E+00;
 -1.0000000E+00;  9.9999998E-03; -1.6000000E+00;2;  0.0000000E+00;  0.0000000E+00;  0.0000000E+00;  1.0000038E+01;  4.0000001E-01;  4.1044205E-03;0;  0.0000000E+00;  0.0000000E+00;  0.0000000E+00;  0.0000000E+00;  0.0000000E+00;  0.0000000E+00;0;  3.8627650E-07;  1.0000000E+02;  0.0000000E+00;  0.0000000E+00;  1.0000000E+02;  0.0000000E+00;  1.0000000E+02;  1.8748736E-06;  0.0000000E+00; -1.4885971E-06;  0.0000000E+00;
 -1.0000000E+00;  9.9999998E-03; -1.4000000E+00;3;  0.0000000E+00;  0.0000000E+00;  0.0000000E+00;  1.0000267E+01;  4.0000001E-01;  2.8730944E-02;0;  0.0000000E+00;  0.0000000E+00;  0.0000000E+00;  0.0000000E+00;  0.0000000E+00;  0.0000000E+00;0;  2.1703795E-06;  1.0000000E+02;  0.0000000E+00;  0.0000000E+00;  1.0000000E+02;  0.0000000E+00;  1.0000000E+02;  4.0235864E-06;  0.0000000E+00; -1.8532070E-06;  0.0000000E+00;
 -1.0000000E+00;  9.9999998E-03; -1.2000000E+00;4;  0.0000000E+00;  0.0000000E+00;  0.0000000E+00;  1.0000500E+01;  4.0000001E-01;  5.3742256E-02;0;  0.0000000E+00;  0.0000000E+00;  0.0000000E+00;  0.0000000E+00;  0.0000000E+00;  0.0000000E+00;0;  5.7654615E-06;  1.0000000E+02;  0.0000000E+00;  0.0000000E+00;  1.0000000E+02;  0.0000000E+00;  1.0000000E+02;  7.5975208E-06;  0.0000000E+00; -1.8320592E-06;  0.0000000E+00;
 -1.0000000E+00;  9.9999998E-03; -1.0000000E+00;5;  0.0000000E+00;  0.0000000E+00;  0.0000000E+00;  1.0000754E+01;  4.0000001E-01;  8.1190571E-02;0;  0.0000000E+00;  0.0000000E+00;  0.0000000E+00;  0.0000000E+00;  0.0000000E+00;  0.0000000E+00;0;  1.1485036E-05;  1.0000000E+02;  0.0000000E+00;  0.0000000E+00;  1.0000000E+02;  0.0000000E+00;  1.0000000E+02;  1.2850201E-05;  0.0000000E+00; -1.3651642E-06;  0.0000000E+00;
 -1.0000000E+00;  9.9999998E-03; -8.0000001E-01;6;  0.0000000E+00;  0.0000000E+00;  0.0000000E+00;  1.0001022E+01;  4.0000001E-01;  1.1004978E-01;0;  0.0000000E+00;  0.0000000E+00;  0.0000000E+00;  0.0000000E+00;  0.0000000E+00;  0.0000000E+00;0;  1.9165480E-05;  1.0000000E+02;  0.0000000E+00;  0.0000000E+00;  1.0000000E+02;  0.0000000E+00;  1.0000000E+02;  1.9653700E-05;  0.0000000E+00; -4.8821948E-07;  0.0000000E+00;
 -1.0000000E+00;  9.9999998E-03; -6.0000002E-01;7;  0.0000000E+00;  0.0000000E+00;  0.0000000E+00;  1.0000398E+01;  4.0000001E-01;  4.2839888E-02;0;  0.0000000E+00;  0.0000000E+00;  0.0000000E+00;  0.0000000E+00;  0.0000000E+00;  0.0000000E+00;0;  2.7943390E-05;  1.0000000E+02;  0.0000000E+00;  0.0000000E+00;  1.0000000E+02;  0.0000000E+00;  1.0000000E+02;  2.7311400E-05;  0.0000000E+00;  6.3198894E-07;  0.0000000E+00;
 -1.0000000E+00;  9.9999998E-03; -4.0000001E-01;8;  0.0000000E+00;  0.0000000E+00;  0.0000000E+00;  1.0000112E+01;  4.0000001E-01;  1.2056735E-02;0;  0.0000000E+00;  0.0000000E+00;  0.0000000E+00;  0.0000000E+00;  0.0000000E+00;  0.0000000E+00;0;  3.6255795E-05;  1.0000000E+02;  0.0000000E+00;  0.0000000E+00;  1.0000000E+02;  0.0000000E+00;  1.0000000E+02;  3.4551023E-05;  0.0000000E+00;  1.7047722E-06;  0.0000000E+00;
 -1.0000000E+00;  9.9999998E-03; -2.0000000E-01;9;  0.0000000E+00;  0.0000000E+00;  0.0000000E+00;  1.0000139E+01;  4.0000001E-01;  1.5006788E-02;0;  0.0000000E+00;  0.0000000E+00;  0.0000000E+00;  0.0000000E+00;  0.0000000E+00;  0.0000000E+00;0;  4.2254836E-05;  1.0000000E+02;  0.0000000E+00;  0.0000000E+00;  1.0000000E+02;  0.0000000E+00;  1.0000000E+02;  3.9807212E-05;  0.0000000E+00;  2.4476253E-06;  0.0000000E+00;
 -8.0000001E-01;  9.9999998E-03; -1.8000000E+00;22;  0.0000000E+00;  0.0000000E+00;  0.0000000E+00;  1.0000087E+01;  4.0000001E-01;  9.3632098E-03;0;  0.0000000E+00;  0.0000000E+00;  0.0000000E+00;  0.0000000E+00;  0.0000000E+00;  0.0000000E+00;0;  2.7248791E-07;  1.0000000E+02;  0.0000000E+00;  0.0000000E+00;  1.0000000E+02;  0.0000000E+00;  1.0000000E+02;  2.0603281E-06;  0.0000000E+00; -1.7878402E-06;  0.0000000E+00;
 -8.0000001E-01;  9.9999998E-03; -1.6000000E+00;23;  0.0000000E+00;  0.0000000E+00;  0.0000000E+00;  1.0000361E+01;  4.0000001E-01;  3.8863733E-02;0;  0.0000000E+00;  0.0000000E+00;  0.0000000E+00;  0.0000000E+00;  0.0000000E+00;  0.0000000E+00;0;  1.8944336E-06;  1.0000000E+02;  0.0000000E+00;  0.0000000E+00;  1.0000000E+02;  0.0000000E+00;  1.0000000E+02;  4.5883080E-06;  0.0000000E+00; -2.6938744E-06;  0.0000000E+00;
 -8.0000001E-01;  9.9999998E-03; -1.4000000E+00;24;  0.0000000E+00;  0.0000000E+00;  0.0000000E+00;  1.0000714E+01;  4.0000001E-01;  7.6829620E-02;0;  0.0000000E+00;  0.0000000E+00;  0.0000000E+00;  0.0000000E+00;  0.0000000E+00;  0.0000000E+00;0;  5.7403813E-06;  1.0000000E+02;  0.0000000E+00;  0.0000000E+00;  1.0000000E+02;  0.0000000E+00;  1.0000000E+02;  8.8918987E-06;  0.0000000E+00; -3.1515176E-06;  0.0000000E+00;
 -8.0000001E-01;  9.9999998E-03; -1.2000000E+00;25;  0.0000000E+00;  0.0000000E+00;  0.0000000E+00;  1.0001216E+01;  4.0000001E-01;  1.3082841E-01;0;  0.0000000E+00;  0.0000000E+00;  0.0000000E+00;  0.0000000E+00;  0.0000000E+00;  0.0000000E+00;0;  1.2638006E-05;  1.0000000E+02;  0.0000000E+00;  0.0000000E+00;  1.0000000E+02;  0.0000000E+00;  1.0000000E+02;  1.5669397E-05;  0.0000000E+00; -3.0313915E-06;  0.0000000E+00;
 -8.0000001E-01;  9.9999998E-03; -1.0000000E+00;26;  0.0000000E+00;  0.0000000E+00;  0.0000000E+00;  1.0001523E+01;  4.0000001E-01;  1.6392030E-01;0;  0.0000000E+00;  0.0000000E+00;  0.0000000E+00;  0.0000000E+00;  0.0000000E+00;  0.0000000E+00;0;  2.3027711E-05;  1.0000000E+02;  0.0000000E+00;  0.0000000E+00;  1.0000000E+02;  0.0000000E+00;  1.0000000E+02;  2.5299209E-05;  0.0000000E+00; -2.2714967E-06;  0.0000000E+00;
 -8.0000001E-01;  9.9999998E-03; -8.0000001E-01;27;  0.0000000E+00;  0.0000000E+00;  0.0000000E+00;  1.0001100E+01;  4.0000001E-01;  1.1825862E-01;0;  0.0000000E+00;  0.0000000E+00;  0.0000000E+00;  0.0000000E+00;  0.0000000E+00;  0.0000000E+00;0;  3.6686884E-05;  1.0000000E+02;  0.0000000E+00;  0.0000000E+00;  1.0000000E+02;  0.0000000E+00;  1.0000000E+02;  3.7562986E-05;  0.0000000E+00; -8.7610192E-07;  0.0000000E+00;
 -8.0000001E-01;  9.9999998E-03; -6.0000002E-01;28;  0.0000000E+00;  0.0000000E+00;  0.0000000E+00;  1.0001436E+01;  4.0000001E-01;  1.5455708E-01;0;  0.0000000E+00;  0.0000000E+00;  0.0000000E+00;  0.0000000E+00;  0.0000000E+00;  0.0000000E+00;0;  5.2322499E-05;  1.0000000E+02;  0.0000000E+00;  0.0000000E+00;  1.0000000E+02;  0.0000000E+00;  1.0000000E+02;  5.1329673E-05;  0.0000000E+00;  9.9282613E-07;  0.0000000E+00;
 -8.0000001E-01;  9.9999998E-03; -4.0000001E-01;29;  0.0000000E+00;  0.0000000E+00;  0.0000000E+00;  1.0001412E+01;  4.0000001E-01;  1.5199183E-01;0;  0.0000000E+00;  0.0000000E+00;  0.0000000E+00;  0.0000000E+00;  0.0000000E+00;  0.0000000E+00;0;  6.7339424E-05;  1.0000000E+02;  0.0000000E+00;  0.0000000E+00;  1.0000000E+02;  0.0000000E+00;  1.0000000E+02;  6.4395397E-05;  0.0000000E+00;  2.9440300E-06;  0.0000000E+00;
 -8.0000001E-01;  9.9999998E-03; -2.0000000E-01;30;  0.0000000E+00;  0.0000000E+00;  0.0000000E+00;  1.0000905E+01;  4.0000001E-01;  9.7351722E-02;0;  0.0000000E+00;  0.0000000E+00;  0.0000000E+00;  0.0000000E+00;  0.0000000E+00;  0.0000000E+00;0;  7.8323574E-05;  1.0000000E+02;  0.0000000E+00;  0.0000000E+00;  1.0000000E+02;  0.0000000E+00;  1.0000000E+02;  7.3879557E-05;  0.0000000E+00;  4.4440185E-06;  0.0000000E+00;
 -6.0000002E-01;  9.9999998E-03; -1.8000000E+00;43;  0.0000000E+00;  0.0000000E+00;  0.0000000E+00;  1.0000278E+01;  4.0000001E-01;  3.0013572E-02;0;  0.0000000E+00;  0.0000000E+00;  0.0000000E+00;  0.0000000E+00;  0.0000000E+00;  0.0000000E+00;0;  1.1612669E-06;  1.0000000E+02;  0.0000000E+00;  0.0000000E+00;  1.0000000E+02;  0.0000000E+00;  1.0000000E+02;  3.5685339E-06;  0.0000000E+00; -2.4072669E-06;  0.0000000E+00;
 -6.0000002E-01;  9.9999998E-03; -1.6000000E+00;44;  0.0000000E+00;  0.0000000E+00;  0.0000000E+00;  1.0000634E+01;  4.0000001E-01;  6.8235986E-02;0;  0.0000000E+00;  0.0000000E+00;  0.0000000E+00;  0.0000000E+00;  0.0000000E+00;  0.0000000E+00;0;  4.0385821E-06;  1.0000000E+02;  0.0000000E+00;  0.0000000E+00;  1.0000000E+02;  0.0000000E+00;  1.0000000E+02;  7.5156909E-06;  0.0000000E+00; -3.4771085E-06;  0.0000000E+00;
 -6.0000002E-01;  9.9999998E-03; -1.4000000E+00;45;  0.0000000E+00;  0.0000000E+00;  0.0000000E+00;  1.0001203E+01;  4.0000001E-01;  1.2941749E-01;0;  0.0000000E+00;  0.0000000E+00;  0.0000000E+00;  0.0000000E+00;  0.0000000E+00;  0.0000000E+00;0;  9.7811480E-06;  1.0000000E+02;  0.0000000E+00;  0.0000000E+00;  1.0000000E+02;  0.0000000E+00;  1.0000000E+02;  1.3846953E-05;  0.0000000E+00; -4.0658047E-06;  0.0000000E+00;
 -6.0000002E-01;  9.9999998E-03; -1.2000000E+00;46;  0.0000000E+00;  0.0000000E+00;  0.0000000E+00;  1.0001933E+01;  4.0000001E-01;  2.0804279E-01;0;  0.0000000E+00;  0.0000000E+00;  0.0000000E+00;  0.0000000E+00;  0.0000000E+00;  0.0000000E+00;0;  1.9107483E-05;  1.0000000E+02;  0.0000000E+00;  0.0000000E+00;  1.0000000E+02;  0.0000000E+00;  1.0000000E+02;  2.3117187E-05;  0.0000000E+00; -4.0097048E-06;  0.0000000E+00;
 -6.0000002E-01;  9.9999998E-03; -1.0000000E+00;47;  0.0000000E+00;  0.0000000E+00;  0.0000000E+00;  1.0001676E+01;  4.0000001E-01;  1.8033795E-01;0;  0.0000000E+00;  0.0000000E+00;  0.0000000E+00;  0.0000000E+00;  0.0000000E+00;  0.0000000E+00;0;  3.2442793E-05;  1.0000000E+02;  0.0000000E+00;  0.0000000E+00;  1.0000000E+02;  0.0000000E+00;  1.0000000E+02;  3.5591562E-05;  0.0000000E+00; -3.1487682E-06;  0.0000000E+00;
 -6.0000002E-01;  9.9999998E-03; -8.0000001E-01;48;  0.0000000E+00;  0.0000000E+00;  0.0000000E+00;  1.0002324E+01;  4.0000001E-01;  2.5011310E-01;0;  0.0000000E+00;  0.0000000E+00;  0.0000000E+00;  0.0000000E+00;  0.0000000E+00;  0.0000000E+00;0;  4.9609353E-05;  1.0000000E+02;  0.0000000E+00;  0.0000000E+00;  1.0000000E+02;  0.0000000E+00;  1.0000000E+02;  5.0988994E-05;  0.0000000E+00; -1.3796406E-06;  0.0000000E+00;
 -6.0000002E-01;  9.9999998E-03; -6.0000002E-01;49;  0.0000000E+00;  0.0000000E+00;  0.0000000E+00;  1.0002663E+01;  4.0000001E-01;  2.8653982E-01;0;  0.0000000E+00;  0.0000000E+00;  0.0000000E+00;  0.0000000E+00;  0.0000000E+00;  0.0000000E+00;0;  6.9395093E-05;  1.0000000E+02;  0.0000000E+00;  0.0000000E+00;  1.0000000E+02;  0.0000000E+00;  1.0000000E+02;  6.8226676E-05;  0.0000000E+00;  1.1684141E-06;  0.0000000E+00;
 -6.0000002E-01;  9.9999998E-03; -4.0000001E-01;50;  0.0000000E+00;  0.0000000E+00;  0.0000000E+00;  1.0002164E+01;  4.0000001E-01;  2.3279758E-01;0;  0.0000000E+00;  0.0000000E+00;  0.0000000E+00;  0.0000000E+00;  0.0000000E+00;  0.0000000E+00;0;  8.8894310E-05;  1.0000000E+02;  0.0000000E+00;  0.0000000E+00;  1.0000000E+02;  0.0000000E+00;  1.0000000E+02;  8.4908315E-05;  0.0000000E+00;  3.9859920E-06;  0.0000000E+00;
 -6.0000002E-01;  9.9999998E-03; -2.0000000E-01;51;  0.0000000E+00;  0.0000000E+00;  0.0000000E+00;  1.0002229E+01;  4.0000001E-01;  2.3985204E-01;0;  0.0000000E+00;  0.0000000E+00;  0.0000000E+00;  0.0000000E+00;  0.0000000E+00;  0.0000000E+00;0;  1.0364390E-04;  1.0000000E+02;  0.0000000E+00;  0.0000000E+00;  1.0000000E+02;  0.0000000E+00;  1.0000000E+02;  9.7390526E-05;  0.0000000E+00;  6.2533709E-06;  0.0000000E+00;
 -4.0000001E-01;  9.9999998E-03; -1.8000000E+00;64;  0.0000000E+00;  0.0000000E+00;  0.0000000E+00;  1.0000381E+01;  4.0000001E-01;  4.0915936E-02;0;  0.0000000E+00;  0.0000000E+00;  0.0000000E+00;  0.0000000E+00;  0.0000000E+00;  0.0000000E+00;0;  3.5868873E-06;  1.0000000E+02;  0.0000000E+00;  0.0000000E+00;  1.0000000E+02;  0.0000000E+00;  1.0000000E+02;  5.5934452E-06;  0.0000000E+00; -2.0065579E-06;  0.0000000E+00;
 -4.0000001E-01;  9.9999998E-03; -1.6000000E+00;65;  0.0000000E+00;  0.0000000E+00;  0.0000000E+00;  1.0000803E+01;  4.0000001E-01;  8.6449347E-02;0;  0.0000000E+00;  0.0000000E+00;  0.0000000E+00;  0.0000000E+00;  0.0000000E+00;  0.0000000E+00;0;  8.6182972E-06;  1.0000000E+02;  0.0000000E+00;  0.0000000E+00;  1.0000000E+02;  0.0000000E+00;  1.0000000E+02;  1.1607261E-05;  0.0000000E+00; -2.9889634E-06;  0.0000000E+00;
 -4.0000001E-01;  9.9999998E-03; -1.4000000E+00;66;  0.0000000E+00;  0.0000000E+00;  0.0000000E+00;  1.0001434E+01;  4.0000001E-01;  1.5430054E-01;0;  0.0000000E+00;  0.0000000E+00;  0.0000000E+00;  0.0000000E+00;  0.0000000E+00;  0.0000000E+00;0;  1.6711530E-05;  1.0000000E+02;  0.0000000E+00;  0.0000000E+00;  1.0000000E+02;  0.0000000E+00;  1.0000000E+02;  2.0546415E-05;  0.0000000E+00; -3.8348840E-06;  0.0000000E+00;
 -4.0000001E-01;  9.9999998E-03; -1.2000000E+00;67;  0.0000000E+00;  0.0000000E+00;  0.0000000E+00;  1.0001080E+01;  4.0000001E-01;  1.1620639E-01;0;  0.0000000E+00;  0.0000000E+00;  0.0000000E+00;  0.0000000E+00;  0.0000000E+00;  0.0000000E+00;0;  2.7730794E-05;  1.0000000E+02;  0.0000000E+00;  0.0000000E+00;  1.0000000E+02;  0.0000000E+00;  1.0000000E+02;  3.1974592E-05;  0.0000000E+00; -4.2437982E-06;  0.0000000E+00;
 -4.0000001E-01;  9.9999998E-03; -1.0000000E+00;68;  0.0000000E+00;  0.0000000E+00;  0.0000000E+00;  1.0002024E+01;  4.0000001E-01;  2.1779080E-01;0;  0.0000000E+00;  0.0000000E+00;  0.0000000E+00;  0.0000000E+00;  0.0000000E+00;  0.0000000E+00;0;  4.1357584E-05;  1.0000000E+02;  0.0000000E+00;  0.0000000E+00;  1.0000000E+02;  0.0000000E+00;  1.0000000E+02;  4.5103818E-05;  0.0000000E+00; -3.7462337E-06;  0.0000000E+00;
 -4.0000001E-01;  9.9999998E-03; -8.0000001E-01;69;  0.0000000E+00;  0.0000000E+00;  0.0000000E+00;  1.0003020E+01;  4.0000001E-01;  3.2501876E-01;0;  0.0000000E+00;  0.0000000E+00;  0.0000000E+00;  0.0000000E+00;  0.0000000E+00;  0.0000000E+00;0;  5.7256188E-05;  1.0000000E+02;  0.0000000E+00;  0.0000000E+00;  1.0000000E+02;  0.0000000E+00;  1.0000000E+02;  5.9256035E-05;  0.0000000E+00; -1.9998470E-06;  0.0000000E+00;
 -4.0000001E-01;  9.9999998E-03; -6.0000002E-01;70;  0.0000000E+00;  0.0000000E+00;  0.0000000E+00;  1.0002893E+01;  4.0000001E-01;  3.1129462E-01;0;  0.0000000E+00;  0.0000000E+00;  0.0000000E+00;  0.0000000E+00;  0.0000000E+00;  0.0000000E+00;0;  7.4970019E-05;  1.0000000E+02;  0.0000000E+00;  0.0000000E+00;  1.0000000E+02;  0.0000000E+00;  1.0000000E+02;  7.4082775E-05;  0.0000000E+00;  8.8724261E-07;  0.0000000E+00;
 -4.0000001E-01;  9.9999998E-03; -4.0000001E-01;71;  0.0000000E+00;  0.0000000E+00;  0.0000000E+00;  1.0003248E+01;  4.0000001E-01;  3.4951702E-01;0;  0.0000000E+00;  0.0000000E+00;  0.0000000E+00;  0.0000000E+00;  0.0000000E+00;  0.0000000E+00;0;  9.2720213E-05;  1.0000000E+02;  0.0000000E+00;  0.0000000E+00;  1.0000000E+02;  0.0000000E+00;  1.0000000E+02;  8.8520974E-05;  0.0000000E+00;  4.1992366E-06;  0.0000000E+00;
 -4.0000001E-01;  9.9999998E-03; -2.0000000E-01;72;  0.0000000E+00;  0.0000000E+00;  0.0000000E+00;  1.0003429E+01;  4.0000001E-01;  3.6901301E-01;0;  0.0000000E+00;  0.0000000E+00;  0.0000000E+00;  0.0000000E+00;  0.0000000E+00;  0.0000000E+00;0;  1.0654553E-04;  1.0000000E+02;  0.0000000E+00;  0.0000000E+00;  1.0000000E+02;  0.0000000E+00;  1.0000000E+02;  9.9747544E-05;  0.0000000E+00;  6.7979854E-06;  0.0000000E+00;
 -2.0000000E-01;  9.9999998E-03; -1.8000000E+00;85;  0.0000000E+00;  0.0000000E+00;  0.0000000E+00;  1.0000424E+01;  4.0000001E-01;  4.5661662E-02;0;  0.0000000E+00;  0.0000000E+00;  0.0000000E+00;  0.0000000E+00;  0.0000000E+00;  0.0000000E+00;0;  1.1160301E-05;  1.0000000E+02;  0.0000000E+00;  0.0000000E+00;  1.0000000E+02;  0.0000000E+00;  1.0000000E+02;  1.1023144E-05;  0.0000000E+00;  1.3715700E-07;  0.0000000E+00;
 -2.0000000E-01;  9.9999998E-03; -1.6000000E+00;86;  0.0000000E+00;  0.0000000E+00;  0.0000000E+00;  1.0000000E+01;  4.0000001E-01;  0.0000000E+00;0;  0.0000000E+00;  0.0000000E+00;  0.0000000E+00;  0.0000000E+00;  0.0000000E+00;  0.0000000E+00;0;  2.1879456E-05;  1.0000000E+02;  0.0000000E+00;  0.0000000E+00;  1.0000000E+02;  0.0000000E+00;  1.0000000E+02;  2.2277634E-05;  0.0000000E+00; -3.9817860E-07;  0.0000000E+00;
 -2.0000000E-01;  9.9999998E-03; -1.4000000E+00;87;  0.0000000E+00;  0.0000000E+00;  0.0000000E+00;  1.0000000E+01;  4.0000001E-01;  0.0000000E+00;0;  0.0000000E+00;  0.0000000E+00;  0.0000000E+00;  0.0000000E+00;  0.0000000E+00;  0.0000000E+00;0;  3.5480563E-05;  1.0000000E+02;  0.0000000E+00;  0.0000000E+00;  1.0000000E+02;  0.0000000E+00;  1.0000000E+02;  3.7107253E-05;  0.0000000E+00; -1.6266911E-06;  0.0000000E+00;
 -2.0000000E-01;  9.9999998E-03; -1.2000000E+00;88;  0.0000000E+00;  0.0000000E+00;  0.0000000E+00;  1.0000427E+01;  4.0000001E-01;  4.5918189E-02;0;  0.0000000E+00;  0.0000000E+00;  0.0000000E+00;  0.0000000E+00;  0.0000000E+00;  0.0000000E+00;0;  4.9634040E-05;  1.0000000E+02;  0.0000000E+00;  0.0000000E+00;  1.0000000E+02;  0.0000000E+00;  1.0000000E+02;  5.2703028E-05;  0.0000000E+00; -3.0689880E-06;  0.0000000E+00;
 -2.0000000E-01;  9.9999998E-03; -1.0000000E+00;89;  0.0000000E+00;  0.0000000E+00;  0.0000000E+00;  1.0000303E+01;  4.0000001E-01;  3.2578826E-02;0;  0.0000000E+00;  0.0000000E+00;  0.0000000E+00;  0.0000000E+00;  0.0000000E+00;  0.0000000E+00;0;  6.1847575E-05;  1.0000000E+02;  0.0000000E+00;  0.0000000E+00;  1.0000000E+02;  0.0000000E+00;  1.0000000E+02;  6.5549306E-05;  0.0000000E+00; -3.7017337E-06;  0.0000000E+00;
 -2.0000000E-01;  9.9999998E-03; -8.0000001E-01;90;  0.0000000E+00;  0.0000000E+00;  0.0000000E+00;  1.0001298E+01;  4.0000001E-01;  1.3967851E-01;0;  0.0000000E+00;  0.0000000E+00;  0.0000000E+00;  0.0000000E+00;  0.0000000E+00;  0.0000000E+00;0;  7.0932263E-05;  1.0000000E+02;  0.0000000E+00;  0.0000000E+00;  1.0000000E+02;  0.0000000E+00;  1.0000000E+02;  7.3663345E-05;  0.0000000E+00; -2.7310839E-06;  0.0000000E+00;
 -2.0000000E-01;  9.9999998E-03; -6.0000002E-01;91;  0.0000000E+00;  0.0000000E+00;  0.0000000E+00;  1.0002258E+01;  4.0000001E-01;  2.4293031E-01;0;  0.0000000E+00;  0.0000000E+00;  0.0000000E+00;  0.0000000E+00;  0.0000000E+00;  0.0000000E+00;0;  7.7930126E-05;  1.0000000E+02;  0.0000000E+00;  0.0000000E+00;  1.0000000E+02;  0.0000000E+00;  1.0000000E+02;  7.8164019E-05;  0.0000000E+00; -2.3389441E-07;  0.0000000E+00;
 -2.0000000E-01;  9.9999998E-03; -4.0000001E-01;92;  0.0000000E+00;  0.0000000E+00;  0.0000000E+00;  1.0002862E+01;  4.0000001E-01;  3.0795971E-01;0;  0.0000000E+00;  0.0000000E+00;  0.0000000E+00;  0.0000000E+00;  0.0000000E+00;  0.0000000E+00;0;  8.4161969E-05;  1.0000000E+02;  0.0000000E+00;  0.0000000E+00;  1.0000000E+02;  0.0000000E+00;  1.0000000E+02;  8.1384947E-05;  0.0000000E+00;  2.7770197E-06;  0.0000000E+00;
 -2.0000000E-01;  9.9999998E-03; -2.0000000E-01;93;  0.0000000E+00;  0.0000000E+00;  0.0000000E+00;  1.0003323E+01;  4.0000001E-01;  3.5746926E-01;0;  0.0000000E+00;  0.0000000E+00;  0.0000000E+00;  0.0000000E+00;  0.0000000E+00;  0.0000000E+00;0;  8.8817869E-05;  1.0000000E+02;  0.0000000E+00;  0.0000000E+00;  1.0000000E+02;  0.0000000E+00;  1.0000000E+02;  8.3883562E-05;  0.0000000E+00;  4.9343066E-06;  0.0000000E+00;
  0.0000000E+00;  9.9999998E-03; -1.8000000E+00;106;  0.0000000E+00;  0.0000000E+00;  0.0000000E+00;  1.0000000E+01;  4.0000001E-01;  0.0000000E+00;0;  0.0000000E+00;  0.0000000E+00;  0.0000000E+00;  0.0000000E+00;  0.0000000E+00;  0.0000000E+00;0;  3.0092431E-05;  1.0000000E+02;  0.0000000E+00;  0.0000000E+00;  1.0000000E+02;  0.0000000E+00;  1.0000000E+02;  2.6058351E-05;  0.0000000E+00;  4.0340801E-06;  0.0000000E+00;
  0.0000000E+00;  9.9999998E-03; -1.6000000E+00;107;  0.0000000E+00;  0.0000000E+00;  0.0000000E+00;  1.0000000E+01;  4.0000001E-01;  0.0000000E+00;0;  0.0000000E+00;  0.0000000E+00;  0.0000000E+00;  0.0000000E+00;  0.0000000E+00;  0.0000000E+00;0;  5.4220738E-05;  1.0000000E+02;  0.0000000E+00;  0.0000000E+00;  1.0000000E+02;  0.0000000E+00;  1.0000000E+02;  4.9814924E-05;  0.0000000E+00;  4.4058143E-06;  0.0000000E+00;
  0.0000000E+00;  9.9999998E-03; -1.4000000E+00;108;  0.0000000E+00;  0.0000000E+00;  0.0000000E+00;  1.0000000E+01;  4.0000001E-01;  0.0000000E+00;0;  0.0000000E+00;  0.0000000E+00;  0.0000000E+00;  0.0000000E+00;  0.0000000E+00;  0.0000000E+00;0;  8.1455939E-05;  1.0000000E+02;  0.0000000E+00;  0.0000000E+00;  1.0000000E+02;  0.0000000E+00;  1.0000000E+02;  7.8409401E-05;  0.0000000E+00;  3.0465364E-06;  0.0000000E+00;
  0.0000000E+00;  9.9999998E-03; -1.2000000E+00;109;  0.0000000E+00;  0.0000000E+00;  0.0000000E+00;  1.0000000E+01;  4.0000001E-01;  0.0000000E+00;0;  0.0000000E+00;  0.0000000E+00;  0.0000000E+00;  0.0000000E+00;  0.0000000E+00;  0.0000000E+00;0;  1.0467308E-04;  1.0000000E+02;  0.0000000E+00;  0.0000000E+00;  1.0000000E+02;  0.0000000E+00;  1.0000000E+02;  1.0429880E-04;  0.0000000E+00;  3.7428578E-07;  0.0000000E+00;
  2.0000000E-01;  9.9999998E-03; -1.8000000E+00;116;  0.0000000E+00;  0.0000000E+00;  0.0000000E+00;  1.0000000E+01;  4.0000001E-01;  0.0000000E+00;0;  0.0000000E+00;  0.0000000E+00;  0.0000000E+00;  0.0000000E+00;  0.0000000E+00;  0.0000000E+00;0;  6.9977847E-05;  1.0000000E+02;  0.0000000E+00;  0.0000000E+00;  1.0000000E+02;  0.0000000E+00;  1.0000000E+02;  6.1669023E-05;  0.0000000E+00;  8.3088262E-06;  0.0000000E+00;
  2.0000000E-01;  9.9999998E-03; -1.6000000E+00;117;  0.0000000E+00;  0.0000000E+00;  0.0000000E+00;  1.0000000E+01;  4.0000001E-01;  0.0000000E+00;0;  0.0000000E+00;  0.0000000E+00;  0.0000000E+00;  0.0000000E+00;  0.0000000E+00;  0.0000000E+00;0;  1.2207500E-04;  1.0000000E+02;  0.0000000E+00;  0.0000000E+00;  1.0000000E+02;  0.0000000E+00;  1.0000000E+02;  1.1218571E-04;  0.0000000E+00;  9.8892933E-06;  0.0000000E+00;
  2.0000000E-01;  9.9999998E-03; -1.4000000E+00;118;  0.0000000E+00;  0.0000000E+00;  0.0000000E+00;  1.0000000E+01;  4.0000001E-01;  0.0000000E+00;0;  0.0000000E+00;  0.0000000E+00;  0.0000000E+00;  0.0000000E+00;  0.0000000E+00;  0.0000000E+00;0;  1.8009386E-04;  1.0000000E+02;  0.0000000E+00;  0.0000000E+00;  1.0000000E+02;  0.0000000E+00;  1.0000000E+02;  1.7089833E-04;  0.0000000E+00;  9.1955253E-06;  0.0000000E+00;
  2.0000000E-01;  9.9999998E-03; -1.2000000E+00;119;  0.0000000E+00;  0.0000000E+00;  0.0000000E+00;  1.0000000E+01;  4.0000001E-01;  0.0000000E+00;0;  0.0000000E+00;  0.0000000E+00;  0.0000000E+00;  0.0000000E+00;  0.0000000E+00;  0.0000000E+00;0;  2.2794750E-04;  1.0000000E+02;  0.0000000E+00;  0.0000000E+00;  1.0000000E+02;  0.0000000E+00;  1.0000000E+02;  2.2165348E-04;  0.0000000E+00;  6.2940280E-06;  0.0000000E+00;
  4.0000001E-01;  9.9999998E-03; -1.8000000E+00;126;  0.0000000E+00;  0.0000000E+00;  0.0000000E+00;  1.0000000E+01;  4.0000001E-01;  0.0000000E+00;0;  0.0000000E+00;  0.0000000E+00;  0.0000000E+00;  0.0000000E+00;  0.0000000E+00;  0.0000000E+00;0;  1.4573247E-04;  1.0000000E+02;  0.0000000E+00;  0.0000000E+00;  1.0000000E+02;  0.0000000E+00;  1.0000000E+02;  1.3542357E-04;  0.0000000E+00;  1.0308903E-05;  0.0000000E+00;
  4.0000001E-01;  9.9999998E-03; -1.6000000E+00;127;  0.0000000E+00;  0.0000000E+00;  0.0000000E+00;  1.0000000E+01;  4.0000001E-01;  0.0000000E+00;0;  0.0000000E+00;  0.0000000E+00;  0.0000000E+00;  0.0000000E+00;  0.0000000E+00;  0.0000000E+00;0;  2.5092086E-04;  1.0000000E+02;  0.0000000E+00;  0.0000000E+00;  1.0000000E+02;  0.0000000E+00;  1.0000000E+02;  2.3826618E-04;  0.0000000E+00;  1.2654678E-05;  0.0000000E+00;
  4.0000001E-01;  9.9999998E-03; -1.4000000E+00;128;  0.0000000E+00;  0.0000000E+00;  0.0000000E+00;  1.0000000E+01;  4.0000001E-01;  0.0000000E+00;0;  0.0000000E+00;  0.0000000E+00;  0.0000000E+00;  0.0000000E+00;  0.0000000E+00;  0.0000000E+00;0;  3.7148624E-04;  1.0000000E+02;  0.0000000E+00;  0.0000000E+00;  1.0000000E+02;  0.0000000E+00;  1.0000000E+02;  3.5814365E-04;  0.0000000E+00;  1.3342599E-05;  0.0000000E+00;
  4.0000001E-01;  9.9999998E-03; -1.2000000E+00;129;  0.0000000E+00;  0.0000000E+00;  0.0000000E+00;  1.0000000E+01;  4.0000001E-01;  0.0000000E+00;0;  0.0000000E+00;  0.0000000E+00;  0.0000000E+00;  0.0000000E+00;  0.0000000E+00;  0.0000000E+00;0;  4.8042074E-04;  1.0000000E+02;  0.0000000E+00;  0.0000000E+00;  1.0000000E+02;  0.0000000E+00;  1.0000000E+02;  4.6872228E-04;  0.0000000E+00;  1.1698453E-05;  0.0000000E+00;
  6.0000002E-01;  9.9999998E-03; -1.8000000E+00;136;  0.0000000E+00;  0.0000000E+00;  0.0000000E+00;  1.0000000E+01;  4.0000001E-01;  0.0000000E+00;0;  0.0000000E+00;  0.0000000E+00;  0.0000000E+00;  0.0000000E+00;  0.0000000E+00;  0.0000000E+00;0;  2.7425797E-04;  1.0000000E+02;  0.0000000E+00;  0.0000000E+00;  1.0000000E+02;  0.0000000E+00;  1.0000000E+02;  2.6696647E-04;  0.0000000E+00;  7.2914850E-06;  0.0000000E+00;
  6.0000002E-01;  9.9999998E-03; -1.6000000E+00;137;  0.0000000E+00;  0.0000000E+00;  0.0000000E+00;  1.0000000E+01;  4.0000001E-01;  0.0000000E+00;0;  0.0000000E+00;  0.0000000E+00;  0.0000000E+00;  0.0000000E+00;  0.0000000E+00;  0.0000000E+00;0;  4.6865907E-04;  1.0000000E+02;  0.0000000E+00;  0.0000000E+00;  1.0000000E+02;  0.0000000E+00;  1.0000000E+02;  4.5954619E-04;  0.0000000E+00;  9.1128659E-06;  0.0000000E+00;
  6.0000002E-01;  9.9999998E-03; -1.4000000E+00;138;  0.0000000E+00;  0.0000000E+00;  0.0000000E+00;  1.0000000E+01;  4.0000001E-01;  0.0000000E+00;0;  0.0000000E+00;  0.0000000E+00;  0.0000000E+00;  0.0000000E+00;  0.0000000E+00;  0.0000000E+00;0;  7.0626254E-04;  1.0000000E+02;  0.0000000E+00;  0.0000000E+00;  1.0000000E+02;  0.0000000E+00;  1.0000000E+02;  6.9560151E-04;  0.0000000E+00;  1.0661041E-05;  0.0000000E+00;
  6.0000002E-01;  9.9999998E-03; -1.2000000E+00;139;  0.0000000E+00;  0.0000000E+00;  0.0000000E+00;  1.0000000E+01;  4.0000001E-01;  0.0000000E+00;0;  0.0000000E+00;  0.0000000E+00;  0.0000000E+00;  0.0000000E+00;  0.0000000E+00;  0.0000000E+00;0;  9.4237231E-04;  1.0000000E+02;  0.0000000E+00;  0.0000000E+00;  1.0000000E+02;  0.0000000E+00;  1.0000000E+02;  9.3149318E-04;  0.0000000E+00;  1.0879151E-05;  0.0000000E+00;
  8.0000001E-01;  9.9999998E-03; -1.8000000E+00;146;  0.0000000E+00;  0.0000000E+00;  0.0000000E+00;  1.0000000E+01;  4.0000001E-01;  0.0000000E+00;0;  0.0000000E+00;  0.0000000E+00;  0.0000000E+00;  0.0000000E+00;  0.0000000E+00;  0.0000000E+00;0;  4.5410875E-04;  1.0000000E+02;  0.0000000E+00;  0.0000000E+00;  1.0000000E+02;  0.0000000E+00;  1.0000000E+02;  4.5624879E-04;  0.0000000E+00; -2.1400301E-06;  0.0000000E+00;
  8.0000001E-01;  9.9999998E-03; -1.6000000E+00;147;  0.0000000E+00;  0.0000000E+00;  0.0000000E+00;  1.0000000E+01;  4.0000001E-01;  0.0000000E+00;0;  0.0000000E+00;  0.0000000E+00;  0.0000000E+00;  0.0000000E+00;  0.0000000E+00;  0.0000000E+00;0;  7.7725615E-04;  1.0000000E+02;  0.0000000E+00;  0.0000000E+00;  1.0000000E+02;  0.0000000E+00;  1.0000000E+02;  7.7960268E-04;  0.0000000E+00; -2.3465236E-06;  0.0000000E+00;
  8.0000001E-01;  9.9999998E-03; -1.4000000E+00;148;  0.0000000E+00;  0.0000000E+00;  0.0000000E+00;  1.0000000E+01;  4.0000001E-01;  0.0000000E+00;0;  0.0000000E+00;  0.0000000E+00;  0.0000000E+00;  0.0000000E+00;  0.0000000E+00;  0.0000000E+00;0;  1.2001456E-03;  1.0000000E+02;  0.0000000E+00;  0.0000000E+00;  1.0000000E+02;  0.0000000E+00;  1.0000000E+02;  1.2017584E-03;  0.0000000E+00; -1.6127639E-06;  0.0000000E+00;
  8.0000001E-01;  9.9999998E-03; -1.2000000E+00;149;  0.0000000E+00;  0.0000000E+00;  0.0000000E+00;  1.0000000E+01;  4.0000001E-01;  0.0000000E+00;0;  0.0000000E+00;  0.0000000E+00;  0.0000000E+00;  0.0000000E+00;  0.0000000E+00;  0.0000000E+00;0;  1.6440807E-03;  1.0000000E+02;  0.0000000E+00;  0.0000000E+00;  1.0000000E+02;  0.0000000E+00;  1.0000000E+02;  1.6445300E-03;  0.0000000E+00; -4.4924386E-07;  0.0000000E+00;
  1.0000000E+00;  9.9999998E-03; -1.8000000E+00;156;  0.0000000E+00;  0.0000000E+00;  0.0000000E+00;  1.0000000E+01;  4.0000001E-01;  0.0000000E+00;0;  0.0000000E+00;  0.0000000E+00;  0.0000000E+00;  0.0000000E+00;  0.0000000E+00;  0.0000000E+00;0;  6.4580218E-04;  1.0000000E+02;  0.0000000E+00;  0.0000000E+00;  1.0000000E+02;  0.0000000E+00;  1.0000000E+02;  6.6353928E-04;  0.0000000E+00; -1.7737077E-05;  0.0000000E+00;
  1.0000000E+00;  9.9999998E-03; -1.6000000E+00;157;  0.0000000E+00;  0.0000000E+00;  0.0000000E+00;  1.0000000E+01;  4.0000001E-01;  0.0000000E+00;0;  0.0000000E+00;  0.0000000E+00;  0.0000000E+00;  0.0000000E+00;  0.0000000E+00;  0.0000000E+00;0;  1.1247094E-03;  1.0000000E+02;  0.0000000E+00;  0.0000000E+00;  1.0000000E+02;  0.0000000E+00;  1.0000000E+02;  1.1452114E-03;  0.0000000E+00; -2.0502050E-05;  0.0000000E+00;
  1.0000000E+00;  9.9999998E-03; -1.4000000E+00;158;  0.0000000E+00;  0.0000000E+00;  0.0000000E+00;  1.0000000E+01;  4.0000001E-01;  0.0000000E+00;0;  0.0000000E+00;  0.0000000E+00;  0.0000000E+00;  0.0000000E+00;  0.0000000E+00;  0.0000000E+00;0;  1.7860462E-03;  1.0000000E+02;  0.0000000E+00;  0.0000000E+00;  1.0000000E+02;  0.0000000E+00;  1.0000000E+02;  1.8081379E-03;  0.0000000E+00; -2.2091708E-05;  0.0000000E+00;
  1.0000000E+00;  9.9999998E-03; -1.2000000E+00;159;  0.0000000E+00;  0.0000000E+00;  0.0000000E+00;  1.0000000E+01;  4.0000001E-01;  0.0000000E+00;0;  0.0000000E+00;  0.0000000E+00;  0.0000000E+00;  0.0000000E+00;  0.0000000E+00;  0.0000000E+00;0;  2.5052929E-03;  1.0000000E+02;  0.0000000E+00;  0.0000000E+00;  1.0000000E+02;  0.0000000E+00;  1.0000000E+02;  2.5259955E-03;  0.0000000E+00; -2.0702502E-05;  0.0000000E+00;
 -1.0000000E+00;  9.9999998E-03;  0.0000000E+00;10;  0.0000000E+00;  0.0000000E+00;  0.0000000E+00;  1.0000151E+01;  4.0000001E-01;  1.6161155E-02;0;  0.0000000E+00;  0.0000000E+00;  0.0000000E+00;  0.0000000E+00;  0.0000000E+00;  0.0000000E+00;0;  4.4451390E-05;  1.0000000E+02;  0.0000000E+00;  0.0000000E+00;  1.0000000E+02;  0.0000000E+00;  1.0000000E+02;  4.1741663E-05;  0.0000000E+00;  2.7097274E-06;  0.0000000E+00;
 -1.0000000E+00;  9.9999998E-03;  2.0000000E-01;11;  0.0000000E+00;  0.0000000E+00;  0.0000000E+00;  1.0000139E+01;  4.0000001E-01;  1.5006788E-02;0;  0.0000000E+00;  0.0000000E+00;  0.0000000E+00;  0.0000000E+00;  0.0000000E+00;  0.0000000E+00;0;  4.2254847E-05;  1.0000000E+02;  0.0000000E+00;  0.0000000E+00;  1.0000000E+02;  0.0000000E+00;  1.0000000E+02;  3.9807212E-05;  0.0000000E+00;  2.4476374E-06;  0.0000000E+00;
 -1.0000000E+00;  9.9999998E-03;  4.0000001E-01;12;  0.0000000E+00;  0.0000000E+00;  0.0000000E+00;  1.0000112E+01;  4.0000001E-01;  1.2056735E-02;0;  0.0000000E+00;  0.0000000E+00;  0.0000000E+00;  0.0000000E+00;  0.0000000E+00;  0.0000000E+00;0;  3.6255780E-05;  1.0000000E+02;  0.0000000E+00;  0.0000000E+00;  1.0000000E+02;  0.0000000E+00;  1.0000000E+02;  3.4550987E-05;  0.0000000E+00;  1.7047945E-06;  0.0000000E+00;
 -1.0000000E+00;  9.9999998E-03;  6.0000002E-01;13;  0.0000000E+00;  0.0000000E+00;  0.0000000E+00;  1.0000398E+01;  4.0000001E-01;  4.2839888E-02;0;  0.0000000E+00;  0.0000000E+00;  0.0000000E+00;  0.0000000E+00;  0.0000000E+00;  0.0000000E+00;0;  2.7943379E-05;  1.0000000E+02;  0.0000000E+00;  0.0000000E+00;  1.0000000E+02;  0.0000000E+00;  1.0000000E+02;  2.7311364E-05;  0.0000000E+00;  6.3201520E-07;  0.0000000E+00;
 -1.0000000E+00;  9.9999998E-03;  8.0000001E-01;14;  0.0000000E+00;  0.0000000E+00;  0.0000000E+00;  1.0001022E+01;  4.0000001E-01;  1.1004978E-01;0;  0.0000000E+00;  0.0000000E+00;  0.0000000E+00;  0.0000000E+00;  0.0000000E+00;  0.0000000E+00;0;  1.9165480E-05;  1.0000000E+02;  0.0000000E+00;  0.0000000E+00;  1.0000000E+02;  0.0000000E+00;  1.0000000E+02;  1.9653671E-05;  0.0000000E+00; -4.8819112E-07;  0.0000000E+00;
 -1.0000000E+00;  9.9999998E-03;  1.0000000E+00;15;  0.0000000E+00;  0.0000000E+00;  0.0000000E+00;  1.0000754E+01;  4.0000001E-01;  8.1190571E-02;0;  0.0000000E+00;  0.0000000E+00;  0.0000000E+00;  0.0000000E+00;  0.0000000E+00;  0.0000000E+00;0;  1.1485043E-05;  1.0000000E+02;  0.0000000E+00;  0.0000000E+00;  1.0000000E+02;  0.0000000E+00;  1.0000000E+02;  1.2850178E-05;  0.0000000E+00; -1.3651351E-06;  0.0000000E+00;
 -1.0000000E+00;  9.9999998E-03;  1.2000000E+00;16;  0.0000000E+00;  0.0000000E+00;  0.0000000E+00;  1.0000500E+01;  4.0000001E-01;  5.3742256E-02;0;  0.0000000E+00;  0.0000000E+00;  0.0000000E+00;  0.0000000E+00;  0.0000000E+00;  0.0000000E+00;0;  5.7654697E-06;  1.0000000E+02;  0.0000000E+00;  0.0000000E+00;  1.0000000E+02;  0.0000000E+00;  1.0000000E+02;  7.5975004E-06;  0.0000000E+00; -1.8320306E-06;  0.0000000E+00;
 -1.0000000E+00;  9.9999998E-03;  1.4000000E+00;17;  0.0000000E+00;  0.0000000E+00;  0.0000000E+00;  1.0000267E+01;  4.0000001E-01;  2.8730944E-02;0;  0.0000000E+00;  0.0000000E+00;  0.0000000E+00;  0.0000000E+00;  0.0000000E+00;  0.0000000E+00;0;  2.1703909E-06;  1.0000000E+02;  0.0000000E+00;  0.0000000E+00;  1.0000000E+02;  0.0000000E+00;  1.0000000E+02;  4.0235723E-06;  0.0000000E+00; -1.8531813E-06;  0.0000000E+00;
 -8.0000001E-01;  9.9999998E-03;  0.0000000E+00;31;  0.0000000E+00;  0.0000000E+00;  0.0000000E+00;  1.0000735E+01;  4.0000001E-01;  7.9138361E-02;0;  0.0000000E+00;  0.0000000E+00;  0.0000000E+00;  0.0000000E+00;  0.0000000E+00;  0.0000000E+00;0;  8.2370621E-05;  1.0000000E+02;  0.0000000E+00;  0.0000000E+00;  1.0000000E+02;  0.0000000E+00;  1.0000000E+02;  7.7356381E-05;  0.0000000E+00;  5.0142376E-06;  0.0000000E+00;
 -8.0000001E-01;  9.9999998E-03;  2.0000000E-01;32;  0.0000000E+00;  0.0000000E+00;  0.0000000E+00;  1.0000905E+01;  4.0000001E-01;  9.7351722E-02;0;  0.0000000E+00;  0.0000000E+00;  0.0000000E+00;  0.0000000E+00;  0.0000000E+00;  0.0000000E+00;0;  7.8323603E-05;  1.0000000E+02;  0.0000000E+00;  0.0000000E+00;  1.0000000E+02;  0.0000000E+00;  1.0000000E+02;  7.3879564E-05;  0.0000000E+00;  4.4440417E-06;  0.0000000E+00;
 -8.0000001E-01;  9.9999998E-03;  4.0000001E-01;33;  0.0000000E+00;  0.0000000E+00;  0.0000000E+00;  1.0001412E+01;  4.0000001E-01;  1.5199183E-01;0;  0.0000000E+00;  0.0000000E+00;  0.0000000E+00;  0.0000000E+00;  0.0000000E+00;  0.0000000E+00;0;  6.7339439E-05;  1.0000000E+02;  0.0000000E+00;  0.0000000E+00;  1.0000000E+02;  0.0000000E+00;  1.0000000E+02;  6.4395361E-05;  0.0000000E+00;  2.9440782E-06;  0.0000000E+00;
 -8.0000001E-01;  9.9999998E-03;  6.0000002E-01;34;  0.0000000E+00;  0.0000000E+00;  0.0000000E+00;  1.0001436E+01;  4.0000001E-01;  1.5455708E-01;0;  0.0000000E+00;  0.0000000E+00;  0.0000000E+00;  0.0000000E+00;  0.0000000E+00;  0.0000000E+00;0;  5.2322546E-05;  1.0000000E+02;  0.0000000E+00;  0.0000000E+00;  1.0000000E+02;  0.0000000E+00;  1.0000000E+02;  5.1329655E-05;  0.0000000E+00;  9.9289116E-07;  0.0000000E+00;
 -8.0000001E-01;  9.9999998E-03;  8.0000001E-01;35;  0.0000000E+00;  0.0000000E+00;  0.0000000E+00;  1.0001100E+01;  4.0000001E-01;  1.1825862E-01;0;  0.0000000E+00;  0.0000000E+00;  0.0000000E+00;  0.0000000E+00;  0.0000000E+00;  0.0000000E+00;0;  3.6686968E-05;  1.0000000E+02;  0.0000000E+00;  0.0000000E+00;  1.0000000E+02;  0.0000000E+00;  1.0000000E+02;  3.7562990E-05;  0.0000000E+00; -8.7602336E-07;  0.0000000E+00;
 -8.0000001E-01;  9.9999998E-03;  1.0000000E+00;36;  0.0000000E+00;  0.0000000E+00;  0.0000000E+00;  1.0001523E+01;  4.0000001E-01;  1.6392030E-01;0;  0.0000000E+00;  0.0000000E+00;  0.0000000E+00;  0.0000000E+00;  0.0000000E+00;  0.0000000E+00;0;  2.3027780E-05;  1.0000000E+02;  0.0000000E+00;  0.0000000E+00;  1.0000000E+02;  0.0000000E+00;  1.0000000E+02;  2.5299192E-05;  0.0000000E+00; -2.2714114E-06;  0.0000000E+00;
 -8.0000001E-01;  9.9999998E-03;  1.2000000E+00;37;  0.0000000E+00;  0.0000000E+00;  0.0000000E+00;  1.0001216E+01;  4.0000001E-01;  1.3082841E-01;0;  0.0000000E+00;  0.0000000E+00;  0.0000000E+00;  0.0000000E+00;  0.0000000E+00;  0.0000000E+00;0;  1.2638093E-05;  1.0000000E+02;  0.0000000E+00;  0.0000000E+00;  1.0000000E+02;  0.0000000E+00;  1.0000000E+02;  1.5669397E-05;  0.0000000E+00; -3.0313038E-06;  0.0000000E+00;
 -8.0000001E-01;  9.9999998E-03;  1.4000000E+00;38;  0.0000000E+00;  0.0000000E+00;  0.0000000E+00;  1.0000714E+01;  4.0000001E-01;  7.6829620E-02;0;  0.0000000E+00;  0.0000000E+00;  0.0000000E+00;  0.0000000E+00;  0.0000000E+00;  0.0000000E+00;0;  5.7404604E-06;  1.0000000E+02;  0.0000000E+00;  0.0000000E+00;  1.0000000E+02;  0.0000000E+00;  1.0000000E+02;  8.8919005E-06;  0.0000000E+00; -3.1514398E-06;  0.0000000E+00;
 -6.0000002E-01;  9.9999998E-03;  0.0000000E+00;52;  0.0000000E+00;  0.0000000E+00;  0.0000000E+00;  1.0002215E+01;  4.0000001E-01;  2.3831289E-01;0;  0.0000000E+00;  0.0000000E+00;  0.0000000E+00;  0.0000000E+00;  0.0000000E+00;  0.0000000E+00;0;  1.0924575E-04;  1.0000000E+02;  0.0000000E+00;  0.0000000E+00;  1.0000000E+02;  0.0000000E+00;  1.0000000E+02;  1.0210939E-04;  0.0000000E+00;  7.1363543E-06;  0.0000000E+00;
 -6.0000002E-01;  9.9999998E-03;  2.0000000E-01;53;  0.0000000E+00;  0.0000000E+00;  0.0000000E+00;  1.0002229E+01;  4.0000001E-01;  2.3985204E-01;0;  0.0000000E+00;  0.0000000E+00;  0.0000000E+00;  0.0000000E+00;  0.0000000E+00;  0.0000000E+00;0;  1.0364398E-04;  1.0000000E+02;  0.0000000E+00;  0.0000000E+00;  1.0000000E+02;  0.0000000E+00;  1.0000000E+02;  9.7390563E-05;  0.0000000E+00;  6.2534141E-06;  0.0000000E+00;
 -6.0000002E-01;  9.9999998E-03;  4.0000001E-01;54;  0.0000000E+00;  0.0000000E+00;  0.0000000E+00;  1.0002164E+01;  4.0000001E-01;  2.3279758E-01;0;  0.0000000E+00;  0.0000000E+00;  0.0000000E+00;  0.0000000E+00;  0.0000000E+00;  0.0000000E+00;0;  8.8894376E-05;  1.0000000E+02;  0.0000000E+00;  0.0000000E+00;  1.0000000E+02;  0.0000000E+00;  1.0000000E+02;  8.4908294E-05;  0.0000000E+00;  3.9860829E-06;  0.0000000E+00;
 -6.0000002E-01;  9.9999998E-03;  6.0000002E-01;55;  0.0000000E+00;  0.0000000E+00;  0.0000000E+00;  1.0002663E+01;  4.0000001E-01;  2.8653982E-01;0;  0.0000000E+00;  0.0000000E+00;  0.0000000E+00;  0.0000000E+00;  0.0000000E+00;  0.0000000E+00;0;  6.9395232E-05;  1.0000000E+02;  0.0000000E+00;  0.0000000E+00;  1.0000000E+02;  0.0000000E+00;  1.0000000E+02;  6.8226684E-05;  0.0000000E+00;  1.1685512E-06;  0.0000000E+00;
 -6.0000002E-01;  9.9999998E-03;  8.0000001E-01;56;  0.0000000E+00;  0.0000000E+00;  0.0000000E+00;  1.0002324E+01;  4.0000001E-01;  2.5011310E-01;0;  0.0000000E+00;  0.0000000E+00;  0.0000000E+00;  0.0000000E+00;  0.0000000E+00;  0.0000000E+00;0;  4.9609524E-05;  1.0000000E+02;  0.0000000E+00;  0.0000000E+00;  1.0000000E+02;  0.0000000E+00;  1.0000000E+02;  5.0988987E-05;  0.0000000E+00; -1.3794623E-06;  0.0000000E+00;
 -6.0000002E-01;  9.9999998E-03;  1.0000000E+00;57;  0.0000000E+00;  0.0000000E+00;  0.0000000E+00;  1.0001675E+01;  4.0000001E-01;  1.8020970E-01;0;  0.0000000E+00;  0.0000000E+00;  0.0000000E+00;  0.0000000E+00;  0.0000000E+00;  0.0000000E+00;0;  3.2442989E-05;  1.0000000E+02;  0.0000000E+00;  0.0000000E+00;  1.0000000E+02;  0.0000000E+00;  1.0000000E+02;  3.5591551E-05;  0.0000000E+00; -3.1485620E-06;  0.0000000E+00;
 -6.0000002E-01;  9.9999998E-03;  1.2000000E+00;58;  0.0000000E+00;  0.0000000E+00;  0.0000000E+00;  1.0001933E+01;  4.0000001E-01;  2.0804279E-01;0;  0.0000000E+00;  0.0000000E+00;  0.0000000E+00;  0.0000000E+00;  0.0000000E+00;  0.0000000E+00;0;  1.9107705E-05;  1.0000000E+02;  0.0000000E+00;  0.0000000E+00;  1.0000000E+02;  0.0000000E+00;  1.0000000E+02;  2.3117194E-05;  0.0000000E+00; -4.0094901E-06;  0.0000000E+00;
 -6.0000002E-01;  9.9999998E-03;  1.4000000E+00;59;  0.0000000E+00;  0.0000000E+00;  0.0000000E+00;  1.0001203E+01;  4.0000001E-01;  1.2941749E-01;0;  0.0000000E+00;  0.0000000E+00;  0.0000000E+00;  0.0000000E+00;  0.0000000E+00;  0.0000000E+00;0;  9.7813618E-06;  1.0000000E+02;  0.0000000E+00;  0.0000000E+00;  1.0000000E+02;  0.0000000E+00;  1.0000000E+02;  1.3846970E-05;  0.0000000E+00; -4.0656087E-06;  0.0000000E+00;
 -4.0000001E-01;  9.9999998E-03;  0.0000000E+00;73;  0.0000000E+00;  0.0000000E+00;  0.0000000E+00;  1.0003479E+01;  4.0000001E-01;  3.7427181E-01;0;  0.0000000E+00;  0.0000000E+00;  0.0000000E+00;  0.0000000E+00;  0.0000000E+00;  0.0000000E+00;0;  1.1182428E-04;  1.0000000E+02;  0.0000000E+00;  0.0000000E+00;  1.0000000E+02;  0.0000000E+00;  1.0000000E+02;  1.0406743E-04;  0.0000000E+00;  7.7568566E-06;  0.0000000E+00;
 -4.0000001E-01;  9.9999998E-03;  2.0000000E-01;74;  0.0000000E+00;  0.0000000E+00;  0.0000000E+00;  1.0003429E+01;  4.0000001E-01;  3.6901301E-01;0;  0.0000000E+00;  0.0000000E+00;  0.0000000E+00;  0.0000000E+00;  0.0000000E+00;  0.0000000E+00;0;  1.0654554E-04;  1.0000000E+02;  0.0000000E+00;  0.0000000E+00;  1.0000000E+02;  0.0000000E+00;  1.0000000E+02;  9.9747485E-05;  0.0000000E+00;  6.7980545E-06;  0.0000000E+00;
 -4.0000001E-01;  9.9999998E-03;  4.0000001E-01;75;  0.0000000E+00;  0.0000000E+00;  0.0000000E+00;  1.0003248E+01;  4.0000001E-01;  3.4951702E-01;0;  0.0000000E+00;  0.0000000E+00;  0.0000000E+00;  0.0000000E+00;  0.0000000E+00;  0.0000000E+00;0;  9.2720300E-05;  1.0000000E+02;  0.0000000E+00;  0.0000000E+00;  1.0000000E+02;  0.0000000E+00;  1.0000000E+02;  8.8520894E-05;  0.0000000E+00;  4.1994035E-06;  0.0000000E+00;
 -4.0000001E-01;  9.9999998E-03;  6.0000002E-01;76;  0.0000000E+00;  0.0000000E+00;  0.0000000E+00;  1.0002893E+01;  4.0000001E-01;  3.1129462E-01;0;  0.0000000E+00;  0.0000000E+00;  0.0000000E+00;  0.0000000E+00;  0.0000000E+00;  0.0000000E+00;0;  7.4970223E-05;  1.0000000E+02;  0.0000000E+00;  0.0000000E+00;  1.0000000E+02;  0.0000000E+00;  1.0000000E+02;  7.4082702E-05;  0.0000000E+00;  8.8751972E-07;  0.0000000E+00;
 -4.0000001E-01;  9.9999998E-03;  8.0000001E-01;77;  0.0000000E+00;  0.0000000E+00;  0.0000000E+00;  1.0003020E+01;  4.0000001E-01;  3.2501876E-01;0;  0.0000000E+00;  0.0000000E+00;  0.0000000E+00;  0.0000000E+00;  0.0000000E+00;  0.0000000E+00;0;  5.7256490E-05;  1.0000000E+02;  0.0000000E+00;  0.0000000E+00;  1.0000000E+02;  0.0000000E+00;  1.0000000E+02;  5.9255966E-05;  0.0000000E+00; -1.9994766E-06;  0.0000000E+00;
 -4.0000001E-01;  9.9999998E-03;  1.0000000E+00;78;  0.0000000E+00;  0.0000000E+00;  0.0000000E+00;  1.0002024E+01;  4.0000001E-01;  2.1779080E-01;0;  0.0000000E+00;  0.0000000E+00;  0.0000000E+00;  0.0000000E+00;  0.0000000E+00;  0.0000000E+00;0;  4.1357976E-05;  1.0000000E+02;  0.0000000E+00;  0.0000000E+00;  1.0000000E+02;  0.0000000E+00;  1.0000000E+02;  4.5103781E-05;  0.0000000E+00; -3.7458065E-06;  0.0000000E+00;
 -4.0000001E-01;  9.9999998E-03;  1.2000000E+00;79;  0.0000000E+00;  0.0000000E+00;  0.0000000E+00;  1.0001080E+01;  4.0000001E-01;  1.1620639E-01;0;  0.0000000E+00;  0.0000000E+00;  0.0000000E+00;  0.0000000E+00;  0.0000000E+00;  0.0000000E+00;0;  2.7731225E-05;  1.0000000E+02;  0.0000000E+00;  0.0000000E+00;  1.0000000E+02;  0.0000000E+00;  1.0000000E+02;  3.1974585E-05;  0.0000000E+00; -4.2433612E-06;  0.0000000E+00;
 -4.0000001E-01;  9.9999998E-03;  1.4000000E+00;80;  0.0000000E+00;  0.0000000E+00;  0.0000000E+00;  1.0001434E+01;  4.0000001E-01;  1.5430054E-01;0;  0.0000000E+00;  0.0000000E+00;  0.0000000E+00;  0.0000000E+00;  0.0000000E+00;  0.0000000E+00;0;  1.6711962E-05;  1.0000000E+02;  0.0000000E+00;  0.0000000E+00;  1.0000000E+02;  0.0000000E+00;  1.0000000E+02;  2.0546446E-05;  0.0000000E+00; -3.8344838E-06;  0.0000000E+00;
 -2.0000000E-01;  9.9999998E-03;  0.0000000E+00;94;  0.0000000E+00;  0.0000000E+00;  0.0000000E+00;  1.0003481E+01;  4.0000001E-01;  3.7452826E-01;0;  0.0000000E+00;  0.0000000E+00;  0.0000000E+00;  0.0000000E+00;  0.0000000E+00;  0.0000000E+00;0;  9.0523812E-05;  1.0000000E+02;  0.0000000E+00;  0.0000000E+00;  1.0000000E+02;  0.0000000E+00;  1.0000000E+02;  8.4852843E-05;  0.0000000E+00;  5.6709650E-06;  0.0000000E+00;
 -2.0000000E-01;  9.9999998E-03;  2.0000000E-01;95;  0.0000000E+00;  0.0000000E+00;  0.0000000E+00;  1.0003323E+01;  4.0000001E-01;  3.5746926E-01;0;  0.0000000E+00;  0.0000000E+00;  0.0000000E+00;  0.0000000E+00;  0.0000000E+00;  0.0000000E+00;0;  8.8817891E-05;  1.0000000E+02;  0.0000000E+00;  0.0000000E+00;  1.0000000E+02;  0.0000000E+00;  1.0000000E+02;  8.3883438E-05;  0.0000000E+00;  4.9344503E-06;  0.0000000E+00;
 -2.0000000E-01;  9.9999998E-03;  4.0000001E-01;96;  0.0000000E+00;  0.0000000E+00;  0.0000000E+00;  1.0002862E+01;  4.0000001E-01;  3.0795971E-01;0;  0.0000000E+00;  0.0000000E+00;  0.0000000E+00;  0.0000000E+00;  0.0000000E+00;  0.0000000E+00;0;  8.4162057E-05;  1.0000000E+02;  0.0000000E+00;  0.0000000E+00;  1.0000000E+02;  0.0000000E+00;  1.0000000E+02;  8.1384700E-05;  0.0000000E+00;  2.7773592E-06;  0.0000000E+00;
 -2.0000000E-01;  9.9999998E-03;  6.0000002E-01;97;  0.0000000E+00;  0.0000000E+00;  0.0000000E+00;  1.0002258E+01;  4.0000001E-01;  2.4293031E-01;0;  0.0000000E+00;  0.0000000E+00;  0.0000000E+00;  0.0000000E+00;  0.0000000E+00;  0.0000000E+00;0;  7.7930381E-05;  1.0000000E+02;  0.0000000E+00;  0.0000000E+00;  1.0000000E+02;  0.0000000E+00;  1.0000000E+02;  7.8163728E-05;  0.0000000E+00; -2.3334766E-07;  0.0000000E+00;
 -2.0000000E-01;  9.9999998E-03;  8.0000001E-01;98;  0.0000000E+00;  0.0000000E+00;  0.0000000E+00;  1.0001298E+01;  4.0000001E-01;  1.3967851E-01;0;  0.0000000E+00;  0.0000000E+00;  0.0000000E+00;  0.0000000E+00;  0.0000000E+00;  0.0000000E+00;0;  7.0932729E-05;  1.0000000E+02;  0.0000000E+00;  0.0000000E+00;  1.0000000E+02;  0.0000000E+00;  1.0000000E+02;  7.3663105E-05;  0.0000000E+00; -2.7303743E-06;  0.0000000E+00;
 -2.0000000E-01;  9.9999998E-03;  1.0000000E+00;99;  0.0000000E+00;  0.0000000E+00;  0.0000000E+00;  1.0000303E+01;  4.0000001E-01;  3.2578826E-02;0;  0.0000000E+00;  0.0000000E+00;  0.0000000E+00;  0.0000000E+00;  0.0000000E+00;  0.0000000E+00;0;  6.1848252E-05;  1.0000000E+02;  0.0000000E+00;  0.0000000E+00;  1.0000000E+02;  0.0000000E+00;  1.0000000E+02;  6.5549197E-05;  0.0000000E+00; -3.7009427E-06;  0.0000000E+00;
 -2.0000000E-01;  9.9999998E-03;  1.2000000E+00;100;  0.0000000E+00;  0.0000000E+00;  0.0000000E+00;  1.0000427E+01;  4.0000001E-01;  4.5918189E-02;0;  0.0000000E+00;  0.0000000E+00;  0.0000000E+00;  0.0000000E+00;  0.0000000E+00;  0.0000000E+00;0;  4.9634829E-05;  1.0000000E+02;  0.0000000E+00;  0.0000000E+00;  1.0000000E+02;  0.0000000E+00;  1.0000000E+02;  5.2703046E-05;  0.0000000E+00; -3.0682170E-06;  0.0000000E+00;
 -2.0000000E-01;  9.9999998E-03;  1.4000000E+00;101;  0.0000000E+00;  0.0000000E+00;  0.0000000E+00;  1.0000000E+01;  4.0000001E-01;  0.0000000E+00;0;  0.0000000E+00;  0.0000000E+00;  0.0000000E+00;  0.0000000E+00;  0.0000000E+00;  0.0000000E+00;0;  3.5481313E-05;  1.0000000E+02;  0.0000000E+00;  0.0000000E+00;  1.0000000E+02;  0.0000000E+00;  1.0000000E+02;  3.7107347E-05;  0.0000000E+00; -1.6260354E-06;  0.0000000E+00;
  0.0000000E+00;  9.9999998E-03;  1.2000000E+00;110;  0.0000000E+00;  0.0000000E+00;  0.0000000E+00;  1.0000000E+01;  4.0000001E-01;  0.0000000E+00;0;  0.0000000E+00;  0.0000000E+00;  0.0000000E+00;  0.0000000E+00;  0.0000000E+00;  0.0000000E+00;0;  1.0467388E-04;  1.0000000E+02;  0.0000000E+00;  0.0000000E+00;  1.0000000E+02;  0.0000000E+00;  1.0000000E+02;  1.0429838E-04;  0.0000000E+00;  3.7550006E-07;  0.0000000E+00;
  0.0000000E+00;  9.9999998E-03;  1.4000000E+00;111;  0.0000000E+00;  0.0000000E+00;  0.0000000E+00;  1.0000000E+01;  4.0000001E-01;  0.0000000E+00;0;  0.0000000E+00;  0.0000000E+00;  0.0000000E+00;  0.0000000E+00;  0.0000000E+00;  0.0000000E+00;0;  8.1456827E-05;  1.0000000E+02;  0.0000000E+00;  0.0000000E+00;  1.0000000E+02;  0.0000000E+00;  1.0000000E+02;  7.8409365E-05;  0.0000000E+00;  3.0474612E-06;  0.0000000E+00;
  2.0000000E-01;  9.9999998E-03;  1.2000000E+00;120;  0.0000000E+00;  0.0000000E+00;  0.0000000E+00;  1.0000000E+01;  4.0000001E-01;  0.0000000E+00;0;  0.0000000E+00;  0.0000000E+00;  0.0000000E+00;  0.0000000E+00;  0.0000000E+00;  0.0000000E+00;0;  2.2794693E-04;  1.0000000E+02;  0.0000000E+00;  0.0000000E+00;  1.0000000E+02;  0.0000000E+00;  1.0000000E+02;  2.2165112E-04;  0.0000000E+00;  6.2958120E-06;  0.0000000E+00;
  2.0000000E-01;  9.9999998E-03;  1.4000000E+00;121;  0.0000000E+00;  0.0000000E+00;  0.0000000E+00;  1.0000000E+01;  4.0000001E-01;  0.0000000E+00;0;  0.0000000E+00;  0.0000000E+00;  0.0000000E+00;  0.0000000E+00;  0.0000000E+00;  0.0000000E+00;0;  1.8009386E-04;  1.0000000E+02;  0.0000000E+00;  0.0000000E+00;  1.0000000E+02;  0.0000000E+00;  1.0000000E+02;  1.7089715E-04;  0.0000000E+00;  9.1967013E-06;  0.0000000E+00;
  4.0000001E-01;  9.9999998E-03;  1.2000000E+00;130;  0.0000000E+00;  0.0000000E+00;  0.0000000E+00;  1.0000000E+01;  4.0000001E-01;  0.0000000E+00;0;  0.0000000E+00;  0.0000000E+00;  0.0000000E+00;  0.0000000E+00;  0.0000000E+00;  0.0000000E+00;0;  4.8041705E-04;  1.0000000E+02;  0.0000000E+00;  0.0000000E+00;  1.0000000E+02;  0.0000000E+00;  1.0000000E+02;  4.6871614E-04;  0.0000000E+00;  1.1700903E-05;  0.0000000E+00;
  4.0000001E-01;  9.9999998E-03;  1.4000000E+00;131;  0.0000000E+00;  0.0000000E+00;  0.0000000E+00;  1.0000000E+01;  4.0000001E-01;  0.0000000E+00;0;  0.0000000E+00;  0.0000000E+00;  0.0000000E+00;  0.0000000E+00;  0.0000000E+00;  0.0000000E+00;0;  3.7148379E-04;  1.0000000E+02;  0.0000000E+00;  0.0000000E+00;  1.0000000E+02;  0.0000000E+00;  1.0000000E+02;  3.5813981E-04;  0.0000000E+00;  1.3343977E-05;  0.0000000E+00;
  6.0000002E-01;  9.9999998E-03;  1.2000000E+00;140;  0.0000000E+00;  0.0000000E+00;  0.0000000E+00;  1.0000000E+01;  4.0000001E-01;  0.0000000E+00;0;  0.0000000E+00;  0.0000000E+00;  0.0000000E+00;  0.0000000E+00;  0.0000000E+00;  0.0000000E+00;0;  9.4236457E-04;  1.0000000E+02;  0.0000000E+00;  0.0000000E+00;  1.0000000E+02;  0.0000000E+00;  1.0000000E+02;  9.3148235E-04;  0.0000000E+00;  1.0882220E-05;  0.0000000E+00;
  6.0000002E-01;  9.9999998E-03;  1.4000000E+00;141;  0.0000000E+00;  0.0000000E+00;  0.0000000E+00;  1.0000000E+01;  4.0000001E-01;  0.0000000E+00;0;  0.0000000E+00;  0.0000000E+00;  0.0000000E+00;  0.0000000E+00;  0.0000000E+00;  0.0000000E+00;0;  7.0625643E-04;  1.0000000E+02;  0.0000000E+00;  0.0000000E+00;  1.0000000E+02;  0.0000000E+00;  1.0000000E+02;  6.9559389E-04;  0.0000000E+00;  1.0662550E-05;  0.0000000E+00;
  8.0000001E-01;  9.9999998E-03;  1.2000000E+00;150;  0.0000000E+00;  0.0000000E+00;  0.0000000E+00;  1.0000000E+01;  4.0000001E-01;  0.0000000E+00;0;  0.0000000E+00;  0.0000000E+00;  0.0000000E+00;  0.0000000E+00;  0.0000000E+00;  0.0000000E+00;0;  1.6440724E-03;  1.0000000E+02;  0.0000000E+00;  0.0000000E+00;  1.0000000E+02;  0.0000000E+00;  1.0000000E+02;  1.6445182E-03;  0.0000000E+00; -4.4582021E-07;  0.0000000E+00;
  8.0000001E-01;  9.9999998E-03;  1.4000000E+00;151;  0.0000000E+00;  0.0000000E+00;  0.0000000E+00;  1.0000000E+01;  4.0000001E-01;  0.0000000E+00;0;  0.0000000E+00;  0.0000000E+00;  0.0000000E+00;  0.0000000E+00;  0.0000000E+00;  0.0000000E+00;0;  1.2001379E-03;  1.0000000E+02;  0.0000000E+00;  0.0000000E+00;  1.0000000E+02;  0.0000000E+00;  1.0000000E+02;  1.2017492E-03;  0.0000000E+00; -1.6112557E-06;  0.0000000E+00;
  1.0000000E+00;  9.9999998E-03;  1.2000000E+00;160;  0.0000000E+00;  0.0000000E+00;  0.0000000E+00;  1.0000000E+01;  4.0000001E-01;  0.0000000E+00;0;  0.0000000E+00;  0.0000000E+00;  0.0000000E+00;  0.0000000E+00;  0.0000000E+00;  0.0000000E+00;0;  2.5052910E-03;  1.0000000E+02;  0.0000000E+00;  0.0000000E+00;  1.0000000E+02;  0.0000000E+00;  1.0000000E+02;  2.5259899E-03;  0.0000000E+00; -2.0698926E-05;  0.0000000E+00;
  1.0000000E+00;  9.9999998E-03;  1.4000000E+00;161;  0.0000000E+00;  0.0000000E+00;  0.0000000E+00;  1.0000000E+01;  4.0000001E-01;  0.0000000E+00;0;  0.0000000E+00;  0.0000000E+00;  0.0000000E+00;  0.0000000E+00;  0.0000000E+00;  0.0000000E+00;0;  1.7860436E-03;  1.0000000E+02;  0.0000000E+00;  0.0000000E+00;  1.0000000E+02;  0.0000000E+00;  1.0000000E+02;  1.8081338E-03;  0.0000000E+00; -2.2090149E-05;  0.0000000E+00;
 -1.0000000E+00;  9.9999998E-03;  1.6000000E+00;18;  0.0000000E+00;  0.0000000E+00;  0.0000000E+00;  1.0000038E+01;  4.0000001E-01;  4.1044205E-03;0;  0.0000000E+00;  0.0000000E+00;  0.0000000E+00;  0.0000000E+00;  0.0000000E+00;  0.0000000E+00;0;  3.8628878E-07;  1.0000000E+02;  0.0000000E+00;  0.0000000E+00;  1.0000000E+02;  0.0000000E+00;  1.0000000E+02;  1.8748644E-06;  0.0000000E+00; -1.4885757E-06;  0.0000000E+00;
 -1.0000000E+00;  9.9999998E-03;  1.8000000E+00;19;  0.0000000E+00;  0.0000000E+00;  0.0000000E+00;  1.0000000E+01;  4.0000001E-01;  0.0000000E+00;0;  0.0000000E+00;  0.0000000E+00;  0.0000000E+00;  0.0000000E+00;  0.0000000E+00;  0.0000000E+00;0; -1.6156270E-07;  1.0000000E+02;  0.0000000E+00;  0.0000000E+00;  1.0000000E+02;  0.0000000E+00;  1.0000000E+02;  7.3109538E-07;  0.0000000E+00; -8.9265808E-07;  0.0000000E+00;
 -1.0000000E+00;  9.9999998E-03;  2.0000000E+00;20;  0.0000000E+00;  0.0000000E+00;  0.0000000E+00;  1.0000000E+01;  4.0000001E-01;  0.0000000E+00;0;  0.0000000E+00;  0.0000000E+00;  0.0000000E+00;  0.0000000E+00;  0.0000000E+00;  0.0000000E+00;0; -1.2093474E-07;  1.0000000E+02;  0.0000000E+00;  0.0000000E+00;  1.0000000E+02;  0.0000000E+00;  1.0000000E+02;  2.0511763E-07;  0.0000000E+00; -3.2605237E-07;  0.0000000E+00;
 -8.0000001E-01;  9.9999998E-03;  1.6000000E+00;39;  0.0000000E+00;  0.0000000E+00;  0.0000000E+00;  1.0000361E+01;  4.0000001E-01;  3.8863733E-02;0;  0.0000000E+00;  0.0000000E+00;  0.0000000E+00;  0.0000000E+00;  0.0000000E+00;  0.0000000E+00;0;  1.8944966E-06;  1.0000000E+02;  0.0000000E+00;  0.0000000E+00;  1.0000000E+02;  0.0000000E+00;  1.0000000E+02;  4.5883089E-06;  0.0000000E+00; -2.6938123E-06;  0.0000000E+00;
 -8.0000001E-01;  9.9999998E-03;  1.8000000E+00;40;  0.0000000E+00;  0.0000000E+00;  0.0000000E+00;  1.0000087E+01;  4.0000001E-01;  9.3632098E-03;0;  0.0000000E+00;  0.0000000E+00;  0.0000000E+00;  0.0000000E+00;  0.0000000E+00;  0.0000000E+00;0;  2.7252577E-07;  1.0000000E+02;  0.0000000E+00;  0.0000000E+00;  1.0000000E+02;  0.0000000E+00;  1.0000000E+02;  2.0603275E-06;  0.0000000E+00; -1.7878017E-06;  0.0000000E+00;
 -8.0000001E-01;  9.9999998E-03;  2.0000000E+00;41;  0.0000000E+00;  0.0000000E+00;  0.0000000E+00;  1.0000000E+01;  4.0000001E-01;  0.0000000E+00;0;  0.0000000E+00;  0.0000000E+00;  0.0000000E+00;  0.0000000E+00;  0.0000000E+00;  0.0000000E+00;0; -8.6333614E-08;  1.0000000E+02;  0.0000000E+00;  0.0000000E+00;  1.0000000E+02;  0.0000000E+00;  1.0000000E+02;  7.0727623E-07;  0.0000000E+00; -7.9360984E-07;  0.0000000E+00;
 -6.0000002E-01;  9.9999998E-03;  1.6000000E+00;60;  0.0000000E+00;  0.0000000E+00;  0.0000000E+00;  1.0000634E+01;  4.0000001E-01;  6.8235986E-02;0;  0.0000000E+00;  0.0000000E+00;  0.0000000E+00;  0.0000000E+00;  0.0000000E+00;  0.0000000E+00;0;  4.0387567E-06;  1.0000000E+02;  0.0000000E+00;  0.0000000E+00;  1.0000000E+02;  0.0000000E+00;  1.0000000E+02;  7.5157100E-06;  0.0000000E+00; -3.4769532E-06;  0.0000000E+00;
 -6.0000002E-01;  9.9999998E-03;  1.8000000E+00;61;  0.0000000E+00;  0.0000000E+00;  0.0000000E+00;  1.0000278E+01;  4.0000001E-01;  3.0013572E-02;0;  0.0000000E+00;  0.0000000E+00;  0.0000000E+00;  0.0000000E+00;  0.0000000E+00;  0.0000000E+00;0;  1.1613795E-06;  1.0000000E+02;  0.0000000E+00;  0.0000000E+00;  1.0000000E+02;  0.0000000E+00;  1.0000000E+02;  3.5685493E-06;  0.0000000E+00; -2.4071699E-06;  0.0000000E+00;
 -6.0000002E-01;  9.9999998E-03;  2.0000000E+00;62;  0.0000000E+00;  0.0000000E+00;  0.0000000E+00;  1.0000000E+01;  4.0000001E-01;  0.0000000E+00;0;  0.0000000E+00;  0.0000000E+00;  0.0000000E+00;  0.0000000E+00;  0.0000000E+00;  0.0000000E+00;0;  2.0635389E-07;  1.0000000E+02;  0.0000000E+00;  0.0000000E+00;  1.0000000E+02;  0.0000000E+00;  1.0000000E+02;  1.4238231E-06;  0.0000000E+00; -1.2174692E-06;  0.0000000E+00;
 -4.0000001E-01;  9.9999998E-03;  1.6000000E+00;81;  0.0000000E+00;  0.0000000E+00;  0.0000000E+00;  1.0000803E+01;  4.0000001E-01;  8.6449347E-02;0;  0.0000000E+00;  0.0000000E+00;  0.0000000E+00;  0.0000000E+00;  0.0000000E+00;  0.0000000E+00;0;  8.6186474E-06;  1.0000000E+02;  0.0000000E+00;  0.0000000E+00;  1.0000000E+02;  0.0000000E+00;  1.0000000E+02;  1.1607286E-05;  0.0000000E+00; -2.9886387E-06;  0.0000000E+00;
 -4.0000001E-01;  9.9999998E-03;  1.8000000E+00;82;  0.0000000E+00;  0.0000000E+00;  0.0000000E+00;  1.0000381E+01;  4.0000001E-01;  4.0915936E-02;0;  0.0000000E+00;  0.0000000E+00;  0.0000000E+00;  0.0000000E+00;  0.0000000E+00;  0.0000000E+00;0;  3.5871169E-06;  1.0000000E+02;  0.0000000E+00;  0.0000000E+00;  1.0000000E+02;  0.0000000E+00;  1.0000000E+02;  5.5934615E-06;  0.0000000E+00; -2.0063446E-06;  0.0000000E+00;
 -4.0000001E-01;  9.9999998E-03;  2.0000000E+00;83;  0.0000000E+00;  0.0000000E+00;  0.0000000E+00;  1.0000092E+01;  4.0000001E-01;  9.8762605E-03;0;  0.0000000E+00;  0.0000000E+00;  0.0000000E+00;  0.0000000E+00;  0.0000000E+00;  0.0000000E+00;0;  1.1169302E-06;  1.0000000E+02;  0.0000000E+00;  0.0000000E+00;  1.0000000E+02;  0.0000000E+00;  1.0000000E+02;  2.2177874E-06;  0.0000000E+00; -1.1008572E-06;  0.0000000E+00;
 -2.0000000E-01;  9.9999998E-03;  1.6000000E+00;102;  0.0000000E+00;  0.0000000E+00;  0.0000000E+00;  1.0000000E+01;  4.0000001E-01;  0.0000000E+00;0;  0.0000000E+00;  0.0000000E+00;  0.0000000E+00;  0.0000000E+00;  0.0000000E+00;  0.0000000E+00;0;  2.1880041E-05;  1.0000000E+02;  0.0000000E+00;  0.0000000E+00;  1.0000000E+02;  0.0000000E+00;  1.0000000E+02;  2.2277727E-05;  0.0000000E+00; -3.9768591E-07;  0.0000000E+00;
 -2.0000000E-01;  9.9999998E-03;  1.8000000E+00;103;  0.0000000E+00;  0.0000000E+00;  0.0000000E+00;  1.0000424E+01;  4.0000001E-01;  4.5661662E-02;0;  0.0000000E+00;  0.0000000E+00;  0.0000000E+00;  0.0000000E+00;  0.0000000E+00;  0.0000000E+00;0;  1.1160676E-05;  1.0000000E+02;  0.0000000E+00;  0.0000000E+00;  1.0000000E+02;  0.0000000E+00;  1.0000000E+02;  1.1023192E-05;  0.0000000E+00;  1.3748340E-07;  0.0000000E+00;
 -2.0000000E-01;  9.9999998E-03;  2.0000000E+00;104;  0.0000000E+00;  0.0000000E+00;  0.0000000E+00;  1.0000140E+01;  4.0000001E-01;  1.5135045E-02;0;  0.0000000E+00;  0.0000000E+00;  0.0000000E+00;  0.0000000E+00;  0.0000000E+00;  0.0000000E+00;0;  4.2785832E-06;  1.0000000E+02;  0.0000000E+00;  0.0000000E+00;  1.0000000E+02;  0.0000000E+00;  1.0000000E+02;  4.2136817E-06;  0.0000000E+00;  6.4901442E-08;  0.0000000E+00;
  0.0000000E+00;  9.9999998E-03;  1.6000000E+00;112;  0.0000000E+00;  0.0000000E+00;  0.0000000E+00;  1.0000000E+01;  4.0000001E-01;  0.0000000E+00;0;  0.0000000E+00;  0.0000000E+00;  0.0000000E+00;  0.0000000E+00;  0.0000000E+00;  0.0000000E+00;0;  5.4221498E-05;  1.0000000E+02;  0.0000000E+00;  0.0000000E+00;  1.0000000E+02;  0.0000000E+00;  1.0000000E+02;  4.9815102E-05;  0.0000000E+00;  4.4063972E-06;  0.0000000E+00;
  0.0000000E+00;  9.9999998E-03;  1.8000000E+00;113;  0.0000000E+00;  0.0000000E+00;  0.0000000E+00;  1.0000000E+01;  4.0000001E-01;  0.0000000E+00;0;  0.0000000E+00;  0.0000000E+00;  0.0000000E+00;  0.0000000E+00;  0.0000000E+00;  0.0000000E+00;0;  3.0092919E-05;  1.0000000E+02;  0.0000000E+00;  0.0000000E+00;  1.0000000E+02;  0.0000000E+00;  1.0000000E+02;  2.6058537E-05;  0.0000000E+00;  4.0343825E-06;  0.0000000E+00;
  0.0000000E+00;  9.9999998E-03;  2.0000000E+00;114;  0.0000000E+00;  0.0000000E+00;  0.0000000E+00;  1.0000150E+01;  4.0000001E-01;  1.6161144E-02;0;  0.0000000E+00;  0.0000000E+00;  0.0000000E+00;  0.0000000E+00;  0.0000000E+00;  0.0000000E+00;0;  1.2907415E-05;  1.0000000E+02;  0.0000000E+00;  0.0000000E+00;  1.0000000E+02;  0.0000000E+00;  1.0000000E+02;  1.0522773E-05;  0.0000000E+00;  2.3846421E-06;  0.0000000E+00;
  2.0000000E-01;  9.9999998E-03;  1.6000000E+00;122;  0.0000000E+00;  0.0000000E+00;  0.0000000E+00;  1.0000000E+01;  4.0000001E-01;  0.0000000E+00;0;  0.0000000E+00;  0.0000000E+00;  0.0000000E+00;  0.0000000E+00;  0.0000000E+00;  0.0000000E+00;0;  1.2207526E-04;  1.0000000E+02;  0.0000000E+00;  0.0000000E+00;  1.0000000E+02;  0.0000000E+00;  1.0000000E+02;  1.1218546E-04;  0.0000000E+00;  9.8897990E-06;  0.0000000E+00;
  2.0000000E-01;  9.9999998E-03;  1.8000000E+00;123;  0.0000000E+00;  0.0000000E+00;  0.0000000E+00;  1.0000000E+01;  4.0000001E-01;  0.0000000E+00;0;  0.0000000E+00;  0.0000000E+00;  0.0000000E+00;  0.0000000E+00;  0.0000000E+00;  0.0000000E+00;0;  6.9978072E-05;  1.0000000E+02;  0.0000000E+00;  0.0000000E+00;  1.0000000E+02;  0.0000000E+00;  1.0000000E+02;  6.1669198E-05;  0.0000000E+00;  8.3088771E-06;  0.0000000E+00;
  2.0000000E-01;  9.9999998E-03;  2.0000000E+00;124;  0.0000000E+00;  0.0000000E+00;  0.0000000E+00;  1.0000000E+01;  4.0000001E-01;  0.0000000E+00;0;  0.0000000E+00;  0.0000000E+00;  0.0000000E+00;  0.0000000E+00;  0.0000000E+00;  0.0000000E+00;0;  3.1919477E-05;  1.0000000E+02;  0.0000000E+00;  0.0000000E+00;  1.0000000E+02;  0.0000000E+00;  1.0000000E+02;  2.6865337E-05;  0.0000000E+00;  5.0541389E-06;  0.0000000E+00;
  4.0000001E-01;  9.9999998E-03;  1.6000000E+00;132;  0.0000000E+00;  0.0000000E+00;  0.0000000E+00;  1.0000000E+01;  4.0000001E-01;  0.0000000E+00;0;  0.0000000E+00;  0.0000000E+00;  0.0000000E+00;  0.0000000E+00;  0.0000000E+00;  0.0000000E+00;0;  2.5091934E-04;  1.0000000E+02;  0.0000000E+00;  0.0000000E+00;  1.0000000E+02;  0.0000000E+00;  1.0000000E+02;  2.3826439E-04;  0.0000000E+00;  1.2654958E-05;  0.0000000E+00;
  4.0000001E-01;  9.9999998E-03;  1.8000000E+00;133;  0.0000000E+00;  0.0000000E+00;  0.0000000E+00;  1.0000000E+01;  4.0000001E-01;  0.0000000E+00;0;  0.0000000E+00;  0.0000000E+00;  0.0000000E+00;  0.0000000E+00;  0.0000000E+00;  0.0000000E+00;0;  1.4573162E-04;  1.0000000E+02;  0.0000000E+00;  0.0000000E+00;  1.0000000E+02;  0.0000000E+00;  1.0000000E+02;  1.3542318E-04;  0.0000000E+00;  1.0308443E-05;  0.0000000E+00;
  4.0000001E-01;  9.9999998E-03;  2.0000000E+00;134;  0.0000000E+00;  0.0000000E+00;  0.0000000E+00;  1.0000000E+01;  4.0000001E-01;  0.0000000E+00;0;  0.0000000E+00;  0.0000000E+00;  0.0000000E+00;  0.0000000E+00;  0.0000000E+00;  0.0000000E+00;0;  6.9284317E-05;  1.0000000E+02;  0.0000000E+00;  0.0000000E+00;  1.0000000E+02;  0.0000000E+00;  1.0000000E+02;  6.2781415E-05;  0.0000000E+00;  6.5029039E-06;  0.0000000E+00;
  6.0000002E-01;  9.9999998E-03;  1.6000000E+00;142;  0.0000000E+00;  0.0000000E+00;  0.0000000E+00;  1.0000000E+01;  4.0000001E-01;  0.0000000E+00;0;  0.0000000E+00;  0.0000000E+00;  0.0000000E+00;  0.0000000E+00;  0.0000000E+00;  0.0000000E+00;0;  4.6865456E-04;  1.0000000E+02;  0.0000000E+00;  0.0000000E+00;  1.0000000E+02;  0.0000000E+00;  1.0000000E+02;  4.5954168E-04;  0.0000000E+00;  9.1128604E-06;  0.0000000E+00;
  6.0000002E-01;  9.9999998E-03;  1.8000000E+00;143;  0.0000000E+00;  0.0000000E+00;  0.0000000E+00;  1.0000000E+01;  4.0000001E-01;  0.0000000E+00;0;  0.0000000E+00;  0.0000000E+00;  0.0000000E+00;  0.0000000E+00;  0.0000000E+00;  0.0000000E+00;0;  2.7425491E-04;  1.0000000E+02;  0.0000000E+00;  0.0000000E+00;  1.0000000E+02;  0.0000000E+00;  1.0000000E+02;  2.6696449E-04;  0.0000000E+00;  7.2904309E-06;  0.0000000E+00;
  6.0000002E-01;  9.9999998E-03;  2.0000000E+00;144;  0.0000000E+00;  0.0000000E+00;  0.0000000E+00;  1.0000000E+01;  4.0000001E-01;  0.0000000E+00;0;  0.0000000E+00;  0.0000000E+00;  0.0000000E+00;  0.0000000E+00;  0.0000000E+00;  0.0000000E+00;0;  1.3548523E-04;  1.0000000E+02;  0.0000000E+00;  0.0000000E+00;  1.0000000E+02;  0.0000000E+00;  1.0000000E+02;  1.3044135E-04;  0.0000000E+00;  5.0438839E-06;  0.0000000E+00;
  8.0000001E-01;  9.9999998E-03;  1.6000000E+00;152;  0.0000000E+00;  0.0000000E+00;  0.0000000E+00;  1.0000000E+01;  4.0000001E-01;  0.0000000E+00;0;  0.0000000E+00;  0.0000000E+00;  0.0000000E+00;  0.0000000E+00;  0.0000000E+00;  0.0000000E+00;0;  7.7724969E-04;  1.0000000E+02;  0.0000000E+00;  0.0000000E+00;  1.0000000E+02;  0.0000000E+00;  1.0000000E+02;  7.7959639E-04;  0.0000000E+00; -2.3467269E-06;  0.0000000E+00;
  8.0000001E-01;  9.9999998E-03;  1.8000000E+00;153;  0.0000000E+00;  0.0000000E+00;  0.0000000E+00;  1.0000000E+01;  4.0000001E-01;  0.0000000E+00;0;  0.0000000E+00;  0.0000000E+00;  0.0000000E+00;  0.0000000E+00;  0.0000000E+00;  0.0000000E+00;0;  4.5410363E-04;  1.0000000E+02;  0.0000000E+00;  0.0000000E+00;  1.0000000E+02;  0.0000000E+00;  1.0000000E+02;  4.5624518E-04;  0.0000000E+00; -2.1415444E-06;  0.0000000E+00;
  8.0000001E-01;  9.9999998E-03;  2.0000000E+00;154;  0.0000000E+00;  0.0000000E+00;  0.0000000E+00;  1.0000000E+01;  4.0000001E-01;  0.0000000E+00;0;  0.0000000E+00;  0.0000000E+00;  0.0000000E+00;  0.0000000E+00;  0.0000000E+00;  0.0000000E+00;0;  2.3469317E-04;  1.0000000E+02;  0.0000000E+00;  0.0000000E+00;  1.0000000E+02;  0.0000000E+00;  1.0000000E+02;  2.3557484E-04;  0.0000000E+00; -8.8167110E-07;  0.0000000E+00;
  1.0000000E+00;  9.9999998E-03;  1.6000000E+00;162;  0.0000000E+00;  0.0000000E+00;  0.0000000E+00;  1.0000000E+01;  4.0000001E-01;  0.0000000E+00;0;  0.0000000E+00;  0.0000000E+00;  0.0000000E+00;  0.0000000E+00;  0.0000000E+00;  0.0000000E+00;0;  1.1247055E-03;  1.0000000E+02;  0.0000000E+00;  0.0000000E+00;  1.0000000E+02;  0.0000000E+00;  1.0000000E+02;  1.1452078E-03;  0.0000000E+00; -2.0502228E-05;  0.0000000E+00;
  1.0000000E+00;  9.9999998E-03;  1.8000000E+00;163;  0.0000000E+00;  0.0000000E+00;  0.0000000E+00;  1.0000000E+01;  4.0000001E-01;  0.0000000E+00;0;  0.0000000E+00;  0.0000000E+00;  0.0000000E+00;  0.0000000E+00;  0.0000000E+00;  0.0000000E+00;0;  6.4579776E-04;  1.0000000E+02;  0.0000000E+00;  0.0000000E+00;  1.0000000E+02;  0.0000000E+00;  1.0000000E+02;  6.6353654E-04;  0.0000000E+00; -1.7738759E-05;  0.0000000E+00;
  1.0000000E+00;  9.9999998E-03;  2.0000000E+00;164;  0.0000000E+00;  0.0000000E+00;  0.0000000E+00;  1.0000000E+01;  4.0000001E-01;  0.0000000E+00;0;  0.0000000E+00;  0.0000000E+00;  0.0000000E+00;  0.0000000E+00;  0.0000000E+00;  0.0000000E+00;0;  3.4460484E-04;  1.0000000E+02;  0.0000000E+00;  0.0000000E+00;  1.0000000E+02;  0.0000000E+00;  1.0000000E+02;  3.5759588E-04;  0.0000000E+00; -1.2991042E-05;  0.0000000E+00;
 -4.7139969E-04;  9.9999998E-03; -1.0001956E+00;165;  2.8647435E-05;  0.0000000E+00; -5.8843150E-05;  9.9987268E+00;  4.0010089E-01; -1.3698493E-01;3;  1.1490230E-02;  0.0000000E+00; -1.3655120E-02;  0.0000000E+00;  0.0000000E+00;  0.0000000E+00;0;  1.1799183E-04;  9.9918304E+01;  0.0000000E+00; -3.1105392E-05;  1.0000000E+02;  0.0000000E+00;  9.9998260E+01;  1.1730031E-04;  0.0000000E+00;  6.9151247E-07;  0.0000000E+00;
 -3.6328001E-04;  9.9999998E-03; -8.0021691E-01;166;  7.5875127E-05;  0.0000000E+00; -7.6798373E-05;  9.9987917E+00;  4.0007842E-01; -1.2999459E-01;3;  1.3753255E-02;  0.0000000E+00; -2.0997830E-02;  0.0000000E+00;  0.0000000E+00;  0.0000000E+00;0;  1.1063588E-04;  9.9926323E+01;  0.0000000E+00; -2.3780034E-05;  1.0000000E+02;  0.0000000E+00;  1.0000000E+02;  1.1302310E-04;  0.0000000E+00; -2.3872180E-06;  0.0000000E+00;
 -2.2022967E-04;  9.9999998E-03; -6.0017908E-01;167;  1.2282589E-04;  0.0000000E+00; -7.0823800E-05;  9.9988050E+00;  4.0004385E-01; -1.2858370E-01;3;  1.3877952E-02;  0.0000000E+00; -1.4775870E-02;  0.0000000E+00;  0.0000000E+00;  0.0000000E+00;0;  9.4291798E-05;  9.9944328E+01;  0.0000000E+00; -4.1265019E-07;  1.0000000E+02;  0.0000000E+00;  9.9998749E+01;  9.6624397E-05;  0.0000000E+00; -2.3325974E-06;  0.0000000E+00;
 -2.2251841E-05;  9.9999998E-03; -4.0007719E-01;168;  1.8527317E-04;  0.0000000E+00; -3.7477366E-05;  9.9987965E+00;  4.0001309E-01; -1.2948154E-01;3;  1.5244499E-02;  0.0000000E+00; -6.1558723E-03;  0.0000000E+00;  0.0000000E+00;  0.0000000E+00;0;  7.5437907E-05;  9.9965576E+01;  0.0000000E+00;  6.1114547E-06;  1.0000000E+02;  0.0000000E+00;  1.0000729E+02;  7.6423799E-05;  0.0000000E+00; -9.8589271E-07;  0.0000000E+00;
  1.0923518E-04;  9.9999998E-03; -2.0002830E-01;169;  2.2880026E-04;  0.0000000E+00; -1.3295702E-05;  9.9989548E+00;  3.9998424E-01; -1.1248668E-01;3;  1.6149605E-02;  0.0000000E+00; -2.0167856E-03;  0.0000000E+00;  0.0000000E+00;  0.0000000E+00;0;  6.0758368E-05;  9.9981621E+01;  0.0000000E+00;  2.2129980E-06;  1.0000000E+02;  0.0000000E+00;  1.0000815E+02;  6.0818624E-05;  0.0000000E+00; -6.0254081E-08;  0.0000000E+00;
  1.9941504E-01;  9.9999998E-03; -9.9989277E-01;176;  5.1668343E-05;  0.0000000E+00; -4.9891337E-06;  9.9977932E+00;  4.0048370E-01; -2.3741464E-01;3;  1.4598076E-02;  0.0000000E+00; -2.5006052E-02;  0.0000000E+00;  0.0000000E+00;  0.0000000E+00;0;  2.5060438E-04;  9.9710579E+01;  0.0000000E+00;  2.3504295E-05;  1.0000000E+02;  0.0000000E+00;  1.0000108E+02;  2.4894980E-04;  0.0000000E+00;  1.6545878E-06;  0.0000000E+00;
  1.9940393E-01;  9.9999998E-03; -7.9998630E-01;177;  3.7343230E-05;  0.0000000E+00; -3.1142154E-05;  9.9977226E+00;  4.0051031E-01; -2.4504629E-01;3;  1.9760530E-02;  0.0000000E+00; -3.0721946E-02;  0.0000000E+00;  0.0000000E+00;  0.0000000E+00;0;  2.3798854E-04;  9.9690781E+01;  0.0000000E+00; -1.9274576E-04;  1.0000000E+02;  0.0000000E+00;  9.9999870E+01;  2.4068977E-04;  0.0000000E+00; -2.7012356E-06;  0.0000000E+00;
  1.9946639E-01;  9.9999998E-03; -6.0001349E-01;178;  5.5680070E-05;  0.0000000E+00; -3.4499215E-05;  9.9978504E+00;  4.0050757E-01; -2.3125802E-01;3;  2.6167730E-02;  0.0000000E+00; -2.5908072E-02;  0.0000000E+00;  0.0000000E+00;  0.0000000E+00;0;  2.0509033E-04;  9.9696342E+01;  0.0000000E+00; -1.5323299E-04;  1.0000000E+02;  0.0000000E+00;  1.0000382E+02;  2.1071962E-04;  0.0000000E+00; -5.6292874E-06;  0.0000000E+00;
  1.9964299E-01;  9.9999998E-03; -3.9998081E-01;179;  1.1461606E-04;  0.0000000E+00; -1.2019704E-05;  9.9982166E+00;  4.0046555E-01; -1.9188131E-01;3;  2.9673606E-02;  0.0000000E+00; -1.5830504E-02;  0.0000000E+00;  0.0000000E+00;  0.0000000E+00;0;  1.6623268E-04;  9.9716728E+01;  0.0000000E+00; -5.6046196E-05;  1.0000000E+02;  0.0000000E+00;  1.0001201E+02;  1.7310531E-04;  0.0000000E+00; -6.8726267E-06;  0.0000000E+00;
  1.9977127E-01;  9.9999998E-03; -1.9998480E-01;180;  1.5804156E-04;  0.0000000E+00; -2.5439863E-06;  9.9984274E+00;  4.0042615E-01; -1.6917878E-01;3;  3.2654312E-02;  0.0000000E+00; -7.0469654E-03;  0.0000000E+00;  0.0000000E+00;  0.0000000E+00;0;  1.3557226E-04;  9.9737762E+01;  0.0000000E+00; -8.2469314E-06;  1.0000000E+02;  0.0000000E+00;  1.0001254E+02;  1.4293641E-04;  0.0000000E+00; -7.3641377E-06;  0.0000000E+00;
  3.9957023E-01;  9.9999998E-03; -9.9955064E-01;187;  1.1133356E-04;  0.0000000E+00;  1.0624507E-04;  9.9962606E+00;  4.0126580E-01; -4.0235987E-01;3; -1.4696307E-02;  0.0000000E+00; -1.4433686E-01;  0.0000000E+00;  0.0000000E+00;  0.0000000E+00;0;  5.4697634E-04;  9.9288246E+01;  0.0000000E+00;  2.0550098E-03;  1.0000000E+02;  0.0000000E+00;  1.0000108E+02;  5.5255002E-04;  0.0000000E+00; -5.5736818E-06;  0.0000000E+00;
  3.9925683E-01;  9.9999998E-03; -7.9968327E-01;188; -1.8597231E-06;  0.0000000E+00;  5.9015081E-05;  9.9960756E+00;  4.0139502E-01; -4.2224059E-01;3; -1.0539252E-02;  0.0000000E+00; -1.1603382E-01;  0.0000000E+00;  0.0000000E+00;  0.0000000E+00;0;  5.4627087E-04;  9.9221939E+01;  0.0000000E+00;  5.6994948E-05;  1.0000000E+02;  0.0000000E+00;  9.9999763E+01;  5.5238412E-04;  0.0000000E+00; -6.1132305E-06;  0.0000000E+00;
  3.9923736E-01;  9.9999998E-03; -5.9982055E-01;189;  2.0176671E-07;  0.0000000E+00;  2.5184525E-05;  9.9962025E+00;  4.0142912E-01; -4.0858063E-01;3; -7.6540061E-03;  0.0000000E+00; -8.2201339E-02;  0.0000000E+00;  0.0000000E+00;  0.0000000E+00;0;  5.1637273E-04;  9.9203056E+01;  0.0000000E+00; -5.7614542E-04;  1.0000000E+02;  0.0000000E+00;  1.0001398E+02;  5.2591169E-04;  0.0000000E+00; -9.5389714E-06;  0.0000000E+00;
  3.9937770E-01;  9.9999998E-03; -3.9989248E-01;190;  5.9398324E-05;  0.0000000E+00;  1.5573800E-05;  9.9964476E+00;  4.0139937E-01; -3.8222265E-01;3; -7.9986770E-03;  0.0000000E+00; -4.8417822E-02;  0.0000000E+00;  0.0000000E+00;  0.0000000E+00;0;  4.7302473E-04;  9.9215767E+01;  0.0000000E+00; -3.5584957E-04;  1.0000000E+02;  0.0000000E+00;  1.0001324E+02;  4.8500623E-04;  0.0000000E+00; -1.1981497E-05;  0.0000000E+00;
  3.9951468E-01;  9.9999998E-03; -1.9994129E-01;191;  1.1050378E-04;  0.0000000E+00;  9.9809804E-06;  9.9966116E+00;  4.0136132E-01; -3.6458653E-01;3; -8.4027732E-03;  0.0000000E+00; -2.1251811E-02;  0.0000000E+00;  0.0000000E+00;  0.0000000E+00;0;  4.3717434E-04;  9.9236031E+01;  0.0000000E+00; -8.0776423E-05;  1.0000000E+02;  0.0000000E+00;  1.0001309E+02;  4.5017898E-04;  0.0000000E+00; -1.3004636E-05;  0.0000000E+00;
  5.9962553E-01;  9.9999998E-03; -9.9926376E-01;198;  5.7532641E-05;  0.0000000E+00;  2.0678718E-04;  9.9943409E+00;  4.0259036E-01; -6.0885972E-01;3;  7.3891126E-02;  0.0000000E+00; -2.2190028E-01;  0.0000000E+00;  0.0000000E+00;  0.0000000E+00;0;  1.0872129E-03;  9.8579659E+01;  0.0000000E+00;  1.4682921E-02;  1.0000000E+02;  0.0000000E+00;  1.0002388E+02;  1.1175589E-03;  0.0000000E+00; -3.0345924E-05;  0.0000000E+00;
  5.9901619E-01;  9.9999998E-03; -7.9942417E-01;199; -1.0865298E-04;  0.0000000E+00;  1.5900283E-04;  9.9939861E+00;  4.0284473E-01; -6.4708185E-01;3;  4.1082423E-02;  0.0000000E+00; -1.6441235E-01;  0.0000000E+00;  0.0000000E+00;  0.0000000E+00;0;  1.1404468E-03;  9.8456787E+01;  0.0000000E+00;  4.6754307E-03;  1.0000000E+02;  0.0000000E+00;  1.0001389E+02;  1.1600616E-03;  0.0000000E+00; -1.9614767E-05;  0.0000000E+00;
  5.9902906E-01;  9.9999998E-03; -5.9967613E-01;200; -7.5234297E-05;  0.0000000E+00;  8.2846404E-05;  9.9938135E+00;  4.0294984E-01; -6.6561568E-01;3;  1.9766564E-02;  0.0000000E+00; -1.0141904E-01;  0.0000000E+00;  0.0000000E+00;  0.0000000E+00;0;  1.1593477E-03;  9.8405319E+01;  0.0000000E+00; -3.4218404E-04;  1.0000000E+02;  0.0000000E+00;  1.0001109E+02;  1.1728773E-03;  0.0000000E+00; -1.3529600E-05;  0.0000000E+00;
  5.9919965E-01;  9.9999998E-03; -3.9983812E-01;201;  4.6446830E-06;  0.0000000E+00;  3.6317670E-05;  9.9938288E+00;  4.0295488E-01; -6.6401243E-01;3;  1.0228802E-02;  0.0000000E+00; -5.3908851E-02;  0.0000000E+00;  0.0000000E+00;  0.0000000E+00;0;  1.1426926E-03;  9.8406990E+01;  0.0000000E+00; -8.7373046E-04;  1.0000000E+02;  0.0000000E+00;  1.0000890E+02;  1.1546200E-03;  0.0000000E+00; -1.1927294E-05;  0.0000000E+00;
  5.9937096E-01;  9.9999998E-03; -1.9992059E-01;202;  7.8613062E-05;  0.0000000E+00;  1.7885875E-05;  9.9939337E+00;  4.0292507E-01; -6.5272534E-01;3;  3.4967158E-03;  0.0000000E+00; -2.2382269E-02;  0.0000000E+00;  0.0000000E+00;  0.0000000E+00;0;  1.1220323E-03;  9.8424355E+01;  0.0000000E+00; -2.5823896E-04;  1.0000000E+02;  0.0000000E+00;  1.0000645E+02;  1.1334581E-03;  0.0000000E+00; -1.1425842E-05;  0.0000000E+00;
  8.0264723E-01;  9.9999998E-03; -1.0000778E+00;209;  9.0709672E-04;  0.0000000E+00; -5.7266421E-05;  9.9908113E+00;  4.0499020E-01; -9.8863256E-01;3;  2.5309655E-01;  0.0000000E+00; -1.1318658E-01;  0.0000000E+00;  0.0000000E+00;  0.0000000E+00;0;  2.3549451E-03;  9.7371681E+01;  0.0000000E+00;  3.9339874E-02;  1.0000000E+02;  0.0000000E+00;  9.9997284E+01;  2.3363109E-03;  0.0000000E+00;  1.8634106E-05;  0.0000000E+00;
  7.9894871E-01;  9.9999998E-03; -7.9969335E-01;210; -2.2230438E-04;  0.0000000E+00;  9.2807823E-05;  9.9916792E+00;  4.0492621E-01; -8.9525914E-01;3;  1.4221041E-01;  0.0000000E+00; -1.4444745E-01;  0.0000000E+00;  0.0000000E+00;  0.0000000E+00;0;  2.0924569E-03;  9.7402237E+01;  0.0000000E+00;  2.2797054E-02;  1.0000000E+02;  0.0000000E+00;  1.0001120E+02;  2.1120547E-03;  0.0000000E+00; -1.9597814E-05;  0.0000000E+00;
  7.9884440E-01;  9.9999998E-03; -5.9976906E-01;211; -1.9454544E-04;  0.0000000E+00;  7.4507436E-05;  9.9912910E+00;  4.0509656E-01; -9.3700796E-01;3;  4.9450811E-02;  0.0000000E+00; -9.6714653E-02;  0.0000000E+00;  0.0000000E+00;  0.0000000E+00;0;  2.1858655E-03;  9.7326340E+01;  0.0000000E+00;  4.0480774E-03;  1.0000000E+02;  0.0000000E+00;  1.0000020E+02;  2.1967464E-03;  0.0000000E+00; -1.0880816E-05;  0.0000000E+00;
  7.9907823E-01;  9.9999998E-03; -3.9991316E-01;212; -5.3807831E-05;  0.0000000E+00;  2.3447221E-05;  9.9911060E+00;  4.0512210E-01; -9.5695251E-01;3;  1.7672433E-02;  0.0000000E+00; -4.7473229E-02;  0.0000000E+00;  0.0000000E+00;  0.0000000E+00;0;  2.2307101E-03;  9.7319710E+01;  0.0000000E+00; -7.2226359E-04;  1.0000000E+02;  0.0000000E+00;  9.9994041E+01;  2.2326550E-03;  0.0000000E+00; -1.9447189E-06;  0.0000000E+00;
  7.9930663E-01;  9.9999998E-03; -1.9995983E-01;213;  4.9977363E-05;  0.0000000E+00;  1.0024446E-05;  9.9910440E+00;  4.0508997E-01; -9.6362197E-01;3;  5.0618355E-03;  0.0000000E+00; -1.8772596E-02;  0.0000000E+00;  0.0000000E+00;  0.0000000E+00;0;  2.2469088E-03;  9.7335556E+01;  0.0000000E+00; -4.0523146E-04;  1.0000000E+02;  0.0000000E+00;  9.9989700E+01;  2.2457766E-03;  0.0000000E+00;  1.1323036E-06;  0.0000000E+00;
  1.0138739E+00;  9.9999998E-03; -1.0007516E+00;220;  2.3826142E-03;  0.0000000E+00; -7.5087650E-05;  9.9871531E+00;  4.0961996E-01; -1.3822275E+00;3;  4.9310692E-02;  0.0000000E+00;  4.7246985E-02;  0.0000000E+00;  0.0000000E+00;  0.0000000E+00;0;  4.3026307E-03;  9.5176285E+01;  0.0000000E+00;  6.5972866E-03;  1.0000000E+02;  0.0000000E+00;  9.9935074E+01;  4.2758551E-03;  0.0000000E+00;  2.6775666E-05;  0.0000000E+00;
  1.0036157E+00;  9.9999998E-03; -8.0084395E-01;221;  7.1740331E-04;  0.0000000E+00; -1.2292241E-04;  9.9888964E+00;  4.0808776E-01; -1.1946536E+00;3;  1.7595159E-01;  0.0000000E+00;  8.9013889E-02;  0.0000000E+00;  0.0000000E+00;  0.0000000E+00;0;  3.6806124E-03;  9.5928726E+01;  0.0000000E+00;  3.8813740E-02;  1.0000000E+02;  0.0000000E+00;  9.9926064E+01;  3.6320693E-03;  0.0000000E+00;  4.8543159E-05;  0.0000000E+00;
  1.0007085E+00;  9.9999998E-03; -6.0012221E-01;222; -2.6944972E-04;  0.0000000E+00; -5.0084213E-06;  9.9892635E+00;  4.0786514E-01; -1.1551510E+00;3;  7.1495436E-02;  0.0000000E+00; -5.1996611E-02;  0.0000000E+00;  0.0000000E+00;  0.0000000E+00;0;  3.5563505E-03;  9.5996582E+01;  0.0000000E+00;  1.3090551E-02;  1.0000000E+02;  0.0000000E+00;  9.9973274E+01;  3.5436593E-03;  0.0000000E+00;  1.2691127E-05;  0.0000000E+00;
  1.0010488E+00;  9.9999998E-03; -4.0020633E-01;223; -1.1081395E-04;  0.0000000E+00; -2.3611725E-05;  9.9889545E+00;  4.0785101E-01; -1.1883698E+00;3;  2.0233471E-02;  0.0000000E+00; -3.0621039E-02;  0.0000000E+00;  0.0000000E+00;  0.0000000E+00;0;  3.6719798E-03;  9.6003273E+01;  0.0000000E+00;  3.1938887E-04;  1.0000000E+02;  0.0000000E+00;  9.9969894E+01;  3.6508641E-03;  0.0000000E+00;  2.1115757E-05;  0.0000000E+00;
  1.0007232E+00;  9.9999998E-03; -2.0014013E-01;224;  2.0085454E-05;  0.0000000E+00; -2.4341454E-05;  9.9887953E+00;  4.0776783E-01; -1.2054920E+00;3;  4.5030825E-03;  0.0000000E+00; -1.3065196E-02;  0.0000000E+00;  0.0000000E+00;  0.0000000E+00;0;  3.7286058E-03;  9.6036972E+01;  0.0000000E+00; -3.7782372E-04;  1.0000000E+02;  0.0000000E+00;  9.9969872E+01;  3.7041525E-03;  0.0000000E+00;  2.4453338E-05;  0.0000000E+00;
  1.2189517E+00;  9.9999998E-03; -1.0006565E+00;231;  3.2927743E-03;  0.0000000E+00; -1.2339346E-04;  9.9863186E+00;  4.1305181E-01; -1.4719206E+00;3;  9.1790045E-03;  0.0000000E+00;  1.0122870E-01;  0.0000000E+00;  0.0000000E+00;  0.0000000E+00;0;  5.9599178E-03;  9.3603683E+01;  0.0000000E+00; -1.3697299E-03;  1.0000000E+02;  0.0000000E+00;  9.9915115E+01;  5.8884248E-03;  0.0000000E+00;  7.1493203E-05;  0.0000000E+00;
  1.2127576E+00;  9.9999998E-03; -8.0068308E-01;232;  2.2385116E-03;  0.0000000E+00; -1.4432053E-04;  9.9872313E+00;  4.1189802E-01; -1.3736850E+00;3;  1.0217189E-01;  0.0000000E+00;  1.1764904E-01;  0.0000000E+00;  0.0000000E+00;  0.0000000E+00;0;  5.5282214E-03;  9.4162231E+01;  0.0000000E+00;  2.0281680E-02;  1.0000000E+02;  0.0000000E+00;  9.9899506E+01;  5.4402701E-03;  0.0000000E+00;  8.7951470E-05;  0.0000000E+00;
  1.2033910E+00;  9.9999998E-03; -6.0007286E-01;233; -9.7915217E-05;  0.0000000E+00; -7.0256501E-05;  9.9881048E+00;  4.1100267E-01; -1.2797469E+00;3;  8.3757773E-02;  0.0000000E+00; -1.2804774E-02;  0.0000000E+00;  0.0000000E+00;  0.0000000E+00;0;  5.1105083E-03;  9.4530861E+01;  0.0000000E+00;  2.4532162E-02;  1.0000000E+02;  0.0000000E+00;  9.9954025E+01;  5.0600478E-03;  0.0000000E+00;  5.0460647E-05;  0.0000000E+00;
  1.2050364E+00;  9.9999998E-03; -4.0024292E-01;234; -1.0785711E-04;  0.0000000E+00; -2.1464961E-05;  9.9878244E+00;  4.1103548E-01; -1.3098847E+00;3;  1.9904327E-02;  0.0000000E+00; -1.5536421E-02;  0.0000000E+00;  0.0000000E+00;  0.0000000E+00;0;  5.2572843E-03;  9.4519699E+01;  0.0000000E+00;  6.5542263E-04;  1.0000000E+02;  0.0000000E+00;  9.9943520E+01;  5.2150129E-03;  0.0000000E+00;  4.2271109E-05;  0.0000000E+00;
  1.2090051E+00;  9.9999998E-03; -2.0030949E-01;235;  2.0445455E-05;  0.0000000E+00; -4.6095192E-05;  9.9876165E+00;  4.1095838E-01; -1.3322624E+00;3;  4.0663723E-03;  0.0000000E+00; -8.1881294E-03;  0.0000000E+00;  0.0000000E+00;  0.0000000E+00;0;  5.3796424E-03;  9.4549911E+01;  0.0000000E+00; -1.1637355E-03;  1.0000000E+02;  0.0000000E+00;  9.9948822E+01;  5.3280327E-03;  0.0000000E+00;  5.1609768E-05;  0.0000000E+00;
  1.4240977E+00;  9.9999998E-03; -1.0005327E+00;242;  4.3473779E-03;  0.0000000E+00; -1.1130669E-04;  9.9868164E+00;  4.1601944E-01; -1.4181221E+00;3;  1.1788044E-02;  0.0000000E+00;  9.0119474E-02;  0.0000000E+00;  0.0000000E+00;  0.0000000E+00;0;  7.3351613E-03;  9.2292351E+01;  0.0000000E+00; -2.2524097E-03;  1.0000000E+02;  0.0000000E+00;  9.9907372E+01;  7.2520850E-03;  0.0000000E+00;  8.3076440E-05;  0.0000000E+00;
  1.4192272E+00;  9.9999998E-03; -8.0036300E-01;243;  3.3344536E-03;  0.0000000E+00; -1.0650259E-04;  9.9872847E+00;  4.1537127E-01; -1.3677971E+00;3;  6.1214056E-02;  0.0000000E+00;  6.4924404E-02;  0.0000000E+00;  0.0000000E+00;  0.0000000E+00;0;  7.0370543E-03;  9.2588982E+01;  0.0000000E+00;  9.7094616E-03;  1.0000000E+02;  0.0000000E+00;  9.9904228E+01;  6.9466922E-03;  0.0000000E+00;  9.0361915E-05;  0.0000000E+00;
  1.4123814E+00;  9.9999998E-03; -6.0006917E-01;244;  1.3223768E-03;  0.0000000E+00; -8.0072306E-05;  9.9877548E+00;  4.1485682E-01; -1.3172176E+00;3;  4.6470352E-02;  0.0000000E+00;  2.4935203E-03;  0.0000000E+00;  0.0000000E+00;  0.0000000E+00;0;  6.7577572E-03;  9.2803963E+01;  0.0000000E+00;  1.0474907E-02;  1.0000000E+02;  0.0000000E+00;  9.9927422E+01;  6.6818777E-03;  0.0000000E+00;  7.5879361E-05;  0.0000000E+00;
  1.4136062E+00;  9.9999998E-03; -4.0015820E-01;245;  2.0110401E-04;  0.0000000E+00;  1.6185301E-04;  9.9878101E+00;  4.1481775E-01; -1.3112533E+00;3;  1.3191486E-02;  0.0000000E+00; -8.4289201E-03;  0.0000000E+00;  0.0000000E+00;  0.0000000E+00;0;  6.7172535E-03;  9.2830696E+01;  0.0000000E+00; -4.0457319E-03;  1.0000000E+02;  0.0000000E+00;  9.9925728E+01;  6.7072394E-03;  0.0000000E+00;  1.0013906E-05;  0.0000000E+00;
  1.4206777E+00;  9.9999998E-03; -2.0051849E-01;246;  2.9913031E-03;  0.0000000E+00; -1.3548591E-04;  9.9876528E+00;  4.1465712E-01; -1.3281713E+00;3; -5.5184658E-04;  0.0000000E+00; -4.9867132E-03;  0.0000000E+00;  0.0000000E+00;  0.0000000E+00;0;  6.8912441E-03;  9.2887932E+01;  0.0000000E+00; -2.5543647E-03;  1.0000000E+02;  0.0000000E+00;  9.9926689E+01;  6.8093911E-03;  0.0000000E+00;  8.1853097E-05;  0.0000000E+00;
  1.6307019E+00;  9.9999998E-03; -1.0005039E+00;253;  5.5720932E-03;  0.0000000E+00; -8.4897423E-05;  9.9878464E+00;  4.1925761E-01; -1.3069277E+00;3;  1.8672118E-02;  0.0000000E+00;  4.3249048E-02;  0.0000000E+00;  0.0000000E+00;  0.0000000E+00;0;  8.5584586E-03;  9.0902710E+01;  0.0000000E+00; -2.1443462E-03;  1.0000000E+02;  0.0000000E+00;  9.9893738E+01;  8.4854830E-03;  0.0000000E+00;  7.2975228E-05;  0.0000000E+00;
  1.6262326E+00;  9.9999998E-03; -8.0019760E-01;254;  4.6590571E-03;  0.0000000E+00; -5.5817105E-05;  9.9880381E+00;  4.1925329E-01; -1.2863650E+00;3;  3.1809911E-02;  0.0000000E+00;  2.0587260E-02;  0.0000000E+00;  0.0000000E+00;  0.0000000E+00;0;  8.3847549E-03;  9.0905075E+01;  0.0000000E+00;  3.2461965E-03;  1.0000000E+02;  0.0000000E+00;  9.9891701E+01;  8.3191097E-03;  0.0000000E+00;  6.5645043E-05;  0.0000000E+00;
  1.6226299E+00;  9.9999998E-03; -6.0002714E-01;255;  3.0349246E-03;  0.0000000E+00;  6.3235391E-05;  9.9882994E+00;  4.1933385E-01; -1.2582362E+00;3;  1.3479676E-02;  0.0000000E+00; -1.2852957E-04;  0.0000000E+00;  0.0000000E+00;  0.0000000E+00;0;  8.1308298E-03;  9.0880577E+01;  0.0000000E+00; -4.4604912E-03;  1.0000000E+02;  0.0000000E+00;  9.9884338E+01;  8.1284642E-03;  0.0000000E+00;  2.3655782E-06;  0.0000000E+00;
  1.6254874E+00;  9.9999998E-03; -4.0029266E-01;256;  6.8615773E-03;  0.0000000E+00; -3.2046650E-05;  9.9882145E+00;  4.1941008E-01; -1.2673943E+00;3;  3.4982769E-03;  0.0000000E+00; -3.0351544E-03;  0.0000000E+00;  0.0000000E+00;  0.0000000E+00;0;  8.2503241E-03;  9.0847984E+01;  0.0000000E+00; -7.7241668E-03;  1.0000000E+02;  0.0000000E+00;  9.9876137E+01;  8.1783496E-03;  0.0000000E+00;  7.1974013E-05;  0.0000000E+00;
  1.6240886E+00;  9.9999998E-03; -2.0062234E-01;257;  7.0727058E-03;  0.0000000E+00; -1.6305505E-04;  9.9884577E+00;  4.1926795E-01; -1.2412463E+00;3;  1.5095009E-03;  0.0000000E+00; -2.9597266E-03;  0.0000000E+00;  0.0000000E+00;  0.0000000E+00;0;  8.0726789E-03;  9.0898827E+01;  0.0000000E+00; -1.6024242E-03;  1.0000000E+02;  0.0000000E+00;  9.9898857E+01;  7.9757646E-03;  0.0000000E+00;  9.6914140E-05;  0.0000000E+00;
  1.8397847E+00;  9.9999998E-03; -1.0006963E+00;264;  7.0491480E-03;  0.0000000E+00; -7.3254763E-05;  9.9887247E+00;  4.2333198E-01; -1.2116522E+00;3;  1.3976830E-02;  0.0000000E+00;  8.3944909E-03;  0.0000000E+00;  0.0000000E+00;  0.0000000E+00;0;  9.9229226E-03;  8.9214157E+01;  0.0000000E+00; -3.9550657E-03;  1.0000000E+02;  0.0000000E+00;  9.9848557E+01;  9.8436112E-03;  0.0000000E+00;  7.9311547E-05;  0.0000000E+00;
  1.8368794E+00;  9.9999998E-03; -8.0017841E-01;265;  6.8191811E-03;  0.0000000E+00; -4.9470251E-05;  9.9886818E+00;  4.2409647E-01; -1.2162814E+00;3;  1.0838157E-02;  0.0000000E+00; -2.5539324E-03;  0.0000000E+00;  0.0000000E+00;  0.0000000E+00;0;  9.9236555E-03;  8.8897392E+01;  0.0000000E+00; -6.1558248E-03;  1.0000000E+02;  0.0000000E+00;  9.9841629E+01;  9.8345177E-03;  0.0000000E+00;  8.9137713E-05;  0.0000000E+00;
  1.8329479E+00;  9.9999998E-03; -5.9981221E-01;266;  7.3759435E-03;  0.0000000E+00; -3.7387177E-05;  9.9887543E+00;  4.2470017E-01; -1.2084903E+00;3;  4.4963062E-03;  0.0000000E+00; -4.5109275E-03;  0.0000000E+00;  0.0000000E+00;  0.0000000E+00;0;  9.8181311E-03;  8.8655731E+01;  0.0000000E+00; -4.3092738E-03;  1.0000000E+02;  0.0000000E+00;  9.9826187E+01;  9.7281458E-03;  0.0000000E+00;  8.9985086E-05;  0.0000000E+00;
  1.8280983E+00;  9.9999998E-03; -3.9987686E-01;267;  7.2765443E-03;  0.0000000E+00; -1.6094866E-04;  9.9888735E+00;  4.2510033E-01; -1.1957076E+00;3;  1.1782611E-03;  0.0000000E+00; -3.1249649E-03;  0.0000000E+00;  0.0000000E+00;  0.0000000E+00;0;  9.6259844E-03;  8.8499756E+01;  0.0000000E+00; -1.3981042E-03;  1.0000000E+02;  0.0000000E+00;  9.9820702E+01;  9.4989706E-03;  0.0000000E+00;  1.2701358E-04;  0.0000000E+00;
  1.8251276E+00;  9.9999998E-03; -2.0016767E-01;268;  7.1011838E-03;  0.0000000E+00; -2.9360750E-04;  9.9890795E+00;  4.2529038E-01; -1.1736252E+00;3;  7.4116228E-04;  0.0000000E+00; -1.7350863E-03;  0.0000000E+00;  0.0000000E+00;  0.0000000E+00;0;  9.4188023E-03;  8.8403351E+01;  0.0000000E+00; -2.0527681E-04;  1.0000000E+02;  0.0000000E+00;  9.9844826E+01;  9.3038566E-03;  0.0000000E+00;  1.1494535E-04;  0.0000000E+00;
  2.0539069E+00;  9.9999998E-03; -1.0013052E+00;275;  9.3856612E-03;  0.0000000E+00; -8.0871112E-05;  9.9893618E+00;  4.2834482E-01; -1.1412653E+00;3;  5.0122594E-03;  0.0000000E+00; -2.4597950E-03;  0.0000000E+00;  0.0000000E+00;  0.0000000E+00;0;  1.1653018E-02;  8.7250191E+01;  0.0000000E+00; -1.1423003E-02;  1.0000000E+02;  0.0000000E+00;  9.9735115E+01;  1.1541711E-02;  0.0000000E+00;  1.1130675E-04;  0.0000000E+00;
  2.0544372E+00;  9.9999998E-03; -8.0044222E-01;276;  9.4377734E-03;  0.0000000E+00; -3.7445421E-05;  9.9891510E+00;  4.2986268E-01; -1.1638942E+00;3;  2.2085756E-03;  0.0000000E+00; -4.4368058E-03;  0.0000000E+00;  0.0000000E+00;  0.0000000E+00;0;  1.1847867E-02;  8.6645599E+01;  0.0000000E+00; -1.1637674E-02;  1.0000000E+02;  0.0000000E+00;  9.9715881E+01;  1.1717152E-02;  0.0000000E+00;  1.3071518E-04;  0.0000000E+00;
  2.0478699E+00;  9.9999998E-03; -5.9962130E-01;277;  8.4094591E-03;  0.0000000E+00; -4.1291703E-05;  9.9890566E+00;  4.3113893E-01; -1.1740854E+00;3;  9.7503007E-04;  0.0000000E+00; -3.2055434E-03;  0.0000000E+00;  0.0000000E+00;  0.0000000E+00;0;  1.1869403E-02;  8.6143646E+01;  0.0000000E+00; -2.4922872E-03;  1.0000000E+02;  0.0000000E+00;  9.9700233E+01;  1.1719034E-02;  0.0000000E+00;  1.5036845E-04;  0.0000000E+00;
  2.0346050E+00;  9.9999998E-03; -3.9917517E-01;278;  7.4557886E-03;  0.0000000E+00; -2.0132384E-04;  9.9889927E+00;  4.3203169E-01; -1.1811002E+00;3;  5.7012623E-04;  0.0000000E+00; -1.5742454E-03;  0.0000000E+00;  0.0000000E+00;  0.0000000E+00;0;  1.1745050E-02;  8.5786674E+01;  0.0000000E+00;  7.5601536E-05;  1.0000000E+02;  0.0000000E+00;  9.9699699E+01;  1.1573161E-02;  0.0000000E+00;  1.7188872E-04;  0.0000000E+00;
  2.0296803E+00;  9.9999998E-03; -1.9938931E-01;279;  7.0689162E-03;  0.0000000E+00; -1.6810853E-04;  9.9890738E+00;  4.3272081E-01; -1.1724635E+00;3;  3.6522109E-04;  0.0000000E+00; -6.2368007E-04;  0.0000000E+00;  0.0000000E+00;  0.0000000E+00;0;  1.1594130E-02;  8.5509140E+01;  0.0000000E+00;  3.2592452E-05;  1.0000000E+02;  0.0000000E+00;  9.9706490E+01;  1.1492845E-02;  0.0000000E+00;  1.0128514E-04;  0.0000000E+00;
  2.2803605E+00;  9.9999998E-03; -1.0026913E+00;286;  1.6204413E-02;  0.0000000E+00; -1.3549045E-04;  9.9900026E+00;  4.3385574E-01; -1.0680679E+00;3; -6.4705155E-04;  0.0000000E+00; -1.0010892E-03;  0.0000000E+00;  0.0000000E+00;  0.0000000E+00;0;  1.3612418E-02;  8.5269737E+01;  0.0000000E+00; -1.3561141E-02;  1.0000000E+02;  0.0000000E+00;  9.9484070E+01;  1.3429233E-02;  0.0000000E+00;  1.8318428E-04;  0.0000000E+00;
  2.2785828E+00;  9.9999998E-03; -8.0124754E-01;287;  1.3116483E-02;  0.0000000E+00; -1.9326773E-05;  9.9894819E+00;  4.3583000E-01; -1.1237131E+00;3; -3.1574708E-03;  0.0000000E+00; -1.2013585E-03;  0.0000000E+00;  0.0000000E+00;  0.0000000E+00;0;  1.4255363E-02;  8.4511627E+01;  0.0000000E+00; -1.8531949E-03;  1.0000000E+02;  0.0000000E+00;  9.9460892E+01;  1.4063796E-02;  0.0000000E+00;  1.9156668E-04;  0.0000000E+00;
  2.2712197E+00;  9.9999998E-03; -5.9969366E-01;288;  9.6755084E-03;  0.0000000E+00;  6.1225088E-05;  9.9890118E+00;  4.3790871E-01; -1.1741890E+00;3; -4.1447538E-03;  0.0000000E+00; -6.6608621E-04;  0.0000000E+00;  0.0000000E+00;  0.0000000E+00;0;  1.4788064E-02;  8.3714783E+01;  0.0000000E+00;  6.3614512E-04;  1.0000000E+02;  0.0000000E+00;  9.9442604E+01;  1.4589937E-02;  0.0000000E+00;  1.9812686E-04;  0.0000000E+00;
  2.2550433E+00;  9.9999998E-03; -3.9839101E-01;289;  8.2073314E-03;  0.0000000E+00;  5.9534639E-05;  9.9886675E+00;  4.3974379E-01; -1.2115066E+00;3;  3.0422126E-04;  0.0000000E+00; -6.4939389E-04;  0.0000000E+00;  0.0000000E+00;  0.0000000E+00;0;  1.4985601E-02;  8.3026642E+01;  0.0000000E+00; -8.8049710E-04;  1.0000000E+02;  0.0000000E+00;  9.9431068E+01;  1.4811152E-02;  0.0000000E+00;  1.7444986E-04;  0.0000000E+00;
  2.2502406E+00;  9.9999998E-03; -1.9896106E-01;290;  7.0586689E-03;  0.0000000E+00;  1.5514097E-04;  9.9884710E+00;  4.4113296E-01; -1.2326163E+00;3;  1.8210165E-04;  0.0000000E+00; -7.9582591E-05;  0.0000000E+00;  0.0000000E+00;  0.0000000E+00;0;  1.5138187E-02;  8.2536049E+01;  0.0000000E+00; -2.3926134E-04;  1.0000000E+02;  0.0000000E+00;  9.9385521E+01;  1.5023099E-02;  0.0000000E+00;  1.1508824E-04;  0.0000000E+00;
  2.4811037E+00;  9.9999998E-03; -1.0051868E+00;297;  1.7436694E-02;  0.0000000E+00; -2.5412560E-04;  9.9903584E+00;  4.4021481E-01; -1.0217913E+00;3;  5.8903381E-05;  0.0000000E+00; -1.7763545E-04;  0.0000000E+00;  0.0000000E+00;  0.0000000E+00;0;  1.5683059E-02;  8.3216965E+01;  0.0000000E+00;  4.8736820E-04;  1.0000000E+02;  0.0000000E+00;  9.9024338E+01;  1.5412248E-02;  0.0000000E+00;  2.7081007E-04;  0.0000000E+00;
  2.4837506E+00;  9.9999998E-03; -8.0303770E-01;298;  1.7476868E-02;  0.0000000E+00; -5.4788157E-05;  9.9897032E+00;  4.4231310E-01; -1.0910501E+00;3; -3.8645390E-05;  0.0000000E+00; -3.2012256E-05;  0.0000000E+00;  0.0000000E+00;  0.0000000E+00;0;  1.6786078E-02;  8.2444557E+01;  0.0000000E+00;  2.7090136E-04;  1.0000000E+02;  0.0000000E+00;  9.8989243E+01;  1.6468571E-02;  0.0000000E+00;  3.1750632E-04;  0.0000000E+00;
  2.4874201E+00;  9.9999998E-03; -6.0063064E-01;299;  1.5535022E-02;  0.0000000E+00;  1.3029201E-04;  9.9889498E+00;  4.4480202E-01; -1.1706382E+00;3; -1.6832151E-03;  0.0000000E+00;  3.2240525E-05;  0.0000000E+00;  0.0000000E+00;  0.0000000E+00;0;  1.8070020E-02;  8.1548309E+01;  0.0000000E+00;  1.4113857E-04;  1.0000000E+02;  0.0000000E+00;  9.8946548E+01;  1.7709812E-02;  0.0000000E+00;  3.6020670E-04;  0.0000000E+00;
  2.4927301E+00;  9.9999998E-03; -3.9854857E-01;300;  1.1932005E-02;  0.0000000E+00;  4.0242626E-04;  9.9882822E+00;  4.4730252E-01; -1.2409812E+00;3; -3.3686182E-03;  0.0000000E+00; -1.2549640E-04;  0.0000000E+00;  0.0000000E+00;  0.0000000E+00;0;  1.9249395E-02;  8.0683998E+01;  0.0000000E+00;  8.4108658E-05;  1.0000000E+02;  0.0000000E+00;  9.8880341E+01;  1.8938396E-02;  0.0000000E+00;  3.1099914E-04;  0.0000000E+00;
  2.4951880E+00;  9.9999998E-03; -1.9894582E-01;301;  8.9150257E-03;  0.0000000E+00;  3.1941949E-04;  9.9877644E+00;  4.4919369E-01; -1.2956517E+00;3; -3.9642951E-03;  0.0000000E+00; -7.8414683E-05;  0.0000000E+00;  0.0000000E+00;  0.0000000E+00;0;  2.0126719E-02;  8.0069038E+01;  0.0000000E+00;  5.4708336E-05;  1.0000000E+02;  0.0000000E+00;  9.8786346E+01;  1.9798206E-02;  0.0000000E+00;  3.2851205E-04;  0.0000000E+00;
  2.6848927E+00;  9.9999998E-03; -1.0094030E+00;308;  1.7404743E-02;  0.0000000E+00; -5.9042248E-04;  9.9902897E+00;  4.4915876E-01; -1.0127563E+00;3; -1.9297024E-04;  0.0000000E+00;  3.8114854E-04;  0.0000000E+00;  0.0000000E+00;  0.0000000E+00;0;  1.8737657E-02;  8.0601120E+01;  0.0000000E+00;  3.7372625E-03;  1.0000000E+02;  0.0000000E+00;  9.8201248E+01;  1.8174561E-02;  0.0000000E+00;  5.6309713E-04;  0.0000000E+00;
  2.6909444E+00;  9.9999998E-03; -8.0643731E-01;309;  1.7461529E-02;  0.0000000E+00; -2.3524737E-04;  9.9896727E+00;  4.5075628E-01; -1.0764147E+00;3; -8.9410780E-05;  0.0000000E+00;  1.8370734E-04;  0.0000000E+00;  0.0000000E+00;  0.0000000E+00;0;  2.0025723E-02;  8.0057655E+01;  0.0000000E+00;  3.2264625E-03;  1.0000000E+02;  0.0000000E+00;  9.8159012E+01;  1.9420916E-02;  0.0000000E+00;  6.0480635E-04;  0.0000000E+00;
  2.7029376E+00;  9.9999998E-03; -6.0313034E-01;310;  1.7157940E-02;  0.0000000E+00;  1.5336665E-04;  9.9889355E+00;  4.5266634E-01; -1.1517797E+00;3; -4.5641151E-05;  0.0000000E+00; -1.3515685E-04;  0.0000000E+00;  0.0000000E+00;  0.0000000E+00;0;  2.1664923E-02;  7.9413391E+01;  0.0000000E+00;  2.4719920E-03;  1.0000000E+02;  0.0000000E+00;  9.8108582E+01;  2.0990677E-02;  0.0000000E+00;  6.7424646E-04;  0.0000000E+00;
  2.7227445E+00;  9.9999998E-03; -4.0003273E-01;311;  1.9404637E-02;  0.0000000E+00;  3.6450024E-04;  9.9882679E+00;  4.5454001E-01; -1.2185643E+00;3; -6.2559531E-03;  0.0000000E+00; -6.1085666E-05;  0.0000000E+00;  0.0000000E+00;  0.0000000E+00;0;  2.3376629E-02;  7.8813133E+01;  0.0000000E+00;  4.9847877E-04;  1.0000000E+02;  0.0000000E+00;  9.8024017E+01;  2.2569656E-02;  0.0000000E+00;  8.0697273E-04;  0.0000000E+00;
  2.7355161E+00;  9.9999998E-03; -1.9931737E-01;312;  1.9525975E-02;  0.0000000E+00;  2.5702608E-04;  9.9877834E+00;  4.5601302E-01; -1.2670054E+00;3; -9.6427025E-03;  0.0000000E+00;  3.0757867E-05;  0.0000000E+00;  0.0000000E+00;  0.0000000E+00;0;  2.4589792E-02;  7.8392632E+01;  0.0000000E+00;  1.5064511E-04;  1.0000000E+02;  0.0000000E+00;  9.7907318E+01;  2.3714626E-02;  0.0000000E+00;  8.7516516E-04;  0.0000000E+00;
  2.8996189E+00;  9.9999998E-03; -1.0157225E+00;319;  1.7350789E-02;  0.0000000E+00; -1.2926183E-03;  9.9897842E+00;  4.6157607E-01; -1.0350389E+00;3; -1.4464174E-04;  0.0000000E+00;  6.1540562E-04;  0.0000000E+00;  0.0000000E+00;  0.0000000E+00;0;  2.3262460E-02;  7.7326294E+01;  0.0000000E+00; -2.5906302E-03;  1.0000000E+02;  0.0000000E+00;  9.6918915E+01;  2.2059988E-02;  0.0000000E+00;  1.2024719E-03;  0.0000000E+00;
  2.9091659E+00;  9.9999998E-03; -8.1178147E-01;320;  1.7506624E-02;  0.0000000E+00; -7.4710062E-04;  9.9894171E+00;  4.6193206E-01; -1.0705447E+00;3;  2.5112082E-05;  0.0000000E+00; -2.5899633E-04;  0.0000000E+00;  0.0000000E+00;  0.0000000E+00;0;  2.4301600E-02;  7.7211891E+01;  0.0000000E+00;  1.5911850E-04;  1.0000000E+02;  0.0000000E+00;  9.6905594E+01;  2.3042792E-02;  0.0000000E+00;  1.2588068E-03;  0.0000000E+00;
  2.9264317E+00;  9.9999998E-03; -6.0761249E-01;321;  2.2203596E-02;  0.0000000E+00; -1.4683492E-04;  9.9889736E+00;  4.6242252E-01; -1.1121575E+00;3; -3.0694695E-03;  0.0000000E+00;  1.2680964E-04;  0.0000000E+00;  0.0000000E+00;  0.0000000E+00;0;  2.5634261E-02;  7.7055511E+01;  0.0000000E+00;  1.0491920E-03;  1.0000000E+02;  0.0000000E+00;  9.6885597E+01;  2.4244586E-02;  0.0000000E+00;  1.3896750E-03;  0.0000000E+00;
  2.9453518E+00;  9.9999998E-03; -4.0328237E-01;322;  2.8609915E-02;  0.0000000E+00;  2.8460583E-04;  9.9885931E+00;  4.6289036E-01; -1.1468180E+00;3; -2.4959713E-03;  0.0000000E+00;  1.1589652E-04;  0.0000000E+00;  0.0000000E+00;  0.0000000E+00;0;  2.6925663E-02;  7.6914742E+01;  0.0000000E+00;  1.8489809E-04;  1.0000000E+02;  0.0000000E+00;  9.6858917E+01;  2.5327714E-02;  0.0000000E+00;  1.5979478E-03;  0.0000000E+00;
  2.9599907E+00;  9.9999998E-03; -2.0037563E-01;323;  3.2244105E-02;  0.0000000E+00;  2.4478737E-04;  9.9883356E+00;  4.6334299E-01; -1.1696836E+00;3; -3.2764792E-03;  0.0000000E+00;  3.7788235E-05;  0.0000000E+00;  0.0000000E+00;  0.0000000E+00;0;  2.7825490E-02;  7.6822929E+01;  0.0000000E+00;  3.3105480E-05;  1.0000000E+02;  0.0000000E+00;  9.6783546E+01;  2.6069799E-02;  0.0000000E+00;  1.7556901E-03;  0.0000000E+00;
  3.1386929E+00;  9.9999998E-03; -1.0239455E+00;330;  2.2177946E-02;  0.0000000E+00; -2.7306916E-03;  9.9888706E+00;  4.7703907E-01; -1.0792913E+00;3; -1.2245547E-03;  0.0000000E+00;  1.0695437E-03;  0.0000000E+00;  0.0000000E+00;  0.0000000E+00;0;  2.9977961E-02;  7.3656090E+01;  0.0000000E+00; -1.0250605E-02;  1.0000000E+02;  0.0000000E+00;  9.5243408E+01;  2.7316809E-02;  0.0000000E+00;  2.6611518E-03;  0.0000000E+00;
  3.1403892E+00;  9.9999998E-03; -8.1880581E-01;331;  2.3662366E-02;  0.0000000E+00; -1.9145166E-03;  9.9888792E+00;  4.7582370E-01; -1.0781362E+00;3; -8.4371743E-04;  0.0000000E+00;  8.4957154E-04;  0.0000000E+00;  0.0000000E+00;  0.0000000E+00;0;  2.9993257E-02;  7.3980934E+01;  0.0000000E+00; -8.2140900E-03;  1.0000000E+02;  0.0000000E+00;  9.5309044E+01;  2.7331846E-02;  0.0000000E+00;  2.6614112E-03;  0.0000000E+00;
  3.1501570E+00;  9.9999998E-03; -6.1372191E-01;332;  2.8931523E-02;  0.0000000E+00; -1.0944183E-03;  9.9888449E+00;  4.7460130E-01; -1.0794388E+00;3; -1.5484015E-03;  0.0000000E+00;  8.2913350E-04;  0.0000000E+00;  0.0000000E+00;  0.0000000E+00;0;  3.0313853E-02;  7.4308624E+01;  0.0000000E+00; -2.2437887E-03;  1.0000000E+02;  0.0000000E+00;  9.5375076E+01;  2.7571119E-02;  0.0000000E+00;  2.7427331E-03;  0.0000000E+00;
  3.1628213E+00;  9.9999998E-03; -4.0839610E-01;333;  3.3262368E-02;  0.0000000E+00; -1.1506796E-04;  9.9888191E+00;  4.7356296E-01; -1.0793500E+00;3; -2.2245937E-03;  0.0000000E+00;  3.3023205E-04;  0.0000000E+00;  0.0000000E+00;  0.0000000E+00;0;  3.0641697E-02;  7.4584785E+01;  0.0000000E+00; -3.1874434E-04;  1.0000000E+02;  0.0000000E+00;  9.5441444E+01;  2.7861524E-02;  0.0000000E+00;  2.7801739E-03;  0.0000000E+00;
  3.1744912E+00;  9.9999998E-03; -2.0293628E-01;334;  3.7394695E-02;  0.0000000E+00;  1.2820351E-04;  9.9887638E+00;  4.7289544E-01; -1.0823433E+00;3; -2.4229730E-03;  0.0000000E+00;  4.7575963E-05;  0.0000000E+00;  0.0000000E+00;  0.0000000E+00;0;  3.1067079E-02;  7.4775078E+01;  0.0000000E+00; -2.3427132E-05;  1.0000000E+02;  0.0000000E+00;  9.5462669E+01;  2.8090544E-02;  0.0000000E+00;  2.9765351E-03;  0.0000000E+00;
  3.4468100E+00;  9.9999998E-03; -1.0330089E+00;341;  3.3188969E-02;  0.0000000E+00; -5.3564855E-03;  9.9877214E+00;  2.4682941E-01; -1.1332600E+00;3; -2.0844953E-03;  0.0000000E+00;  8.9800853E-04;  0.0000000E+00;  0.0000000E+00;  0.0000000E+00;1;  3.9963707E-02;  2.8026962E+02;  0.0000000E+00; -3.0432696E-02;  1.0000000E+02;  0.0000000E+00;  9.3473434E+01;  3.4591399E-02;  0.0000000E+00;  5.3723073E-03;  0.0000000E+00;
  3.4433756E+00;  9.9999998E-03; -8.2654983E-01;342;  3.2173254E-02;  0.0000000E+00; -4.1813646E-03;  9.9880142E+00;  2.4573568E-01; -1.1067078E+00;3; -2.4496880E-03;  0.0000000E+00;  7.0525194E-04;  0.0000000E+00;  0.0000000E+00;  0.0000000E+00;1;  3.8975768E-02;  2.8236197E+02;  0.0000000E+00; -1.3742153E-02;  1.0000000E+02;  0.0000000E+00;  9.3612396E+01;  3.3696227E-02;  0.0000000E+00;  5.2795424E-03;  0.0000000E+00;
  3.4424267E+00;  9.9999998E-03; -6.2044239E-01;343;  3.1769495E-02;  0.0000000E+00; -3.1249302E-03;  9.9883013E+00;  2.4454832E-01; -1.0803052E+00;3;  9.2004375E-05;  0.0000000E+00;  2.0596425E-03;  0.0000000E+00;  0.0000000E+00;  0.0000000E+00;1;  3.8012531E-02;  2.8468433E+02;  0.0000000E+00; -3.8667398E-03;  1.0000000E+02;  0.0000000E+00;  9.3755882E+01;  3.2771040E-02;  0.0000000E+00;  5.2414909E-03;  0.0000000E+00;
  3.4474096E+00;  9.9999998E-03; -4.1439903E-01;344;  3.5713609E-02;  0.0000000E+00; -2.0159443E-03;  9.9885845E+00;  2.4348778E-01; -1.0535258E+00;3; -1.0577892E-03;  0.0000000E+00;  1.7477628E-03;  0.0000000E+00;  0.0000000E+00;  0.0000000E+00;1;  3.7235860E-02;  2.8677731E+02;  0.0000000E+00; -3.3243035E-03;  1.0000000E+02;  0.0000000E+00;  9.3888412E+01;  3.2094605E-02;  0.0000000E+00;  5.1412536E-03;  0.0000000E+00;
  3.4536467E+00;  9.9999998E-03; -2.0764282E-01;345;  3.9018065E-02;  0.0000000E+00; -5.2775664E-04;  9.9887791E+00;  2.4274381E-01; -1.0348232E+00;3; -5.0926325E-04;  0.0000000E+00;  5.3312734E-04;  0.0000000E+00;  0.0000000E+00;  0.0000000E+00;1;  3.6730688E-02;  2.8824185E+02;  0.0000000E+00; -1.7118996E-03;  1.0000000E+02;  0.0000000E+00;  9.3989113E+01;  3.1688664E-02;  0.0000000E+00;  5.0420254E-03;  0.0000000E+00;
  3.6978445E+00;  9.9999998E-03; -1.0406586E+00;352;  4.4927910E-02;  0.0000000E+00; -7.6491595E-03;  9.9872379E+00;  2.5374281E-01; -1.1525124E+00;3; -2.4519472E-03;  0.0000000E+00;  1.4179718E-03;  0.0000000E+00;  0.0000000E+00;  0.0000000E+00;1;  4.7449823E-02;  2.6906796E+02;  0.0000000E+00; -4.8939548E-02;  1.0000000E+02;  0.0000000E+00;  9.2123154E+01;  3.9758187E-02;  0.0000000E+00;  7.6916367E-03;  0.0000000E+00;
  3.6922824E+00;  9.9999998E-03; -8.3313155E-01;353;  4.2387128E-02;  0.0000000E+00; -6.1737262E-03;  9.9874916E+00;  2.5284615E-01; -1.1300002E+00;3; -3.3399749E-03;  0.0000000E+00;  2.2374235E-04;  0.0000000E+00;  0.0000000E+00;  0.0000000E+00;1;  4.6390772E-02;  2.7065298E+02;  0.0000000E+00; -7.1599841E-02;  1.0000000E+02;  0.0000000E+00;  9.2238411E+01;  3.8910322E-02;  0.0000000E+00;  7.4804495E-03;  0.0000000E+00;
  3.6897705E+00;  9.9999998E-03; -6.2602109E-01;354;  4.1559260E-02;  0.0000000E+00; -4.7565545E-03;  9.9877968E+00;  2.5181717E-01; -1.1025943E+00;3; -4.0389430E-03;  0.0000000E+00;  3.1267328E-03;  0.0000000E+00;  0.0000000E+00;  0.0000000E+00;1;  4.5154821E-02;  2.7250537E+02;  0.0000000E+00; -5.4640394E-02;  1.0000000E+02;  0.0000000E+00;  9.2365959E+01;  3.7915088E-02;  0.0000000E+00;  7.2397329E-03;  0.0000000E+00;
  3.6894464E+00;  9.9999998E-03; -4.1887897E-01;355;  4.2376641E-02;  0.0000000E+00; -3.4175180E-03;  9.9881029E+00;  2.5081003E-01; -1.0749342E+00;3; -3.7840956E-03;  0.0000000E+00;  2.5219499E-04;  0.0000000E+00;  0.0000000E+00;  0.0000000E+00;1;  4.4053216E-02;  2.7432785E+02;  0.0000000E+00; -2.5970133E-02;  1.0000000E+02;  0.0000000E+00;  9.2497169E+01;  3.6966406E-02;  0.0000000E+00;  7.0868102E-03;  0.0000000E+00;
  3.6893220E+00;  9.9999998E-03; -2.1126609E-01;356;  4.3623950E-02;  0.0000000E+00; -1.7583908E-03;  9.9883280E+00;  2.5005171E-01; -1.0545850E+00;3; -2.7706837E-03;  0.0000000E+00;  8.3824451E-04;  0.0000000E+00;  0.0000000E+00;  0.0000000E+00;1;  4.3217897E-02;  2.7572260E+02;  0.0000000E+00; -6.4398567E-03;  1.0000000E+02;  0.0000000E+00;  9.2590126E+01;  3.6268994E-02;  0.0000000E+00;  6.9489018E-03;  0.0000000E+00;
  3.9483583E+00;  9.9999998E-03; -1.0462011E+00;363;  5.7545364E-02;  0.0000000E+00; -9.2963111E-03;  9.9873791E+00;  2.5867456E-01; -1.1288674E+00;3; -6.5641128E-04;  0.0000000E+00;  2.5108026E-04;  0.0000000E+00;  0.0000000E+00;  0.0000000E+00;1;  5.2365333E-02;  2.6134549E+02;  0.0000000E+00; -1.7343020E-02;  1.0000000E+02;  0.0000000E+00;  9.1264214E+01;  4.3275293E-02;  0.0000000E+00;  9.0900399E-03;  0.0000000E+00;
  3.9442337E+00;  9.9999998E-03; -8.3773911E-01;364;  5.5158574E-02;  0.0000000E+00; -7.6256311E-03;  9.9874554E+00;  2.5830030E-01; -1.1221528E+00;3; -2.1475214E-03;  0.0000000E+00; -1.8063012E-04;  0.0000000E+00;  0.0000000E+00;  0.0000000E+00;1;  5.1951960E-02;  2.6197089E+02;  0.0000000E+00; -4.5580074E-02;  1.0000000E+02;  0.0000000E+00;  9.1311607E+01;  4.2965617E-02;  0.0000000E+00;  8.9863408E-03;  0.0000000E+00;
  3.9423318E+00;  9.9999998E-03; -6.2954152E-01;365;  5.4746810E-02;  0.0000000E+00; -6.0712630E-03;  9.9875832E+00;  2.5782096E-01; -1.1107931E+00;3; -2.6165931E-03;  0.0000000E+00;  8.3357954E-05;  0.0000000E+00;  0.0000000E+00;  0.0000000E+00;1;  5.1362168E-02;  2.6278156E+02;  0.0000000E+00; -3.8015045E-02;  1.0000000E+02;  0.0000000E+00;  9.1371483E+01;  4.2486876E-02;  0.0000000E+00;  8.8752909E-03;  0.0000000E+00;
  3.9401357E+00;  9.9999998E-03; -4.2127380E-01;366;  5.4521356E-02;  0.0000000E+00; -4.5021526E-03;  9.9877291E+00;  2.5731015E-01; -1.0977875E+00;3; -2.5927401E-03;  0.0000000E+00;  5.9088570E-04;  0.0000000E+00;  0.0000000E+00;  0.0000000E+00;1;  5.0712772E-02;  2.6364948E+02;  0.0000000E+00; -1.8280931E-02;  1.0000000E+02;  0.0000000E+00;  9.1434052E+01;  4.1960645E-02;  0.0000000E+00;  8.7521253E-03;  0.0000000E+00;
  3.9359074E+00;  9.9999998E-03; -2.1203975E-01;367;  5.3268034E-02;  0.0000000E+00; -2.7576608E-03;  9.9878473E+00;  2.5686944E-01; -1.0873415E+00;3; -2.6896119E-03;  0.0000000E+00; -1.7924435E-04;  0.0000000E+00;  0.0000000E+00;  0.0000000E+00;1;  5.0141815E-02;  2.6439111E+02;  0.0000000E+00; -4.4374955E-03;  1.0000000E+02;  0.0000000E+00;  9.1492943E+01;  4.1481320E-02;  0.0000000E+00;  8.6604962E-03;  0.0000000E+00;
  4.1952381E+00;  9.9999998E-03; -1.0501281E+00;374;  6.7612343E-02;  0.0000000E+00; -1.0356897E-02;  9.9877338E+00;  2.6229739E-01; -1.0930268E+00;3; -4.2818641E-04;  0.0000000E+00; -4.7753713E-04;  0.0000000E+00;  0.0000000E+00;  0.0000000E+00;1;  5.5368409E-02;  2.5575134E+02;  0.0000000E+00; -4.2979731E-03;  1.0000000E+02;  0.0000000E+00;  9.0706329E+01;  4.5518205E-02;  0.0000000E+00;  9.8502031E-03;  0.0000000E+00;
  4.1949182E+00;  9.9999998E-03; -8.4082437E-01;375;  6.7356490E-02;  0.0000000E+00; -8.5371835E-03;  9.9877024E+00;  2.6232710E-01; -1.0958450E+00;3; -1.0645451E-03;  0.0000000E+00; -2.6331889E-05;  0.0000000E+00;  0.0000000E+00;  0.0000000E+00;1;  5.5515371E-02;  2.5570380E+02;  0.0000000E+00; -1.7173741E-02;  1.0000000E+02;  0.0000000E+00;  9.0702644E+01;  4.5612682E-02;  0.0000000E+00;  9.9026896E-03;  0.0000000E+00;
  4.1948328E+00;  9.9999998E-03; -6.3151765E-01;376;  6.7541659E-02;  0.0000000E+00; -6.7398893E-03;  9.9876833E+00;  2.6233807E-01; -1.0975455E+00;3; -1.3697352E-03;  0.0000000E+00; -2.5041125E-04;  0.0000000E+00;  0.0000000E+00;  0.0000000E+00;1;  5.5581946E-02;  2.5568340E+02;  0.0000000E+00; -1.4038993E-02;  1.0000000E+02;  0.0000000E+00;  9.0701645E+01;  4.5689695E-02;  0.0000000E+00;  9.8922504E-03;  0.0000000E+00;
  4.1935401E+00;  9.9999998E-03; -4.2181399E-01;377;  6.7270190E-02;  0.0000000E+00; -4.8579671E-03;  9.9876728E+00;  2.6232746E-01; -1.0985146E+00;3; -1.6306954E-03;  0.0000000E+00;  7.2019023E-04;  0.0000000E+00;  0.0000000E+00;  0.0000000E+00;1;  5.5611953E-02;  2.5570313E+02;  0.0000000E+00; -6.2750354E-03;  1.0000000E+02;  0.0000000E+00;  9.0702293E+01;  4.5744032E-02;  0.0000000E+00;  9.8679233E-03;  0.0000000E+00;
  4.1897068E+00;  9.9999998E-03; -2.1019904E-01;378;  6.5843664E-02;  0.0000000E+00; -3.0068865E-03;  9.9876490E+00;  2.6226869E-01; -1.1006781E+00;3; -1.9525612E-03;  0.0000000E+00; -8.4966206E-04;  0.0000000E+00;  0.0000000E+00;  0.0000000E+00;1;  5.5656679E-02;  2.5575723E+02;  0.0000000E+00; -1.3839053E-03;  1.0000000E+02;  0.0000000E+00;  9.0723442E+01;  4.5756906E-02;  0.0000000E+00;  9.8997746E-03;  0.0000000E+00;
  4.0787458E+00;  9.9999998E-03; -1.0494782E+00;549;  6.7406908E-02;  0.0000000E+00; -9.8918909E-03;  9.9876223E+00;  2.6170978E-01; -1.1044409E+00;3; -3.9472710E-04;  0.0000000E+00; -1.6660508E-04; -4.3160208E+08; -4.3160208E+08; -4.3160208E+08;1;  5.3832717E-02;  2.5663586E+02;  0.0000000E+00; -3.9817006E-03;  1.0000000E+02;  0.0000000E+00;  9.0798386E+01;  4.4343080E-02;  0.0000000E+00;  9.4896387E-03;  0.0000000E+00;
  4.0779896E+00;  9.9999998E-03; -8.4030646E-01;550;  6.6448562E-02;  0.0000000E+00; -8.1467396E-03;  9.9876204E+00;  2.6169080E-01; -1.1046655E+00;3; -1.7986147E-03;  0.0000000E+00; -3.5122561E-04; -4.3160208E+08; -4.3160208E+08; -4.3160208E+08;1;  5.3843752E-02;  2.5666797E+02;  0.0000000E+00; -3.8816591E-03;  1.0000000E+02;  0.0000000E+00;  9.0800903E+01;  4.4348516E-02;  0.0000000E+00;  9.4952341E-03;  0.0000000E+00;
  4.0778704E+00;  9.9999998E-03; -6.3118905E-01;553;  6.6657141E-02;  0.0000000E+00; -6.4252685E-03;  9.9876490E+00;  2.6163316E-01; -1.1021146E+00;3; -2.0284881E-03;  0.0000000E+00;  1.7378638E-04; -4.3160208E+08; -4.3160208E+08; -4.3160208E+08;1;  5.3693298E-02;  2.5676282E+02;  0.0000000E+00; -4.1407999E-03;  1.0000000E+02;  0.0000000E+00;  9.0807076E+01;  4.4260666E-02;  0.0000000E+00;  9.4326315E-03;  0.0000000E+00;
  4.0766039E+00;  9.9999998E-03; -4.2168349E-01;555;  6.6542700E-02;  0.0000000E+00; -4.8885597E-03;  9.9876690E+00;  2.6154059E-01; -1.1003264E+00;3; -1.9539290E-03;  0.0000000E+00; -1.1684607E-04; -4.3160208E+08; -4.3160208E+08; -4.3160208E+08;1;  5.3582124E-02;  2.5691339E+02;  0.0000000E+00; -2.6999055E-03;  1.0000000E+02;  0.0000000E+00;  9.0819801E+01;  4.4126138E-02;  0.0000000E+00;  9.4559873E-03;  0.0000000E+00;
  4.0727301E+00;  9.9999998E-03; -2.1089581E-01;557;  6.5085299E-02;  0.0000000E+00; -3.3609208E-03;  9.9876938E+00;  2.6142734E-01; -1.0981544E+00;3; -2.2741135E-03;  0.0000000E+00; -1.5961629E-04; -4.3160208E+08; -4.3160208E+08; -4.3160208E+08;1;  5.3402986E-02;  2.5708743E+02;  0.0000000E+00; -8.4802578E-04;  1.0000000E+02;  0.0000000E+00;  9.0836937E+01;  4.3965865E-02;  0.0000000E+00;  9.4371205E-03;  0.0000000E+00;
  3.8311956E+00;  9.9999998E-03; -1.0453228E+00;566;  5.6249887E-02;  0.0000000E+00; -8.5792188E-03;  9.9873314E+00;  2.5793758E-01; -1.1370440E+00;3; -1.8794549E-03;  0.0000000E+00;  1.7816055E-04; -4.3160208E+08; -4.3160208E+08; -4.3160208E+08;1;  5.0076343E-02;  2.6245731E+02;  0.0000000E+00; -3.2614202E-03;  1.0000000E+02;  0.0000000E+00;  9.1396706E+01;  4.1606892E-02;  0.0000000E+00;  8.4694531E-03;  0.0000000E+00;
  3.8265736E+00;  9.9999998E-03; -8.3700037E-01;568;  5.2836422E-02;  0.0000000E+00; -7.0396792E-03;  9.9874401E+00;  2.5750697E-01; -1.1274974E+00;3; -4.8184935E-03;  0.0000000E+00;  9.4036665E-04; -4.3160208E+08; -4.3160208E+08; -4.3160208E+08;1;  4.9539693E-02;  2.6318820E+02;  0.0000000E+00; -2.4662705E-02;  1.0000000E+02;  0.0000000E+00;  9.1450050E+01;  4.1154929E-02;  0.0000000E+00;  8.3847623E-03;  0.0000000E+00;
  3.8250327E+00;  9.9999998E-03; -6.2898409E-01;572;  5.3122990E-02;  0.0000000E+00; -5.5514071E-03;  9.9876490E+00;  2.5695986E-01; -1.1088330E+00;3; -4.3595885E-03;  0.0000000E+00;  2.0284806E-03; -4.3160208E+08; -4.3160208E+08; -4.3160208E+08;1;  4.8668403E-02;  2.6412854E+02;  0.0000000E+00; -2.3974001E-02;  1.0000000E+02;  0.0000000E+00;  9.1515945E+01;  4.0469244E-02;  0.0000000E+00;  8.1991600E-03;  0.0000000E+00;
  3.8232319E+00;  9.9999998E-03; -4.2084333E-01;574;  5.3632256E-02;  0.0000000E+00; -4.2349487E-03;  9.9878473E+00;  2.5638288E-01; -1.0910870E+00;3; -3.3441831E-03;  0.0000000E+00; -4.0338482E-04; -4.3160208E+08; -4.3160208E+08; -4.3160208E+08;1;  4.7851779E-02;  2.6511893E+02;  0.0000000E+00; -1.3096304E-02;  1.0000000E+02;  0.0000000E+00;  9.1591141E+01;  3.9759628E-02;  0.0000000E+00;  8.0921501E-03;  0.0000000E+00;
  3.8193033E+00;  9.9999998E-03; -2.1225294E-01;576;  5.2892443E-02;  0.0000000E+00; -2.6522479E-03;  9.9880219E+00;  2.5590381E-01; -1.0755659E+00;3; -2.8530455E-03;  0.0000000E+00;  7.0947013E-04; -4.3160208E+08; -4.3160208E+08; -4.3160208E+08;1;  4.7078677E-02;  2.6595828E+02;  0.0000000E+00; -3.5394263E-03;  1.0000000E+02;  0.0000000E+00;  9.1645554E+01;  3.9137926E-02;  0.0000000E+00;  7.9407496E-03;  0.0000000E+00;
  3.5801101E+00;  9.9999998E-03; -1.0396199E+00;582;  4.2595930E-02;  0.0000000E+00; -6.6783703E-03;  9.9874134E+00;  2.5286907E-01; -1.1460917E+00;3; -4.9914112E-03;  0.0000000E+00;  6.7585567E-04; -4.3160208E+08; -4.3160208E+08; -4.3160208E+08;1;  4.4134945E-02;  2.7041757E+02;  0.0000000E+00; -3.2234605E-02;  1.0000000E+02;  0.0000000E+00;  9.2301750E+01;  3.7384108E-02;  0.0000000E+00;  6.7508360E-03;  0.0000000E+00;
  3.5746739E+00;  9.9999998E-03; -8.3225423E-01;584;  4.0172044E-02;  0.0000000E+00; -5.2503180E-03;  9.9877033E+00;  2.5199232E-01; -1.1201737E+00;3; -5.9649907E-03;  0.0000000E+00;  1.0766574E-03; -4.3160208E+08; -4.3160208E+08; -4.3160208E+08;1;  4.2949773E-02;  2.7199292E+02;  0.0000000E+00; -5.3817712E-02;  1.0000000E+02;  0.0000000E+00;  9.2411118E+01;  3.6493920E-02;  0.0000000E+00;  6.4558550E-03;  0.0000000E+00;
  3.5729024E+00;  9.9999998E-03; -6.2526399E-01;586;  4.0560558E-02;  0.0000000E+00; -4.0834011E-03;  9.9880075E+00;  2.5099149E-01; -1.0926464E+00;3; -5.3717829E-03;  0.0000000E+00;  5.7473878E-04; -4.3160208E+08; -4.3160208E+08; -4.3160208E+08;1;  4.1877910E-02;  2.7381088E+02;  0.0000000E+00; -4.3317795E-02;  1.0000000E+02;  0.0000000E+00;  9.2535385E+01;  3.5502367E-02;  0.0000000E+00;  6.3755438E-03;  0.0000000E+00;
  3.5729115E+00;  9.9999998E-03; -4.1819724E-01;588;  4.2048648E-02;  0.0000000E+00; -2.9192658E-03;  9.9883137E+00;  2.5002459E-01; -1.0647321E+00;3; -4.3175099E-03;  0.0000000E+00; -1.6595618E-03; -4.3160208E+08; -4.3160208E+08; -4.3160208E+08;1;  4.0823005E-02;  2.7557571E+02;  0.0000000E+00; -2.2378726E-02;  1.0000000E+02;  0.0000000E+00;  9.2660828E+01;  3.4597315E-02;  0.0000000E+00;  6.2256902E-03;  0.0000000E+00;
  3.5729434E+00;  9.9999998E-03; -2.1090613E-01;592;  4.3633230E-02;  0.0000000E+00; -9.1998099E-04;  9.9885645E+00;  2.4931632E-01; -1.0419205E+00;3; -2.7735909E-03;  0.0000000E+00;  1.6930476E-03; -4.3160208E+08; -4.3160208E+08; -4.3160208E+08;1;  3.9936304E-02;  2.7691754E+02;  0.0000000E+00; -5.9065889E-03;  1.0000000E+02;  0.0000000E+00;  9.2739082E+01;  3.3946183E-02;  0.0000000E+00;  5.9901220E-03;  0.0000000E+00;
  3.3297172E+00;  9.9999998E-03; -1.0322860E+00;601;  3.1915154E-02;  0.0000000E+00; -4.4407700E-03;  9.9880772E+00;  2.4619304E-01; -1.1182551E+00;3; -3.8523353E-03;  0.0000000E+00;  2.4213197E-03; -4.3160208E+08; -4.3160208E+08; -4.3160208E+08;1;  3.6314260E-02;  2.8131442E+02;  0.0000000E+00; -1.7050497E-02;  1.0000000E+02;  0.0000000E+00;  9.3615067E+01;  3.1802721E-02;  0.0000000E+00;  4.5115394E-03;  0.0000000E+00;
  3.3263485E+00;  9.9999998E-03; -8.2600522E-01;606;  3.1024085E-02;  0.0000000E+00; -3.3860726E-03;  9.9883041E+00;  2.4522066E-01; -1.0975262E+00;3; -4.0395390E-03;  0.0000000E+00;  1.9538535E-03; -4.3160208E+08; -4.3160208E+08; -4.3160208E+08;1;  3.5548769E-02;  2.8320258E+02;  0.0000000E+00; -1.1441795E-03;  1.0000000E+02;  0.0000000E+00;  9.3732094E+01;  3.1163372E-02;  0.0000000E+00;  4.3853978E-03;  0.0000000E+00;
  3.3255923E+00;  9.9999998E-03; -6.1997163E-01;608;  3.0637057E-02;  0.0000000E+00; -2.4190308E-03;  9.9885216E+00;  2.4415249E-01; -1.0772926E+00;3; -4.9415245E-03;  0.0000000E+00;  2.6082199E-03; -4.3160208E+08; -4.3160208E+08; -4.3160208E+08;1;  3.4849208E-02;  2.8530408E+02;  0.0000000E+00;  3.3189848E-03;  1.0000000E+02;  0.0000000E+00;  9.3859825E+01;  3.0534782E-02;  0.0000000E+00;  4.3144259E-03;  0.0000000E+00;
  3.3306797E+00;  9.9999998E-03; -4.1406241E-01;610;  3.5690401E-02;  0.0000000E+00; -1.0479672E-03;  9.9887581E+00;  2.4321420E-01; -1.0542562E+00;3; -5.1968941E-04;  0.0000000E+00;  1.3539605E-03; -4.3160208E+08; -4.3160208E+08; -4.3160208E+08;1;  3.4249954E-02;  2.8720718E+02;  0.0000000E+00; -1.2819257E-03;  1.0000000E+02;  0.0000000E+00;  9.3962494E+01;  3.0173205E-02;  0.0000000E+00;  4.0767472E-03;  0.0000000E+00;
  3.3369939E+00;  9.9999998E-03; -2.0752850E-01;612;  3.9085720E-02;  0.0000000E+00;  2.7825201E-05;  9.9888582E+00;  2.4254812E-01; -1.0438581E+00;3; -7.1274024E-04;  0.0000000E+00;  1.0713063E-03; -4.3160208E+08; -4.3160208E+08; -4.3160208E+08;1;  3.4075905E-02;  2.8855066E+02;  0.0000000E+00; -1.3729257E-03;  1.0000000E+02;  0.0000000E+00;  9.4041611E+01;  2.9973060E-02;  0.0000000E+00;  4.1028433E-03;  0.0000000E+00;
  4.3230429E+00;  9.9999998E-03; -1.0526316E+00;544;  7.6671563E-02;  0.0000000E+00; -1.0755985E-02;  9.9879065E+00;  2.6505980E-01; -1.0766898E+00;3; -7.2843139E-04;  0.0000000E+00; -6.2914559E-04; -4.3160208E+08; -4.3160208E+08; -4.3160208E+08;1;  5.6509301E-02;  2.5149901E+02;  0.0000000E+00;  5.0961424E-04;  1.0000000E+02;  0.0000000E+00;  9.0328880E+01;  4.6391074E-02;  0.0000000E+00;  1.0118227E-02;  0.0000000E+00;
  4.3252244E+00;  9.9999998E-03; -8.4280682E-01;545;  7.7292167E-02;  0.0000000E+00; -8.8435998E-03;  9.9878435E+00;  2.6520115E-01; -1.0822487E+00;3; -1.1213608E-03;  0.0000000E+00; -3.0472514E-04; -4.3160208E+08; -4.3160208E+08; -4.3160208E+08;1;  5.6834649E-02;  2.5127725E+02;  0.0000000E+00; -1.0764104E-03;  1.0000000E+02;  0.0000000E+00;  9.0311768E+01;  4.6631295E-02;  0.0000000E+00;  1.0203353E-02;  0.0000000E+00;
  4.3275633E+00;  9.9999998E-03; -6.3280642E-01;538;  7.8086086E-02;  0.0000000E+00; -6.8730977E-03;  9.9877930E+00;  2.6536849E-01; -1.0867454E+00;3; -1.3242455E-03;  0.0000000E+00; -7.9530658E-04; -4.3160208E+08; -4.3160208E+08; -4.3160208E+08;1;  5.7108946E-02;  2.5101138E+02;  0.0000000E+00; -1.6021698E-03;  1.0000000E+02;  0.0000000E+00;  9.0292908E+01;  4.6899401E-02;  0.0000000E+00;  1.0209545E-02;  0.0000000E+00;
  4.3295646E+00;  9.9999998E-03; -4.2205742E-01;539;  7.8646339E-02;  0.0000000E+00; -4.7872090E-03;  9.9877319E+00;  2.6553768E-01; -1.0921460E+00;3; -1.5378116E-03;  0.0000000E+00;  2.9515615E-04; -4.3160208E+08; -4.3160208E+08; -4.3160208E+08;1;  5.7420105E-02;  2.5074655E+02;  0.0000000E+00; -8.9629920E-04;  1.0000000E+02;  0.0000000E+00;  9.0272217E+01;  4.7171760E-02;  0.0000000E+00;  1.0248346E-02;  0.0000000E+00;
  4.3299332E+00;  9.9999998E-03; -2.0862834E-01;389;  7.8497007E-02;  0.0000000E+00; -3.0176842E-03;  9.9876575E+00;  2.6564282E-01; -1.0987768E+00;3; -1.8017628E-03;  0.0000000E+00; -8.1165670E-04;  0.0000000E+00;  0.0000000E+00;  0.0000000E+00;1;  5.7772681E-02;  2.5053848E+02;  0.0000000E+00;  2.0158181E-05;  1.0000000E+02;  0.0000000E+00;  9.0274887E+01;  4.7395460E-02;  0.0000000E+00;  1.0377222E-02;  0.0000000E+00;
  4.4393687E+00;  9.9999998E-03; -1.0531089E+00;385;  7.6694466E-02;  0.0000000E+00; -1.1061546E-02;  9.9879560E+00;  2.6560333E-01; -1.0716805E+00;3; -9.9037145E-04;  0.0000000E+00; -7.3419849E-04;  0.0000000E+00;  0.0000000E+00;  0.0000000E+00;1;  5.7755940E-02;  2.5067911E+02;  0.0000000E+00; -7.8470791E-03;  1.0000000E+02;  0.0000000E+00;  9.0253822E+01;  4.7386136E-02;  0.0000000E+00;  1.0369805E-02;  0.0000000E+00;
  4.4416261E+00;  9.9999998E-03; -8.4317678E-01;386;  7.7384397E-02;  0.0000000E+00; -9.0645561E-03;  9.9878960E+00;  2.6573917E-01; -1.0770290E+00;3; -1.3335649E-03;  0.0000000E+00; -5.8398943E-04;  0.0000000E+00;  0.0000000E+00;  0.0000000E+00;1;  5.8066778E-02;  2.5046884E+02;  0.0000000E+00; -5.9063276E-03;  1.0000000E+02;  0.0000000E+00;  9.0237709E+01;  4.7624420E-02;  0.0000000E+00;  1.0442357E-02;  0.0000000E+00;
  4.4440413E+00;  9.9999998E-03; -6.3302946E-01;387;  7.8236192E-02;  0.0000000E+00; -6.9752764E-03;  9.9878416E+00;  2.6590720E-01; -1.0818464E+00;3; -1.5162480E-03;  0.0000000E+00; -7.6503720E-04;  0.0000000E+00;  0.0000000E+00;  0.0000000E+00;1;  5.8356784E-02;  2.5020314E+02;  0.0000000E+00; -2.2060222E-03;  1.0000000E+02;  0.0000000E+00;  9.0218658E+01;  4.7908247E-02;  0.0000000E+00;  1.0448538E-02;  0.0000000E+00;
  4.4462366E+00;  9.9999998E-03; -4.2205685E-01;388;  7.8934550E-02;  0.0000000E+00; -4.7171866E-03;  9.9877739E+00;  2.6608288E-01; -1.0878844E+00;3; -1.6818581E-03;  0.0000000E+00;  5.4778199E-04;  0.0000000E+00;  0.0000000E+00;  0.0000000E+00;1;  5.8709715E-02;  2.4992964E+02;  0.0000000E+00; -4.0225088E-05;  1.0000000E+02;  0.0000000E+00;  9.0197388E+01;  4.8210021E-02;  0.0000000E+00;  1.0499693E-02;  0.0000000E+00;
  4.5872145E+00;  9.9999998E-03; -2.0852292E-01;400;  9.1791220E-02;  0.0000000E+00; -2.3065382E-03;  9.9877405E+00;  2.6866367E-01; -1.0904552E+00;3; -2.1059336E-03;  0.0000000E+00; -1.2402462E-03;  0.0000000E+00;  0.0000000E+00;  0.0000000E+00;1;  6.0256533E-02;  2.4598976E+02;  0.0000000E+00;  4.0851472E-04;  1.0000000E+02;  0.0000000E+00;  8.9890068E+01;  4.9395673E-02;  0.0000000E+00;  1.0860862E-02;  0.0000000E+00;
  4.6863675E+00;  9.9999998E-03; -8.4520012E-01;397;  8.7102897E-02;  0.0000000E+00; -9.4672423E-03;  9.9878521E+00;  2.6890025E-01; -1.0803696E+00;3; -1.7224684E-03;  0.0000000E+00; -6.1123684E-04;  0.0000000E+00;  0.0000000E+00;  0.0000000E+00;1;  6.0380630E-02;  2.4571005E+02;  0.0000000E+00; -2.3254645E-03;  1.0000000E+02;  0.0000000E+00;  8.9835495E+01;  4.9483880E-02;  0.0000000E+00;  1.0896749E-02;  0.0000000E+00;
  4.6910138E+00;  9.9999998E-03; -6.3481003E-01;398;  8.8190854E-02;  0.0000000E+00; -7.2123450E-03;  9.9878502E+00;  2.6887658E-01; -1.0805221E+00;3; -2.0609945E-03;  0.0000000E+00; -9.0137467E-04;  0.0000000E+00;  0.0000000E+00;  0.0000000E+00;1;  6.0416296E-02;  2.4573854E+02;  0.0000000E+00;  1.7702988E-03;  1.0000000E+02;  0.0000000E+00;  8.9839256E+01;  4.9584761E-02;  0.0000000E+00;  1.0831535E-02;  0.0000000E+00;
  4.5805511E+00;  9.9999998E-03; -4.2335480E-01;399;  8.9733973E-02;  0.0000000E+00; -4.6244995E-03;  9.9878082E+00;  2.6861364E-01; -1.0844254E+00;3; -1.8922674E-03;  0.0000000E+00;  4.0644378E-04;  0.0000000E+00;  0.0000000E+00;  0.0000000E+00;1;  5.9870753E-02;  2.4612222E+02;  0.0000000E+00;  6.8889692E-04;  1.0000000E+02;  0.0000000E+00;  8.9875420E+01;  4.9174104E-02;  0.0000000E+00;  1.0696649E-02;  0.0000000E+00;
  4.6844912E+00;  9.9999998E-03; -1.0554119E+00;396;  8.8433079E-02;  0.0000000E+00; -1.1565430E-02;  9.9878597E+00;  2.6895297E-01; -1.0796831E+00;3;  6.5313553E-04;  0.0000000E+00; -1.0049450E-03;  0.0000000E+00;  0.0000000E+00;  0.0000000E+00;1;  6.0334213E-02;  2.4562880E+02;  0.0000000E+00; -5.8266893E-03;  1.0000000E+02;  0.0000000E+00;  8.9829147E+01;  4.9473353E-02;  0.0000000E+00;  1.0860862E-02;  0.0000000E+00;
  4.9374828E+00;  9.9999998E-03; -1.0566001E+00;407;  1.0173199E-01;  0.0000000E+00; -1.1817266E-02;  9.9875193E+00;  2.7140373E-01; -1.1097187E+00;3;  2.4567067E-03;  0.0000000E+00; -9.3907071E-04;  0.0000000E+00;  0.0000000E+00;  0.0000000E+00;1;  6.2515244E-02;  2.4200981E+02;  0.0000000E+00;  1.0013618E-02;  1.0000000E+02;  0.0000000E+00;  8.9528694E+01;  5.1264767E-02;  0.0000000E+00;  1.1250478E-02;  0.0000000E+00;
  4.9369721E+00;  9.9999998E-03; -8.4650022E-01;408;  9.8788574E-02;  0.0000000E+00; -9.7040068E-03;  9.9876022E+00;  2.7106974E-01; -1.1023523E+00;3; -1.1574465E-03;  0.0000000E+00; -7.5873313E-04;  0.0000000E+00;  0.0000000E+00;  0.0000000E+00;1;  6.2100802E-02;  2.4250589E+02;  0.0000000E+00; -2.1657625E-03;  1.0000000E+02;  0.0000000E+00;  8.9568291E+01;  5.0903957E-02;  0.0000000E+00;  1.1196843E-02;  0.0000000E+00;
  4.9411325E+00;  9.9999998E-03; -6.3653696E-01;409;  9.9718563E-02;  0.0000000E+00; -7.5197630E-03;  9.9876890E+00;  2.7069220E-01; -1.0946124E+00;3; -1.6738838E-03;  0.0000000E+00; -1.9947060E-04;  0.0000000E+00;  0.0000000E+00;  0.0000000E+00;1;  6.1657779E-02;  2.4306482E+02;  0.0000000E+00;  2.0333796E-03;  1.0000000E+02;  0.0000000E+00;  8.9611908E+01;  5.0591409E-02;  0.0000000E+00;  1.1066371E-02;  0.0000000E+00;
  4.9487286E+00;  9.9999998E-03; -4.2599308E-01;410;  1.0252392E-01;  0.0000000E+00; -5.3790594E-03;  9.9877577E+00;  2.7031583E-01; -1.0885139E+00;3; -1.1509750E-03;  0.0000000E+00;  4.7310357E-04;  0.0000000E+00;  0.0000000E+00;  0.0000000E+00;1;  6.1293155E-02;  2.4363319E+02;  0.0000000E+00;  2.6574438E-03;  1.0000000E+02;  0.0000000E+00;  8.9653244E+01;  5.0219029E-02;  0.0000000E+00;  1.1074125E-02;  0.0000000E+00;
  4.9593592E+00;  9.9999998E-03; -2.1324569E-01;411;  1.0725505E-01;  0.0000000E+00; -2.1285915E-03;  9.9878426E+00;  2.7002051E-01; -1.0809830E+00;3; -6.4478438E-05;  0.0000000E+00; -1.8386494E-05;  0.0000000E+00;  0.0000000E+00;  0.0000000E+00;1;  6.0845904E-02;  2.4407889E+02;  0.0000000E+00;  7.0621521E-04;  1.0000000E+02;  0.0000000E+00;  8.9686455E+01;  4.9879450E-02;  0.0000000E+00;  1.0966452E-02;  0.0000000E+00;
  5.2156568E+00;  9.9999998E-03; -1.0555598E+00;418;  1.1599966E-01;  0.0000000E+00; -1.1493525E-02;  9.9872532E+00;  2.7083230E-01; -1.1333174E+00;3; -7.4137613E-04;  0.0000000E+00; -4.8540803E-04;  0.0000000E+00;  0.0000000E+00;  0.0000000E+00;1;  6.1974119E-02;  2.4284882E+02;  0.0000000E+00; -4.4618901E-03;  1.0000000E+02;  0.0000000E+00;  8.9594055E+01;  5.0830837E-02;  0.0000000E+00;  1.1143281E-02;  0.0000000E+00;
  5.2118816E+00;  9.9999998E-03; -8.4587634E-01;419;  1.1655884E-01;  0.0000000E+00; -9.5020160E-03;  9.9873610E+00;  2.7037054E-01; -1.1237262E+00;3; -7.9040896E-05;  0.0000000E+00; -7.0506131E-04;  0.0000000E+00;  0.0000000E+00;  0.0000000E+00;1;  6.1495062E-02;  2.4353638E+02;  0.0000000E+00;  2.4861831E-03;  1.0000000E+02;  0.0000000E+00;  8.9647903E+01;  5.0424013E-02;  0.0000000E+00;  1.1071048E-02;  0.0000000E+00;
  5.2069182E+00;  9.9999998E-03; -6.3671875E-01;420;  1.1615057E-01;  0.0000000E+00; -7.5606210E-03;  9.9875259E+00;  2.6978719E-01; -1.1090480E+00;3;  2.5192284E-04;  0.0000000E+00;  8.7425474E-04;  0.0000000E+00;  0.0000000E+00;  0.0000000E+00;1;  6.0742490E-02;  2.4441724E+02;  0.0000000E+00; -7.7126096E-03;  1.0000000E+02;  0.0000000E+00;  8.9713509E+01;  4.9828783E-02;  0.0000000E+00;  1.0913707E-02;  0.0000000E+00;
  5.2050538E+00;  9.9999998E-03; -4.2769045E-01;421;  1.1600602E-01;  0.0000000E+00; -5.7383957E-03;  9.9877129E+00;  2.6914653E-01; -1.0924083E+00;3;  5.0164526E-04;  0.0000000E+00;  5.7223521E-04;  0.0000000E+00;  0.0000000E+00;  0.0000000E+00;1;  5.9849590E-02;  2.4539604E+02;  0.0000000E+00; -2.8864625E-03;  1.0000000E+02;  0.0000000E+00;  8.9783920E+01;  4.9024820E-02;  0.0000000E+00;  1.0824771E-02;  0.0000000E+00;
  5.2059755E+00;  9.9999998E-03; -2.1861260E-01;422;  1.1731643E-01;  0.0000000E+00; -2.8435814E-03;  9.9879150E+00;  2.6861003E-01; -1.0744435E+00;3;  1.2205854E-03;  0.0000000E+00;  4.7659126E-04;  0.0000000E+00;  0.0000000E+00;  0.0000000E+00;1;  5.8857311E-02;  2.4625331E+02;  0.0000000E+00;  1.6654445E-05;  1.0000000E+02;  0.0000000E+00;  8.9832436E+01;  4.8250239E-02;  0.0000000E+00;  1.0607072E-02;  0.0000000E+00;
  5.5187140E+00;  9.9999998E-03; -1.0516621E+00;429;  1.4175060E-01;  0.0000000E+00; -1.0280159E-02;  9.9873037E+00;  2.6614466E-01; -1.1287818E+00;3;  3.6642775E-03;  0.0000000E+00;  7.8857655E-04;  0.0000000E+00;  0.0000000E+00;  0.0000000E+00;1;  5.6565180E-02;  2.4990961E+02;  0.0000000E+00; -2.6977074E-01;  1.0000000E+02;  0.0000000E+00;  9.0157730E+01;  4.6400536E-02;  0.0000000E+00;  1.0164646E-02;  0.0000000E+00;
  5.5009747E+00;  9.9999998E-03; -8.4209085E-01;430;  1.3438058E-01;  0.0000000E+00; -8.4178001E-03;  9.9875574E+00;  2.6515818E-01; -1.1062082E+00;3;  3.3435144E-03;  0.0000000E+00; -2.0442516E-05;  0.0000000E+00;  0.0000000E+00;  0.0000000E+00;1;  5.5837680E-02;  2.5144609E+02;  0.0000000E+00;  1.9185780E-01;  1.0000000E+02;  0.0000000E+00;  9.0278275E+01;  4.5761302E-02;  0.0000000E+00;  1.0076378E-02;  0.0000000E+00;
  5.4971862E+00;  9.9999998E-03; -6.3344282E-01;431;  1.4132367E-01;  0.0000000E+00; -6.7110537E-03;  9.9877148E+00;  2.6449808E-01; -1.0922185E+00;3;  5.3920913E-03;  0.0000000E+00;  1.8419712E-03;  0.0000000E+00;  0.0000000E+00;  0.0000000E+00;1;  5.5178925E-02;  2.5248534E+02;  0.0000000E+00; -1.5586867E-02;  1.0000000E+02;  0.0000000E+00;  9.0357025E+01;  4.5189623E-02;  0.0000000E+00;  9.9893017E-03;  0.0000000E+00;
  5.4837804E+00;  9.9999998E-03; -4.2514238E-01;432;  1.3651885E-01;  0.0000000E+00; -4.9396297E-03;  9.9879780E+00;  2.6381052E-01; -1.0688497E+00;3;  3.6076806E-03;  0.0000000E+00;  6.0233485E-04;  0.0000000E+00;  0.0000000E+00;  0.0000000E+00;1;  5.4282919E-02;  2.5357986E+02;  0.0000000E+00; -5.8808617E-02;  1.0000000E+02;  0.0000000E+00;  9.0440666E+01;  4.4487976E-02;  0.0000000E+00;  9.7949430E-03;  0.0000000E+00;
  5.4626822E+00;  9.9999998E-03; -2.1698801E-01;433;  1.2730445E-01;  0.0000000E+00; -3.1867744E-03;  9.9881306E+00;  2.6342532E-01; -1.0552851E+00;3;  1.0225927E-03;  0.0000000E+00; -1.3735765E-03;  0.0000000E+00;  0.0000000E+00;  0.0000000E+00;1;  5.4007348E-02;  2.5417615E+02;  0.0000000E+00; -2.5141621E-02;  1.0000000E+02;  0.0000000E+00;  9.0495384E+01;  4.4280730E-02;  0.0000000E+00;  9.7266175E-03;  0.0000000E+00;
  5.7230124E+00;  9.9999998E-03; -1.0455927E+00;440;  1.4167264E-01;  0.0000000E+00; -8.8731581E-03;  9.9879522E+00;  2.5706476E-01; -1.0711195E+00;3;  3.6878686E-03;  0.0000000E+00;  1.7545503E-03;  0.0000000E+00;  0.0000000E+00;  0.0000000E+00;1;  4.8603497E-02;  2.6457462E+02;  0.0000000E+00; -2.2663410E-01;  1.0000000E+02;  0.0000000E+00;  9.1291664E+01;  3.9846137E-02;  0.0000000E+00;  8.7573603E-03;  0.0000000E+00;
  5.7496023E+00;  9.9999998E-03; -8.3662152E-01;441;  1.4830887E-01;  0.0000000E+00; -7.0675281E-03;  9.9878187E+00;  2.5742978E-01; -1.0829891E+00;3;  2.5788224E-03;  0.0000000E+00;  3.6311356E-04;  0.0000000E+00;  0.0000000E+00;  0.0000000E+00;1;  4.8419014E-02;  2.6394482E+02;  0.0000000E+00;  7.6263867E-02;  1.0000000E+02;  0.0000000E+00;  9.1247070E+01;  3.9589506E-02;  0.0000000E+00;  8.8295080E-03;  0.0000000E+00;
  5.7579913E+00;  9.9999998E-03; -6.2794626E-01;442;  1.5412380E-01;  0.0000000E+00; -5.2726348E-03;  9.9879551E+00;  2.5666854E-01; -1.0708538E+00;3;  2.1775120E-03;  0.0000000E+00;  8.8303786E-04;  0.0000000E+00;  0.0000000E+00;  0.0000000E+00;1;  4.7594108E-02;  2.6520728E+02;  0.0000000E+00; -1.8302912E-01;  1.0000000E+02;  0.0000000E+00;  9.1353912E+01;  3.8979542E-02;  0.0000000E+00;  8.6145643E-03;  0.0000000E+00;
  5.7735000E+00;  9.9999998E-03; -4.1980278E-01;443;  1.5503985E-01;  0.0000000E+00; -3.4122718E-03;  9.9883575E+00;  2.5554419E-01; -1.0350842E+00;3;  2.2353784E-03;  0.0000000E+00;  1.9642352E-03;  0.0000000E+00;  0.0000000E+00;  0.0000000E+00;1;  4.5541953E-02;  2.6714914E+02;  0.0000000E+00; -5.4170299E-02;  1.0000000E+02;  0.0000000E+00;  9.1495567E+01;  3.7303530E-02;  0.0000000E+00;  8.2384236E-03;  0.0000000E+00;
  5.7536068E+00;  9.9999998E-03; -2.0952900E-01;444;  1.4519472E-01;  0.0000000E+00; -4.9010740E-04;  9.9887028E+00;  2.5451815E-01; -1.0044024E+00;3;  4.5973435E-04;  0.0000000E+00; -7.2405109E-04;  0.0000000E+00;  0.0000000E+00;  0.0000000E+00;1;  4.4761945E-02;  2.6883093E+02;  0.0000000E+00; -6.0290672E-02;  1.0000000E+02;  0.0000000E+00;  9.1663681E+01;  3.6827981E-02;  0.0000000E+00;  7.9339640E-03;  0.0000000E+00;
  5.0972891E+00;  9.9999998E-03; -1.0561212E+00;494;  1.1403628E-01;  0.0000000E+00; -1.1743586E-02;  9.9872913E+00;  2.7149609E-01; -1.1299528E+00;3; -1.5308207E-03;  0.0000000E+00; -7.0871250E-04; -4.3160208E+08; -4.3160208E+08; -4.3160208E+08;1;  6.2911510E-02;  2.4187448E+02;  0.0000000E+00;  2.1851137E-03;  1.0000000E+02;  0.0000000E+00;  8.9515610E+01;  5.1595971E-02;  0.0000000E+00;  1.1315539E-02;  0.0000000E+00;
  4.8193908E+00;  9.9999998E-03; -1.0566359E+00;496;  9.9122092E-02;  0.0000000E+00; -1.1771627E-02;  9.9876499E+00;  2.7124295E-01; -1.0981915E+00;3; -1.5890499E-04;  0.0000000E+00; -1.0083758E-03; -4.3160208E+08; -4.3160208E+08; -4.3160208E+08;1;  6.1873302E-02;  2.4224692E+02;  0.0000000E+00;  4.5651138E-02;  1.0000000E+02;  0.0000000E+00;  8.9549103E+01;  5.0735209E-02;  0.0000000E+00;  1.1138091E-02;  0.0000000E+00;
  4.8195601E+00;  9.9999998E-03; -8.4647870E-01;498;  9.7581722E-02;  0.0000000E+00; -9.6598146E-03;  9.9876890E+00;  2.7097973E-01; -1.0946932E+00;3; -1.8094623E-03;  0.0000000E+00; -7.3309091E-04; -4.3160208E+08; -4.3160208E+08; -4.3160208E+08;1;  6.1674468E-02;  2.4263647E+02;  0.0000000E+00;  1.2606868E-02;  1.0000000E+02;  0.0000000E+00;  8.9580612E+01;  5.0547279E-02;  0.0000000E+00;  1.1127191E-02;  0.0000000E+00;
  5.0931840E+00;  9.9999998E-03; -8.4633362E-01;500;  1.1416636E-01;  0.0000000E+00; -9.7056534E-03;  9.9873838E+00;  2.7102944E-01; -1.1216868E+00;3; -1.1560452E-03;  0.0000000E+00; -5.5999064E-04; -4.3160208E+08; -4.3160208E+08; -4.3160208E+08;1;  6.2480327E-02;  2.4256389E+02;  0.0000000E+00; -6.7697167E-03;  1.0000000E+02;  0.0000000E+00;  8.9570221E+01;  5.1227741E-02;  0.0000000E+00;  1.1252585E-02;  0.0000000E+00;
  4.8237457E+00;  9.9999998E-03; -6.3642251E-01;502;  9.8641418E-02;  0.0000000E+00; -7.4330652E-03;  9.9877386E+00;  2.7069381E-01; -1.0902907E+00;3; -2.0570850E-03;  0.0000000E+00; -2.2643968E-04; -4.3160208E+08; -4.3160208E+08; -4.3160208E+08;1;  6.1434992E-02;  2.4305797E+02;  0.0000000E+00;  6.3600591E-03;  1.0000000E+02;  0.0000000E+00;  8.9613998E+01;  5.0416354E-02;  0.0000000E+00;  1.1018636E-02;  0.0000000E+00;
  5.0885005E+00;  9.9999998E-03; -6.3699061E-01;504;  1.1395120E-01;  0.0000000E+00; -7.6423949E-03;  9.9875364E+00;  2.7044123E-01; -1.1081215E+00;3; -8.7243720E-04;  0.0000000E+00;  2.3919052E-05; -4.3160208E+08; -4.3160208E+08; -4.3160208E+08;1;  6.1756533E-02;  2.4344164E+02;  0.0000000E+00; -1.6496854E-02;  1.0000000E+02;  0.0000000E+00;  8.9637573E+01;  5.0682500E-02;  0.0000000E+00;  1.1074032E-02;  0.0000000E+00;
  4.8312125E+00;  9.9999998E-03; -4.2573237E-01;506;  1.0128217E-01;  0.0000000E+00; -4.9780235E-03;  9.9877758E+00;  2.7042907E-01; -1.0869986E+00;3; -1.7499002E-03;  0.0000000E+00;  1.9484300E-04; -4.3160208E+08; -4.3160208E+08; -4.3160208E+08;1;  6.1256301E-02;  2.4345233E+02;  0.0000000E+00;  4.0991814E-03;  1.0000000E+02;  0.0000000E+00;  8.9645111E+01;  5.0275594E-02;  0.0000000E+00;  1.0980707E-02;  0.0000000E+00;
  4.8416800E+00;  9.9999998E-03; -2.1212015E-01;508;  1.0547806E-01;  0.0000000E+00; -2.0670719E-03;  9.9877977E+00;  2.7021891E-01; -1.0850294E+00;3; -1.4270045E-03;  0.0000000E+00; -1.3102181E-03; -4.3160208E+08; -4.3160208E+08; -4.3160208E+08;1;  6.1165620E-02;  2.4372942E+02;  0.0000000E+00;  1.0713446E-03;  1.0000000E+02;  0.0000000E+00;  8.9682709E+01;  5.0154012E-02;  0.0000000E+00;  1.1011609E-02;  0.0000000E+00;
  5.0877266E+00;  9.9999998E-03; -4.2764291E-01;511;  1.1478820E-01;  0.0000000E+00; -5.5630188E-03;  9.9876938E+00;  2.6983386E-01; -1.0941311E+00;3; -2.8363013E-04;  0.0000000E+00;  1.7221909E-04; -4.3160208E+08; -4.3160208E+08; -4.3160208E+08;1;  6.0979083E-02;  2.4436079E+02;  0.0000000E+00; -6.3238535E-03;  1.0000000E+02;  0.0000000E+00;  8.9705742E+01;  4.9998127E-02;  0.0000000E+00;  1.0980954E-02;  0.0000000E+00;
  5.0897131E+00;  9.9999998E-03; -2.1745634E-01;513;  1.1715054E-01;  0.0000000E+00; -2.3639994E-03;  9.9878521E+00;  2.6933429E-01; -1.0800869E+00;3;  8.4201759E-04;  0.0000000E+00; -3.0087051E-04; -4.3160208E+08; -4.3160208E+08; -4.3160208E+08;1;  6.0186006E-02;  2.4513089E+02;  0.0000000E+00; -6.2778493E-04;  1.0000000E+02;  0.0000000E+00;  8.9758324E+01;  4.9370781E-02;  0.0000000E+00;  1.0815225E-02;  0.0000000E+00;
  4.5667624E+00;  9.9999998E-03; -1.0551200E+00;516;  8.6426683E-02;  0.0000000E+00; -1.1361911E-02;  9.9879322E+00;  2.6845631E-01; -1.0734279E+00;3; -1.0584325E-03;  0.0000000E+00; -9.0087071E-04; -4.3160208E+08; -4.3160208E+08; -4.3160208E+08;1;  5.9149444E-02;  2.4636830E+02;  0.0000000E+00;  2.6817294E-02;  1.0000000E+02;  0.0000000E+00;  8.9892487E+01;  4.8509046E-02;  0.0000000E+00;  1.0640398E-02;  0.0000000E+00;
  4.5696459E+00;  9.9999998E-03; -8.4494966E-01;518;  8.6703070E-02;  0.0000000E+00; -9.3068630E-03;  9.9878864E+00;  2.6847836E-01; -1.0775039E+00;3; -1.6517240E-03;  0.0000000E+00; -5.7794806E-04; -4.3160208E+08; -4.3160208E+08; -4.3160208E+08;1;  5.9393637E-02;  2.4633427E+02;  0.0000000E+00;  1.0306858E-02;  1.0000000E+02;  0.0000000E+00;  8.9890076E+01;  4.8688132E-02;  0.0000000E+00;  1.0705505E-02;  0.0000000E+00;
  4.5743451E+00;  9.9999998E-03; -6.3460761E-01;520;  8.7926552E-02;  0.0000000E+00; -7.1531124E-03;  9.9878473E+00;  2.6853344E-01; -1.0809928E+00;3; -1.8286072E-03;  0.0000000E+00; -6.5387366E-04; -4.3160208E+08; -4.3160208E+08; -4.3160208E+08;1;  5.9626732E-02;  2.4624716E+02;  0.0000000E+00;  2.9734129E-03;  1.0000000E+02;  0.0000000E+00;  8.9884460E+01;  4.8919685E-02;  0.0000000E+00;  1.0707048E-02;  0.0000000E+00;
  4.6975384E+00;  9.9999998E-03; -4.2344221E-01;523;  9.0288848E-02;  0.0000000E+00; -4.7956123E-03;  9.9878244E+00;  2.6887867E-01; -1.0827925E+00;3; -1.9716707E-03;  0.0000000E+00;  2.7635807E-04; -4.3160208E+08; -4.3160208E+08; -4.3160208E+08;1;  6.0575936E-02;  2.4573653E+02;  0.0000000E+00;  1.3615550E-03;  1.0000000E+02;  0.0000000E+00;  8.9839417E+01;  4.9699549E-02;  0.0000000E+00;  1.0876388E-02;  0.0000000E+00;
  4.7048855E+00;  9.9999998E-03; -2.0867975E-01;525;  9.2998371E-02;  0.0000000E+00; -1.9601027E-03;  9.9877977E+00;  2.6887345E-01; -1.0851680E+00;3; -1.8999469E-03;  0.0000000E+00; -5.3995528E-04; -4.3160208E+08; -4.3160208E+08; -4.3160208E+08;1;  6.0747050E-02;  2.4571089E+02;  0.0000000E+00;  5.8966089E-04;  1.0000000E+02;  0.0000000E+00;  8.9852455E+01;  4.9792025E-02;  0.0000000E+00;  1.0955025E-02;  0.0000000E+00;
  5.4000087E+00;  9.9999998E-03; -1.0525951E+00;527;  1.3934289E-01;  0.0000000E+00; -1.0922632E-02;  9.9871664E+00;  2.6762646E-01; -1.1409780E+00;3;  2.3924022E-03;  0.0000000E+00;  5.8130786E-04; -4.3160208E+08; -4.3160208E+08; -4.3160208E+08;1;  5.9636526E-02;  2.4763667E+02;  0.0000000E+00; -2.7987576E-01;  1.0000000E+02;  0.0000000E+00;  8.9978775E+01;  4.8851300E-02;  0.0000000E+00;  1.0785227E-02;  0.0000000E+00;
  5.3798528E+00;  9.9999998E-03; -8.4323496E-01;529;  1.2829873E-01;  0.0000000E+00; -8.9734206E-03;  9.9874067E+00;  2.6665929E-01; -1.1196239E+00;3; -1.1239435E-03;  0.0000000E+00; -4.4019372E-04; -4.3160208E+08; -4.3160208E+08; -4.3160208E+08;1;  5.8862295E-02;  2.4912137E+02;  0.0000000E+00;  1.5347603E-01;  1.0000000E+02;  0.0000000E+00;  9.0095001E+01;  4.8264075E-02;  0.0000000E+00;  1.0598219E-02;  0.0000000E+00;
  5.3759513E+00;  9.9999998E-03; -6.3439912E-01;531;  1.3557641E-01;  0.0000000E+00; -7.1929819E-03;  9.9875765E+00;  2.6589942E-01; -1.1045214E+00;3;  1.9733633E-03;  0.0000000E+00;  8.2751864E-04; -4.3160208E+08; -4.3160208E+08; -4.3160208E+08;1;  5.8132708E-02;  2.5030533E+02;  0.0000000E+00; -2.4281612E-02;  1.0000000E+02;  0.0000000E+00;  9.0184334E+01;  4.7657140E-02;  0.0000000E+00;  1.0475568E-02;  0.0000000E+00;
  5.3645511E+00;  9.9999998E-03; -4.2598704E-01;533;  1.3303612E-01;  0.0000000E+00; -5.8270013E-03;  9.9877863E+00;  2.6516622E-01; -1.0858691E+00;3;  1.2886502E-03;  0.0000000E+00; -1.0859823E-03; -4.3160208E+08; -4.3160208E+08; -4.3160208E+08;1;  5.7336327E-02;  2.5146008E+02;  0.0000000E+00; -6.9718055E-02;  1.0000000E+02;  0.0000000E+00;  9.0269997E+01;  4.6881821E-02;  0.0000000E+00;  1.0454507E-02;  0.0000000E+00;
  4.4469981E+00;  9.9999998E-03; -2.0804948E-01;536;  7.9091623E-02;  0.0000000E+00; -2.5148666E-03;  9.9876957E+00;  2.6619184E-01; -1.0948294E+00;3; -1.9098340E-03;  0.0000000E+00; -8.9213293E-04; -4.3160208E+08; -4.3160208E+08; -4.3160208E+08;1;  5.9093729E-02;  2.4970824E+02;  0.0000000E+00;  4.3805834E-04;  1.0000000E+02;  0.0000000E+00;  9.0203125E+01;  4.8466057E-02;  0.0000000E+00;  1.0627672E-02;  0.0000000E+00;
  5.3463306E+00;  9.9999998E-03; -2.1853651E-01;540;  1.2712422E-01;  0.0000000E+00; -3.4678462E-03;  9.9880075E+00;  2.6470649E-01; -1.0662106E+00;3;  5.7829259E-04;  0.0000000E+00;  3.0635405E-04; -4.3160208E+08; -4.3160208E+08; -4.3160208E+08;1;  5.6584060E-02;  2.5223370E+02;  0.0000000E+00; -3.0046148E-02;  1.0000000E+02;  0.0000000E+00;  9.0308960E+01;  4.6354756E-02;  0.0000000E+00;  1.0229306E-02;  0.0000000E+00;
  5.6251745E+00;  9.9999998E-03; -8.3769494E-01;560;  1.4148879E-01;  0.0000000E+00; -7.6533137E-03;  9.9877510E+00;  2.5885370E-01; -1.0889803E+00;3;  4.1162083E-03;  0.0000000E+00;  1.3442700E-04; -4.3160208E+08; -4.3160208E+08; -4.3160208E+08;1;  5.2067511E-02;  2.6156711E+02;  0.0000000E+00;  9.9429823E-02;  1.0000000E+02;  0.0000000E+00;  9.1065514E+01;  4.2715658E-02;  0.0000000E+00;  9.3518523E-03;  0.0000000E+00;
  5.6068778E+00;  9.9999998E-03; -1.0466608E+00;562;  1.4176248E-01;  0.0000000E+00; -9.7106546E-03;  9.9874973E+00;  2.5892183E-01; -1.1115556E+00;3;  3.7523173E-03;  0.0000000E+00;  1.3243345E-03; -4.3160208E+08; -4.3160208E+08; -4.3160208E+08;1;  5.3607769E-02;  2.6144455E+02;  0.0000000E+00; -2.2712900E-01;  1.0000000E+02;  0.0000000E+00;  9.1056313E+01;  4.3960150E-02;  0.0000000E+00;  9.6476199E-03;  0.0000000E+00;
  5.6360426E+00;  9.9999998E-03; -6.2880695E-01;564;  1.5048993E-01;  0.0000000E+00; -5.9719724E-03;  9.9878712E+00;  2.5794876E-01; -1.0783287E+00;3;  3.3627774E-03;  0.0000000E+00;  2.4838152E-04; -4.3160208E+08; -4.3160208E+08; -4.3160208E+08;1;  5.1278509E-02;  2.6306107E+02;  0.0000000E+00; -1.5833032E-01;  1.0000000E+02;  0.0000000E+00;  9.1186249E+01;  4.1978162E-02;  0.0000000E+00;  9.3003474E-03;  0.0000000E+00;
  5.6559501E+00;  9.9999998E-03; -4.2066437E-01;570;  1.5302591E-01;  0.0000000E+00; -3.9911233E-03;  9.9882669E+00;  2.5682524E-01; -1.0431416E+00;3;  5.7037221E-04;  0.0000000E+00; -3.1001054E-04; -4.3160208E+08; -4.3160208E+08; -4.3160208E+08;1;  4.9108982E-02;  2.6497766E+02;  0.0000000E+00; -6.0630921E-02;  1.0000000E+02;  0.0000000E+00;  9.1326538E+01;  4.0225659E-02;  0.0000000E+00;  8.8833217E-03;  0.0000000E+00;
  5.6360183E+00;  9.9999998E-03; -2.1266766E-01;578;  1.4312387E-01;  0.0000000E+00; -2.9472606E-03;  9.9884510E+00;  2.5588518E-01; -1.0267677E+00;3; -1.9346933E-03;  0.0000000E+00;  9.4169902E-04; -4.3160208E+08; -4.3160208E+08; -4.3160208E+08;1;  4.8825897E-02;  2.6662372E+02;  0.0000000E+00; -6.6075355E-02;  1.0000000E+02;  0.0000000E+00;  9.1433472E+01;  3.9940115E-02;  0.0000000E+00;  8.8857813E-03;  0.0000000E+00;
  5.8659406E+00;  9.9999998E-03; -8.3141965E-01;590;  1.5223406E-01;  0.0000000E+00; -6.2013739E-03;  9.9879217E+00;  2.5015306E-01; -1.0738196E+00;3;  2.9800090E-03;  0.0000000E+00;  1.4233098E-03; -4.3160208E+08; -4.3160208E+08; -4.3160208E+08;1;  4.4335965E-02;  2.7664587E+02;  0.0000000E+00; -6.1165817E-02;  1.0000000E+02;  0.0000000E+00;  9.2199036E+01;  3.6399450E-02;  0.0000000E+00;  7.9365149E-03;  0.0000000E+00;
  5.8704538E+00;  9.9999998E-03; -6.2253785E-01;595;  1.5575688E-01;  0.0000000E+00; -4.6135304E-03;  9.9880047E+00;  2.4894594E-01; -1.0664538E+00;3;  1.8496534E-03;  0.0000000E+00;  2.3723848E-04; -4.3160208E+08; -4.3160208E+08; -4.3160208E+08;1;  4.3922421E-02;  2.7879190E+02;  0.0000000E+00; -3.3952865E-01;  1.0000000E+02;  0.0000000E+00;  9.2378944E+01;  3.5967827E-02;  0.0000000E+00;  7.9545937E-03;  0.0000000E+00;
  5.8399425E+00;  9.9999998E-03; -1.0393409E+00;597;  1.4640237E-01;  0.0000000E+00; -7.9968460E-03;  9.9881802E+00;  2.4854460E-01; -1.0508217E+00;3;  1.6279433E-04;  0.0000000E+00;  1.6259644E-03; -4.3160208E+08; -4.3160208E+08; -4.3160208E+08;1;  4.4161227E-02;  2.7960501E+02;  0.0000000E+00;  1.4407295E-01;  1.0000000E+02;  0.0000000E+00;  9.2411125E+01;  3.6266308E-02;  0.0000000E+00;  7.8949183E-03;  0.0000000E+00;
  5.8787570E+00;  9.9999998E-03; -4.1494900E-01;599;  1.5795873E-01;  0.0000000E+00; -3.0086623E-03;  9.9883175E+00;  2.4800143E-01; -1.0386331E+00;3;  4.2234906E-03;  0.0000000E+00;  1.1889070E-03; -4.3160208E+08; -4.3160208E+08; -4.3160208E+08;1;  4.2511608E-02;  2.8057077E+02;  0.0000000E+00; -3.9229545E-01;  1.0000000E+02;  0.0000000E+00;  9.2500885E+01;  3.4825470E-02;  0.0000000E+00;  7.6861382E-03;  0.0000000E+00;
  5.8684793E+00;  9.9999998E-03; -2.0631371E-01;603;  1.4876068E-01;  0.0000000E+00;  6.1300598E-05;  9.9888725E+00;  2.4658260E-01; -9.8929822E-01;3; -1.5390199E-04;  0.0000000E+00;  4.0404964E-05; -4.3160208E+08; -4.3160208E+08; -4.3160208E+08;1;  4.0803526E-02;  2.8321432E+02;  0.0000000E+00; -2.0268296E-01;  1.0000000E+02;  0.0000000E+00;  9.2702187E+01;  3.3581641E-02;  0.0000000E+00;  7.2218850E-03;  0.0000000E+00;
  5.9586592E+00;  9.9999998E-03; -1.0385994E+00;451;  1.5113825E-01;  0.0000000E+00; -7.3239170E-03;  9.9881706E+00;  2.4763903E-01; -1.0516683E+00;3;  3.7678606E-03;  0.0000000E+00;  1.4398172E-03;  0.0000000E+00;  0.0000000E+00;  0.0000000E+00;1;  4.0361624E-02;  2.8126791E+02;  0.0000000E+00;  1.4804912E-01;  1.0000000E+02;  0.0000000E+00;  9.2537498E+01;  3.3052325E-02;  0.0000000E+00;  7.3092990E-03;  0.0000000E+00;
  5.9833260E+00;  9.9999998E-03; -8.3068413E-01;452;  1.5392716E-01;  0.0000000E+00; -5.3614401E-03;  9.9881773E+00;  2.4900645E-01; -1.0510852E+00;3;  3.9363410E-03;  0.0000000E+00;  1.5411206E-03;  0.0000000E+00;  0.0000000E+00;  0.0000000E+00;1;  3.9433125E-02;  2.7874609E+02;  0.0000000E+00; -2.9820554E-02;  1.0000000E+02;  0.0000000E+00;  9.2353470E+01;  3.2449290E-02;  0.0000000E+00;  6.9838348E-03;  0.0000000E+00;
  5.9876146E+00;  9.9999998E-03; -6.2216395E-01;453;  1.5721668E-01;  0.0000000E+00; -3.7542887E-03;  9.9880447E+00;  2.4808791E-01; -1.0629021E+00;3;  5.9613101E-03;  0.0000000E+00;  3.3737007E-03;  0.0000000E+00;  0.0000000E+00;  0.0000000E+00;1;  3.9725166E-02;  2.8037695E+02;  0.0000000E+00; -3.1653196E-01;  1.0000000E+02;  0.0000000E+00;  9.2493263E+01;  3.2696977E-02;  0.0000000E+00;  7.0281872E-03;  0.0000000E+00;
  5.9855351E+00;  9.9999998E-03; -2.0623724E-01;455;  1.5110251E-01;  0.0000000E+00;  1.8013701E-04;  9.9890118E+00;  2.4587591E-01; -9.7689706E-01;3;  3.5017435E-03;  0.0000000E+00;  3.7854956E-04;  0.0000000E+00;  0.0000000E+00;  0.0000000E+00;1;  3.6616214E-02;  2.8458823E+02;  0.0000000E+00; -1.9695090E-01;  1.0000000E+02;  0.0000000E+00;  9.2789551E+01;  3.0063977E-02;  0.0000000E+00;  6.5522366E-03;  0.0000000E+00;
  5.9952941E+00;  9.9999998E-03; -4.1471136E-01;454;  1.5832467E-01;  0.0000000E+00; -2.6409461E-03;  9.9882469E+00;  2.4726841E-01; -1.0448850E+00;3;  2.9721488E-03;  0.0000000E+00; -2.3336043E-03;  0.0000000E+00;  0.0000000E+00;  0.0000000E+00;1;  3.8856335E-02;  2.8191870E+02;  0.0000000E+00; -3.7908241E-01;  1.0000000E+02;  0.0000000E+00;  9.2604042E+01;  3.1782612E-02;  0.0000000E+00;  7.0737223E-03;  0.0000000E+00;
  6.1253772E+00;  9.9999998E-03; -1.0313238E+00;462;  1.5503369E-01;  0.0000000E+00; -6.0880426E-03;  9.9882021E+00;  4.7631052E-01; -1.0489117E+00;3;  6.3611800E-03;  0.0000000E+00;  4.9319873E-03;  0.0000000E+00;  0.0000000E+00;  0.0000000E+00;0;  3.4009755E-02;  7.4955681E+01;  0.0000000E+00; -3.5236306E-02;  1.0000000E+02;  0.0000000E+00;  9.3862488E+01;  2.7907986E-02;  0.0000000E+00;  6.1017671E-03;  0.0000000E+00;
  6.1322317E+00;  9.9999998E-03; -8.2329381E-01;463;  1.5535599E-01;  0.0000000E+00; -4.3151281E-03;  9.9886599E+00;  4.7541717E-01; -1.0082144E+00;3;  3.9300718E-03;  0.0000000E+00;  2.1705548E-03;  0.0000000E+00;  0.0000000E+00;  0.0000000E+00;0;  3.2450214E-02;  7.5197701E+01;  0.0000000E+00; -1.1886016E-02;  1.0000000E+02;  0.0000000E+00;  9.3921074E+01;  2.6642649E-02;  0.0000000E+00;  5.8075637E-03;  0.0000000E+00;
  6.1424356E+00;  9.9999998E-03; -2.0193283E-01;466;  1.5881437E-01;  0.0000000E+00; -9.3916798E-04;  9.9883375E+00;  4.7429481E-01; -1.0368295E+00;3;  4.5979992E-03;  0.0000000E+00;  7.1023963E-04;  0.0000000E+00;  0.0000000E+00;  0.0000000E+00;0;  3.3087190E-02;  7.5500175E+01;  0.0000000E+00;  4.2507879E-02;  1.0000000E+02;  0.0000000E+00;  9.3981827E+01;  2.7115351E-02;  0.0000000E+00;  5.9718387E-03;  0.0000000E+00;
  6.1435599E+00;  9.9999998E-03; -6.1633927E-01;464;  1.5906641E-01;  0.0000000E+00; -3.2021385E-03;  9.9878387E+00;  4.7757500E-01; -1.0811833E+00;3;  6.3802497E-03;  0.0000000E+00;  2.0241630E-03;  0.0000000E+00;  0.0000000E+00;  0.0000000E+00;0;  3.4435995E-02;  7.4636391E+01;  0.0000000E+00;  5.5509605E-02;  1.0000000E+02;  0.0000000E+00;  9.3760139E+01;  2.8163325E-02;  0.0000000E+00;  6.2726680E-03;  0.0000000E+00;
  6.1441112E+00;  9.9999998E-03; -4.0897945E-01;465;  1.5948761E-01;  0.0000000E+00; -1.9625528E-03;  9.9880295E+00;  4.7590852E-01; -1.0642260E+00;3;  6.5634279E-03;  0.0000000E+00;  2.4983897E-03;  0.0000000E+00;  0.0000000E+00;  0.0000000E+00;0;  3.3897042E-02;  7.5069656E+01;  0.0000000E+00;  9.1636010E-02;  1.0000000E+02;  0.0000000E+00;  9.3875618E+01;  2.7734736E-02;  0.0000000E+00;  6.1623058E-03;  0.0000000E+00;
  6.3457899E+00;  9.9999998E-03; -4.0150246E-01;475;  1.5914689E-01;  0.0000000E+00; -5.4704701E-04;  9.9884109E+00;  4.5263952E-01; -1.0303111E+00;3;  7.0534353E-03;  0.0000000E+00;  3.3750394E-03;  0.0000000E+00;  0.0000000E+00;  0.0000000E+00;0;  2.4587359E-02;  8.1486679E+01;  0.0000000E+00;  7.8061596E-02;  1.0000000E+02;  0.0000000E+00;  9.5611336E+01;  2.0095542E-02;  0.0000000E+00;  4.4918167E-03;  0.0000000E+00;
  6.3445940E+00;  9.9999998E-03; -6.0860014E-01;474;  1.5832978E-01;  0.0000000E+00; -1.6258444E-03;  9.9888973E+00;  4.5257762E-01; -9.8707014E-01;3;  6.4687119E-03;  0.0000000E+00;  3.6122412E-03;  0.0000000E+00;  0.0000000E+00;  0.0000000E+00;0;  2.3559410E-02;  8.1493378E+01;  0.0000000E+00; -4.4069480E-02;  1.0000000E+02;  0.0000000E+00;  9.5636887E+01;  1.9268807E-02;  0.0000000E+00;  4.2906026E-03;  0.0000000E+00;
  6.3512058E+00;  9.9999998E-03; -8.1754702E-01;473;  1.5986413E-01;  0.0000000E+00; -3.3952969E-03;  9.9874382E+00;  4.5926997E-01; -1.1167930E+00;3;  3.1366902E-03;  0.0000000E+00;  1.9248319E-04;  0.0000000E+00;  0.0000000E+00;  0.0000000E+00;0;  2.6352160E-02;  7.9539330E+01;  0.0000000E+00; -6.1525725E-02;  1.0000000E+02;  0.0000000E+00;  9.5128113E+01;  2.1528549E-02;  0.0000000E+00;  4.8236102E-03;  0.0000000E+00;
  6.3564658E+00;  9.9999998E-03; -1.9929604E-01;476;  1.5987450E-01;  0.0000000E+00;  1.6040989E-04;  9.9879141E+00;  4.5750201E-01; -1.0745059E+00;3;  4.9365209E-03;  0.0000000E+00;  9.0746209E-05;  0.0000000E+00;  0.0000000E+00;  0.0000000E+00;0;  2.5096666E-02;  8.0096558E+01;  0.0000000E+00;  3.4230843E-02;  1.0000000E+02;  0.0000000E+00;  9.5206329E+01;  2.0486174E-02;  0.0000000E+00;  4.6104915E-03;  0.0000000E+00;
  6.5571232E+00;  9.9999998E-03; -3.9904764E-01;483;  1.6008899E-01;  0.0000000E+00;  3.7008981E-04;  9.9878159E+00;  4.3657202E-01; -1.0832492E+00;3;  6.4511900E-03;  0.0000000E+00;  6.5465271E-04;  0.0000000E+00;  0.0000000E+00;  0.0000000E+00;0;  1.5886193E-02;  8.6457436E+01;  0.0000000E+00; -1.3513279E-01;  1.0000000E+02;  0.0000000E+00;  9.6861870E+01;  1.2967279E-02;  0.0000000E+00;  2.9189140E-03;  0.0000000E+00;
  6.5663171E+00;  9.9999998E-03; -6.0751158E-01;482;  1.6162013E-01;  0.0000000E+00; -2.1958617E-03;  9.9840517E+00;  4.4524896E-01; -1.4178896E+00;3;  7.1662627E-03;  0.0000000E+00; -4.1822344E-03;  0.0000000E+00;  0.0000000E+00;  0.0000000E+00;0;  1.9921130E-02;  8.3639168E+01;  0.0000000E+00; -1.0017283E-01;  1.0000000E+02;  0.0000000E+00;  9.6195343E+01;  1.5230394E-02;  0.0000000E+00;  4.6907356E-03;  0.0000000E+00;
  6.5653415E+00;  9.9999998E-03; -1.9718899E-01;484;  1.6156748E-01;  0.0000000E+00;  7.9209573E-04;  9.9856701E+00;  4.4189748E-01; -1.2740180E+00;3;  6.6318950E-03;  0.0000000E+00;  4.1235983E-04;  0.0000000E+00;  0.0000000E+00;  0.0000000E+00;0;  1.8228004E-02;  8.4777962E+01;  0.0000000E+00; -2.0284221E-02;  1.0000000E+02;  0.0000000E+00;  9.6377319E+01;  1.4847282E-02;  0.0000000E+00;  3.3807210E-03;  0.0000000E+00;
  6.7718110E+00;  9.9999998E-03; -4.0114361E-01;489;  1.6486539E-01;  0.0000000E+00; -9.7995340E-05;  9.9630747E+00;  4.3041760E-01; -3.2828138E+00;3;  4.8296489E-03;  0.0000000E+00;  7.8724436E-03;  0.0000000E+00;  0.0000000E+00;  0.0000000E+00;0;  1.6852271E-02;  8.8237556E+01;  0.0000000E+00; -1.6359007E-01;  1.0000000E+02;  0.0000000E+00;  9.7185585E+01;  1.4229705E-02;  0.0000000E+00;  2.6225660E-03;  0.0000000E+00;
  6.7692313E+00;  9.9999998E-03; -1.9558890E-01;490;  1.6308527E-01;  0.0000000E+00;  7.3181366E-04;  9.9698744E+00;  4.2699179E-01; -2.6782885E+00;3;  7.2108433E-03;  0.0000000E+00; -8.8543072E-04;  0.0000000E+00;  0.0000000E+00;  0.0000000E+00;0;  1.3385694E-02;  8.9542809E+01;  0.0000000E+00; -1.3062012E-01;  1.0000000E+02;  0.0000000E+00;  9.7437050E+01;  1.0844877E-02;  0.0000000E+00;  2.5408170E-03;  0.0000000E+00;
  1.5808454E-04;  9.9999998E-03; -2.6937425E-10;170;  2.4445428E-04;  0.0000000E+00; -4.1773793E-10;  9.9990187E+00;  3.9997002E-01; -1.0556048E-01;3;  1.6731502E-02;  0.0000000E+00;  8.8209777E-09;  0.0000000E+00;  0.0000000E+00;  0.0000000E+00;0;  5.5175115E-05;  9.9987961E+01;  0.0000000E+00;  1.9196103E-16;  1.0000000E+02;  0.0000000E+00;  1.0000816E+02;  5.4963850E-05;  0.0000000E+00;  2.1126330E-07;  0.0000000E+00;
  1.0923381E-04;  9.9999998E-03;  2.0002830E-01;171;  2.2880029E-04;  0.0000000E+00;  1.3294814E-05;  9.9989548E+00;  3.9998424E-01; -1.1248668E-01;3;  1.6149413E-02;  0.0000000E+00;  2.0167828E-03;  0.0000000E+00;  0.0000000E+00;  0.0000000E+00;0;  6.0758073E-05;  9.9981621E+01;  0.0000000E+00;  2.2131667E-06;  1.0000000E+02;  0.0000000E+00;  1.0000815E+02;  6.0818042E-05;  0.0000000E+00; -5.9969011E-08;  0.0000000E+00;
 -2.2254999E-05;  9.9999998E-03;  4.0007719E-01;172;  1.8527301E-04;  0.0000000E+00;  3.7476686E-05;  9.9987965E+00;  4.0001309E-01; -1.2948154E-01;3;  1.5244283E-02;  0.0000000E+00;  6.1557321E-03;  0.0000000E+00;  0.0000000E+00;  0.0000000E+00;0;  7.5437521E-05;  9.9965569E+01;  0.0000000E+00;  6.1117898E-06;  1.0000000E+02;  0.0000000E+00;  1.0000729E+02;  7.6422795E-05;  0.0000000E+00; -9.8527335E-07;  0.0000000E+00;
 -2.2023539E-04;  9.9999998E-03;  6.0017908E-01;173;  1.2282519E-04;  0.0000000E+00;  7.0823669E-05;  9.9988050E+00;  4.0004385E-01; -1.2858370E-01;3;  1.3877872E-02;  0.0000000E+00;  1.4775645E-02;  0.0000000E+00;  0.0000000E+00;  0.0000000E+00;0;  9.4291529E-05;  9.9944328E+01;  0.0000000E+00; -4.1213579E-07;  1.0000000E+02;  0.0000000E+00;  9.9998749E+01;  9.6623153E-05;  0.0000000E+00; -2.3316261E-06;  0.0000000E+00;
 -3.6328519E-04;  9.9999998E-03;  8.0021691E-01;174;  7.5874923E-05;  0.0000000E+00;  7.6797922E-05;  9.9987917E+00;  4.0007842E-01; -1.2999459E-01;3;  1.3753323E-02;  0.0000000E+00;  2.0997571E-02;  0.0000000E+00;  0.0000000E+00;  0.0000000E+00;0;  1.1063591E-04;  9.9926323E+01;  0.0000000E+00; -2.3779998E-05;  1.0000000E+02;  0.0000000E+00;  1.0000000E+02;  1.1302187E-04;  0.0000000E+00; -2.3859702E-06;  0.0000000E+00;
 -4.7140432E-04;  9.9999998E-03;  1.0001956E+00;175;  2.8646966E-05;  0.0000000E+00;  5.8842303E-05;  9.9987268E+00;  4.0010089E-01; -1.3698493E-01;3;  1.1490298E-02;  0.0000000E+00;  1.3654836E-02;  0.0000000E+00;  0.0000000E+00;  0.0000000E+00;0;  1.1799221E-04;  9.9918304E+01;  0.0000000E+00; -3.1105719E-05;  1.0000000E+02;  0.0000000E+00;  9.9998260E+01;  1.1729939E-04;  0.0000000E+00;  6.9281668E-07;  0.0000000E+00;
  1.9981912E-01;  9.9999998E-03; -7.5966011E-10;181;  1.7430655E-04;  0.0000000E+00; -9.2912622E-10;  9.9984617E+00;  4.0041083E-01; -1.6552329E-01;3;  3.4172487E-02;  0.0000000E+00;  1.0337473E-07;  0.0000000E+00;  0.0000000E+00;  0.0000000E+00;0;  1.2404716E-04;  9.9746506E+01;  0.0000000E+00; -7.4615794E-16;  1.0000000E+02;  0.0000000E+00;  1.0001369E+02;  1.3158073E-04;  0.0000000E+00; -7.5335738E-06;  0.0000000E+00;
  1.9977127E-01;  9.9999998E-03;  1.9998480E-01;182;  1.5804174E-04;  0.0000000E+00;  2.5419392E-06;  9.9984274E+00;  4.0042615E-01; -1.6917878E-01;3;  3.2654088E-02;  0.0000000E+00;  7.0470474E-03;  0.0000000E+00;  0.0000000E+00;  0.0000000E+00;0;  1.3557108E-04;  9.9737762E+01;  0.0000000E+00; -8.2464376E-06;  1.0000000E+02;  0.0000000E+00;  1.0001254E+02;  1.4293479E-04;  0.0000000E+00; -7.3636988E-06;  0.0000000E+00;
  1.9964297E-01;  9.9999998E-03;  3.9998078E-01;183;  1.1461630E-04;  0.0000000E+00;  1.2017536E-05;  9.9982166E+00;  4.0046555E-01; -1.9188131E-01;3;  2.9673297E-02;  0.0000000E+00;  1.5830399E-02;  0.0000000E+00;  0.0000000E+00;  0.0000000E+00;0;  1.6623072E-04;  9.9716728E+01;  0.0000000E+00; -5.6045115E-05;  1.0000000E+02;  0.0000000E+00;  1.0001201E+02;  1.7310239E-04;  0.0000000E+00; -6.8716704E-06;  0.0000000E+00;
  1.9946639E-01;  9.9999998E-03;  6.0001349E-01;184;  5.5679917E-05;  0.0000000E+00;  3.4497953E-05;  9.9978504E+00;  4.0050757E-01; -2.3125802E-01;3;  2.6167413E-02;  0.0000000E+00;  2.5907708E-02;  0.0000000E+00;  0.0000000E+00;  0.0000000E+00;0;  2.0508800E-04;  9.9696350E+01;  0.0000000E+00; -1.5323142E-04;  1.0000000E+02;  0.0000000E+00;  1.0000382E+02;  2.1071575E-04;  0.0000000E+00; -5.6277549E-06;  0.0000000E+00;
  1.9940393E-01;  9.9999998E-03;  7.9998630E-01;185;  3.7343612E-05;  0.0000000E+00;  3.1141048E-05;  9.9977226E+00;  4.0051031E-01; -2.4504629E-01;3;  1.9760426E-02;  0.0000000E+00;  3.0721553E-02;  0.0000000E+00;  0.0000000E+00;  0.0000000E+00;0;  2.3798652E-04;  9.9690781E+01;  0.0000000E+00; -1.9274592E-04;  1.0000000E+02;  0.0000000E+00;  9.9999870E+01;  2.4068580E-04;  0.0000000E+00; -2.6992793E-06;  0.0000000E+00;
  1.9941504E-01;  9.9999998E-03;  9.9989277E-01;186;  5.1669773E-05;  0.0000000E+00;  4.9873938E-06;  9.9977932E+00;  4.0048370E-01; -2.3741464E-01;3;  1.4598060E-02;  0.0000000E+00;  2.5005691E-02;  0.0000000E+00;  0.0000000E+00;  0.0000000E+00;0;  2.5060290E-04;  9.9710587E+01;  0.0000000E+00;  2.3503881E-05;  1.0000000E+02;  0.0000000E+00;  1.0000108E+02;  2.4894634E-04;  0.0000000E+00;  1.6565664E-06;  0.0000000E+00;
  3.9955997E-01;  9.9999998E-03; -8.8168856E-10;192;  1.2779438E-04;  0.0000000E+00; -1.4340238E-09;  9.9966373E+00;  4.0134761E-01; -3.6182889E-01;3; -8.1687300E-03;  0.0000000E+00;  1.0666698E-07;  0.0000000E+00;  0.0000000E+00;  0.0000000E+00;0;  4.2355637E-04;  9.9245300E+01;  0.0000000E+00; -1.9658222E-18;  1.0000000E+02;  0.0000000E+00;  1.0001308E+02;  4.3682192E-04;  0.0000000E+00; -1.3265568E-05;  0.0000000E+00;
  3.9951468E-01;  9.9999998E-03;  1.9994129E-01;193;  1.1050397E-04;  0.0000000E+00; -9.9840117E-06;  9.9966116E+00;  4.0136132E-01; -3.6458653E-01;3; -8.4029967E-03;  0.0000000E+00;  2.1251865E-02;  0.0000000E+00;  0.0000000E+00;  0.0000000E+00;0;  4.3717178E-04;  9.9236031E+01;  0.0000000E+00; -8.0775979E-05;  1.0000000E+02;  0.0000000E+00;  1.0001309E+02;  4.5017590E-04;  0.0000000E+00; -1.3004109E-05;  0.0000000E+00;
  3.9937770E-01;  9.9999998E-03;  3.9989248E-01;194;  5.9398557E-05;  0.0000000E+00; -1.5577174E-05;  9.9964476E+00;  4.0139937E-01; -3.8222265E-01;3; -7.9990150E-03;  0.0000000E+00;  4.8417863E-02;  0.0000000E+00;  0.0000000E+00;  0.0000000E+00;0;  4.7301996E-04;  9.9215767E+01;  0.0000000E+00; -3.5584869E-04;  1.0000000E+02;  0.0000000E+00;  1.0001324E+02;  4.8500023E-04;  0.0000000E+00; -1.1980264E-05;  0.0000000E+00;
  3.9923733E-01;  9.9999998E-03;  5.9982055E-01;195;  2.0206610E-07;  0.0000000E+00; -2.5188314E-05;  9.9962025E+00;  4.0142912E-01; -4.0858063E-01;3; -7.6543801E-03;  0.0000000E+00;  8.2201138E-02;  0.0000000E+00;  0.0000000E+00;  0.0000000E+00;0;  5.1636709E-04;  9.9203064E+01;  0.0000000E+00; -5.7614560E-04;  1.0000000E+02;  0.0000000E+00;  1.0001398E+02;  5.2590400E-04;  0.0000000E+00; -9.5368996E-06;  0.0000000E+00;
  3.9925683E-01;  9.9999998E-03;  7.9968327E-01;196; -1.8590036E-06;  0.0000000E+00; -5.9018665E-05;  9.9960756E+00;  4.0139502E-01; -4.2224059E-01;3; -1.0539513E-02;  0.0000000E+00;  1.1603370E-01;  0.0000000E+00;  0.0000000E+00;  0.0000000E+00;0;  5.4626499E-04;  9.9221939E+01;  0.0000000E+00;  5.6995104E-05;  1.0000000E+02;  0.0000000E+00;  9.9999763E+01;  5.5237551E-04;  0.0000000E+00; -6.1105384E-06;  0.0000000E+00;
  3.9957023E-01;  9.9999998E-03;  9.9955064E-01;197;  1.1133582E-04;  0.0000000E+00; -1.0624886E-04;  9.9962606E+00;  4.0126580E-01; -4.0235987E-01;3; -1.4696497E-02;  0.0000000E+00;  1.4433679E-01;  0.0000000E+00;  0.0000000E+00;  0.0000000E+00;0;  5.4697128E-04;  9.9288246E+01;  0.0000000E+00;  2.0550077E-03;  1.0000000E+02;  0.0000000E+00;  1.0000108E+02;  5.5254233E-04;  0.0000000E+00; -5.5710480E-06;  0.0000000E+00;
  5.9942245E-01;  9.9999998E-03; -1.0954806E-09;203;  1.0137539E-04;  0.0000000E+00; -1.7676957E-09;  9.9939671E+00;  4.0290999E-01; -6.4913404E-01;3;  1.7645285E-03;  0.0000000E+00;  6.5076556E-08;  0.0000000E+00;  0.0000000E+00;  0.0000000E+00;0;  1.1137570E-03;  9.8433136E+01;  0.0000000E+00; -1.7476662E-15;  1.0000000E+02;  0.0000000E+00;  1.0000594E+02;  1.1248880E-03;  0.0000000E+00; -1.1130921E-05;  0.0000000E+00;
  5.9937096E-01;  9.9999998E-03;  1.9992059E-01;204;  7.8613193E-05;  0.0000000E+00; -1.7889579E-05;  9.9939337E+00;  4.0292507E-01; -6.5272534E-01;3;  3.4966129E-03;  0.0000000E+00;  2.2382457E-02;  0.0000000E+00;  0.0000000E+00;  0.0000000E+00;0;  1.1220285E-03;  9.8424355E+01;  0.0000000E+00; -2.5824099E-04;  1.0000000E+02;  0.0000000E+00;  1.0000645E+02;  1.1334538E-03;  0.0000000E+00; -1.1425371E-05;  0.0000000E+00;
  5.9919965E-01;  9.9999998E-03;  3.9983812E-01;205;  4.6449063E-06;  0.0000000E+00; -3.6321886E-05;  9.9938288E+00;  4.0295482E-01; -6.6401243E-01;3;  1.0228496E-02;  0.0000000E+00;  5.3908892E-02;  0.0000000E+00;  0.0000000E+00;  0.0000000E+00;0;  1.1426854E-03;  9.8406990E+01;  0.0000000E+00; -8.7373290E-04;  1.0000000E+02;  0.0000000E+00;  1.0000890E+02;  1.1546115E-03;  0.0000000E+00; -1.1926037E-05;  0.0000000E+00;
  5.9902906E-01;  9.9999998E-03;  5.9967613E-01;206; -7.5234537E-05;  0.0000000E+00; -8.2850995E-05;  9.9938135E+00;  4.0294984E-01; -6.6561568E-01;3;  1.9766301E-02;  0.0000000E+00;  1.0141907E-01;  0.0000000E+00;  0.0000000E+00;  0.0000000E+00;0;  1.1593383E-03;  9.8405327E+01;  0.0000000E+00; -3.4218968E-04;  1.0000000E+02;  0.0000000E+00;  1.0001109E+02;  1.1728655E-03;  0.0000000E+00; -1.3527195E-05;  0.0000000E+00;
  5.9901619E-01;  9.9999998E-03;  7.9942417E-01;207; -1.0865346E-04;  0.0000000E+00; -1.5900716E-04;  9.9939861E+00;  4.0284473E-01; -6.4708185E-01;3;  4.1082203E-02;  0.0000000E+00;  1.6441233E-01;  0.0000000E+00;  0.0000000E+00;  0.0000000E+00;0;  1.1404369E-03;  9.8456795E+01;  0.0000000E+00;  4.6754265E-03;  1.0000000E+02;  0.0000000E+00;  1.0001389E+02;  1.1600482E-03;  0.0000000E+00; -1.9611311E-05;  0.0000000E+00;
  5.9962553E-01;  9.9999998E-03;  9.9926376E-01;208;  5.7534071E-05;  0.0000000E+00; -2.0679229E-04;  9.9943409E+00;  4.0259036E-01; -6.0885972E-01;3;  7.3890828E-02;  0.0000000E+00;  2.2190031E-01;  0.0000000E+00;  0.0000000E+00;  0.0000000E+00;0;  1.0872040E-03;  9.8579643E+01;  0.0000000E+00;  1.4682903E-02;  1.0000000E+02;  0.0000000E+00;  1.0002388E+02;  1.1175467E-03;  0.0000000E+00; -3.0342708E-05;  0.0000000E+00;
  7.9941672E-01;  9.9999998E-03; -1.2350240E-09;214;  8.5663538E-05;  0.0000000E+00; -1.7588730E-09;  9.9910221E+00;  4.0507638E-01; -9.6593064E-01;3;  1.5180943E-03;  0.0000000E+00;  4.6276249E-08;  0.0000000E+00;  0.0000000E+00;  0.0000000E+00;0;  2.2523466E-03;  9.7343712E+01;  0.0000000E+00;  2.3450795E-15;  1.0000000E+02;  0.0000000E+00;  9.9989334E+01;  2.2499813E-03;  0.0000000E+00;  2.3653693E-06;  0.0000000E+00;
  7.9930663E-01;  9.9999998E-03;  1.9995983E-01;215;  4.9977738E-05;  0.0000000E+00; -1.0028520E-05;  9.9910440E+00;  4.0508997E-01; -9.6362197E-01;3;  5.0617526E-03;  0.0000000E+00;  1.8772731E-02;  0.0000000E+00;  0.0000000E+00;  0.0000000E+00;0;  2.2469067E-03;  9.7335548E+01;  0.0000000E+00; -4.0524115E-04;  1.0000000E+02;  0.0000000E+00;  9.9989700E+01;  2.2457743E-03;  0.0000000E+00;  1.1324466E-06;  0.0000000E+00;
  7.9907823E-01;  9.9999998E-03;  3.9991316E-01;216; -5.3807649E-05;  0.0000000E+00; -2.3451621E-05;  9.9911070E+00;  4.0512210E-01; -9.5682424E-01;3;  1.7672366E-02;  0.0000000E+00;  4.7473367E-02;  0.0000000E+00;  0.0000000E+00;  0.0000000E+00;0;  2.2307036E-03;  9.7319702E+01;  0.0000000E+00; -7.2228187E-04;  1.0000000E+02;  0.0000000E+00;  9.9994034E+01;  2.2326475E-03;  0.0000000E+00; -1.9438689E-06;  0.0000000E+00;
  7.9884440E-01;  9.9999998E-03;  5.9976906E-01;217; -1.9454566E-04;  0.0000000E+00; -7.4512711E-05;  9.9912910E+00;  4.0509656E-01; -9.3700796E-01;3;  4.9450766E-02;  0.0000000E+00;  9.6714757E-02;  0.0000000E+00;  0.0000000E+00;  0.0000000E+00;0;  2.1858579E-03;  9.7326324E+01;  0.0000000E+00;  4.0480634E-03;  1.0000000E+02;  0.0000000E+00;  1.0000020E+02;  2.1967364E-03;  0.0000000E+00; -1.0878524E-05;  0.0000000E+00;
  7.9894871E-01;  9.9999998E-03;  7.9969329E-01;218; -2.2231304E-04;  0.0000000E+00; -9.2819748E-05;  9.9916782E+00;  4.0492621E-01; -8.9538741E-01;3;  1.4221394E-01;  0.0000000E+00;  1.4443989E-01;  0.0000000E+00;  0.0000000E+00;  0.0000000E+00;0;  2.0924443E-03;  9.7402237E+01;  0.0000000E+00;  2.2797069E-02;  1.0000000E+02;  0.0000000E+00;  1.0001120E+02;  2.1120396E-03;  0.0000000E+00; -1.9595365E-05;  0.0000000E+00;
  8.0264723E-01;  9.9999998E-03;  1.0000778E+00;219;  9.0708025E-04;  0.0000000E+00;  5.7265032E-05;  9.9908113E+00;  4.0499020E-01; -9.8863256E-01;3;  2.5309619E-01;  0.0000000E+00;  1.1318648E-01;  0.0000000E+00;  0.0000000E+00;  0.0000000E+00;0;  2.3549309E-03;  9.7371696E+01;  0.0000000E+00;  3.9339848E-02;  1.0000000E+02;  0.0000000E+00;  9.9997284E+01;  2.3362921E-03;  0.0000000E+00;  1.8638875E-05;  0.0000000E+00;
  1.0013880E+00;  9.9999998E-03;  1.8472807E-09;225;  7.2809024E-05;  0.0000000E+00; -1.0183104E-09;  9.9887314E+00;  4.0774602E-01; -1.2124178E+00;3;  2.4888862E-04;  0.0000000E+00;  4.9727472E-08;  0.0000000E+00;  0.0000000E+00;  0.0000000E+00;0;  3.7540775E-03;  9.6045792E+01;  0.0000000E+00;  9.2048443E-15;  1.0000000E+02;  0.0000000E+00;  9.9970924E+01;  3.7284810E-03;  0.0000000E+00;  2.5596417E-05;  0.0000000E+00;
  1.0007232E+00;  9.9999998E-03;  2.0014015E-01;226;  2.0085918E-05;  0.0000000E+00;  2.4338360E-05;  9.9887953E+00;  4.0776783E-01; -1.2054920E+00;3;  4.5030373E-03;  0.0000000E+00;  1.3065277E-02;  0.0000000E+00;  0.0000000E+00;  0.0000000E+00;0;  3.7286072E-03;  9.6036972E+01;  0.0000000E+00; -3.7784356E-04;  1.0000000E+02;  0.0000000E+00;  9.9969872E+01;  3.7041544E-03;  0.0000000E+00;  2.4452898E-05;  0.0000000E+00;
  1.0010488E+00;  9.9999998E-03;  4.0020633E-01;227; -1.1081415E-04;  0.0000000E+00;  2.3608301E-05;  9.9889545E+00;  4.0785101E-01; -1.1883698E+00;3;  2.0233389E-02;  0.0000000E+00;  3.0621177E-02;  0.0000000E+00;  0.0000000E+00;  0.0000000E+00;0;  3.6719802E-03;  9.6003281E+01;  0.0000000E+00;  3.1935735E-04;  1.0000000E+02;  0.0000000E+00;  9.9969894E+01;  3.6508646E-03;  0.0000000E+00;  2.1115618E-05;  0.0000000E+00;
  1.0007085E+00;  9.9999998E-03;  6.0012221E-01;228; -2.6945156E-04;  0.0000000E+00;  5.0052786E-06;  9.9892635E+00;  4.0786514E-01; -1.1551510E+00;3;  7.1495287E-02;  0.0000000E+00;  5.1996935E-02;  0.0000000E+00;  0.0000000E+00;  0.0000000E+00;0;  3.5563498E-03;  9.5996574E+01;  0.0000000E+00;  1.3090494E-02;  1.0000000E+02;  0.0000000E+00;  9.9973274E+01;  3.5436570E-03;  0.0000000E+00;  1.2692830E-05;  0.0000000E+00;
  1.0036157E+00;  9.9999998E-03;  8.0084395E-01;229;  7.1735942E-04;  0.0000000E+00;  1.2290529E-04;  9.9888964E+00;  4.0808776E-01; -1.1946536E+00;3;  1.7595120E-01;  0.0000000E+00; -8.9014344E-02;  0.0000000E+00;  0.0000000E+00;  0.0000000E+00;0;  3.6805966E-03;  9.5928719E+01;  0.0000000E+00;  3.8813677E-02;  1.0000000E+02;  0.0000000E+00;  9.9926056E+01;  3.6320544E-03;  0.0000000E+00;  4.8542257E-05;  0.0000000E+00;
  1.0138739E+00;  9.9999998E-03;  1.0007516E+00;230;  2.3826973E-03;  0.0000000E+00;  7.5185540E-05;  9.9871540E+00;  4.0961996E-01; -1.3820993E+00;3;  4.9310472E-02;  0.0000000E+00; -4.7232486E-02;  0.0000000E+00;  0.0000000E+00;  0.0000000E+00;0;  4.3027191E-03;  9.5176277E+01;  0.0000000E+00;  6.5973769E-03;  1.0000000E+02;  0.0000000E+00;  9.9935081E+01;  4.2758868E-03;  0.0000000E+00;  2.6832513E-05;  0.0000000E+00;
  1.2112790E+00;  9.9999998E-03; -4.3331499E-10;236;  7.2485338E-05;  0.0000000E+00;  1.7342173E-09;  9.9875517E+00;  4.1089103E-01; -1.3392507E+00;3;  3.5095064E-04;  0.0000000E+00;  3.4840369E-08;  0.0000000E+00;  0.0000000E+00;  0.0000000E+00;0;  5.4246946E-03;  9.4576157E+01;  0.0000000E+00;  2.5068601E-15;  1.0000000E+02;  0.0000000E+00;  9.9951797E+01;  5.3719683E-03;  0.0000000E+00;  5.2726256E-05;  0.0000000E+00;
  1.2090051E+00;  9.9999998E-03;  2.0030949E-01;237;  2.0443034E-05;  0.0000000E+00;  4.6098812E-05;  9.9876165E+00;  4.1095838E-01; -1.3322624E+00;3;  4.0662466E-03;  0.0000000E+00;  8.1882849E-03;  0.0000000E+00;  0.0000000E+00;  0.0000000E+00;0;  5.3796498E-03;  9.4549904E+01;  0.0000000E+00; -1.1637538E-03;  1.0000000E+02;  0.0000000E+00;  9.9948822E+01;  5.3280406E-03;  0.0000000E+00;  5.1609088E-05;  0.0000000E+00;
  1.2050364E+00;  9.9999998E-03;  4.0024292E-01;238; -1.0786093E-04;  0.0000000E+00;  2.1469161E-05;  9.9878244E+00;  4.1103548E-01; -1.3098847E+00;3;  1.9904062E-02;  0.0000000E+00;  1.5536802E-02;  0.0000000E+00;  0.0000000E+00;  0.0000000E+00;0;  5.2572987E-03;  9.4519699E+01;  0.0000000E+00;  6.5536838E-04;  1.0000000E+02;  0.0000000E+00;  9.9943520E+01;  5.2150278E-03;  0.0000000E+00;  4.2270836E-05;  0.0000000E+00;
  1.2033910E+00;  9.9999998E-03;  6.0007286E-01;239; -9.7923752E-05;  0.0000000E+00;  7.0262344E-05;  9.9881048E+00;  4.1100267E-01; -1.2797469E+00;3;  8.3757244E-02;  0.0000000E+00;  1.2805709E-02;  0.0000000E+00;  0.0000000E+00;  0.0000000E+00;0;  5.1105265E-03;  9.4530830E+01;  0.0000000E+00;  2.4532080E-02;  1.0000000E+02;  0.0000000E+00;  9.9954025E+01;  5.0600627E-03;  0.0000000E+00;  5.0463816E-05;  0.0000000E+00;
  1.2127576E+00;  9.9999998E-03;  8.0068308E-01;240;  2.2384138E-03;  0.0000000E+00;  1.4428000E-04;  9.9872313E+00;  4.1189802E-01; -1.3736850E+00;3;  1.0217170E-01;  0.0000000E+00; -1.1764968E-01;  0.0000000E+00;  0.0000000E+00;  0.0000000E+00;0;  5.5281958E-03;  9.4162254E+01;  0.0000000E+00;  2.0281658E-02;  1.0000000E+02;  0.0000000E+00;  9.9899506E+01;  5.4402635E-03;  0.0000000E+00;  8.7932429E-05;  0.0000000E+00;
  1.2189517E+00;  9.9999998E-03;  1.0006565E+00;241;  3.2928004E-03;  0.0000000E+00;  1.2339471E-04;  9.9863186E+00;  4.1305181E-01; -1.4719206E+00;3;  9.1789635E-03;  0.0000000E+00; -1.0122998E-01;  0.0000000E+00;  0.0000000E+00;  0.0000000E+00;0;  5.9599523E-03;  9.3603668E+01;  0.0000000E+00; -1.3695818E-03;  1.0000000E+02;  0.0000000E+00;  9.9915123E+01;  5.8884518E-03;  0.0000000E+00;  7.1500392E-05;  0.0000000E+00;
  1.4217739E+00;  9.9999998E-03;  3.6592953E-09;247;  4.8947497E-03;  0.0000000E+00; -3.7448542E-09;  9.9877129E+00;  4.1452676E-01; -1.3216943E+00;3; -2.2314489E-03;  0.0000000E+00; -4.2222163E-07;  0.0000000E+00;  0.0000000E+00;  0.0000000E+00;0;  6.8668160E-03;  9.2937683E+01;  0.0000000E+00; -1.3587250E-14;  1.0000000E+02;  0.0000000E+00;  9.9940216E+01;  6.7921281E-03;  0.0000000E+00;  7.4687727E-05;  0.0000000E+00;
  1.4206777E+00;  9.9999998E-03;  2.0051849E-01;248;  2.9913797E-03;  0.0000000E+00;  1.3546458E-04;  9.9876528E+00;  4.1465715E-01; -1.3281713E+00;3; -5.5244652E-04;  0.0000000E+00;  4.9863448E-03;  0.0000000E+00;  0.0000000E+00;  0.0000000E+00;0;  6.8912664E-03;  9.2887939E+01;  0.0000000E+00; -2.5543871E-03;  1.0000000E+02;  0.0000000E+00;  9.9926704E+01;  6.8094162E-03;  0.0000000E+00;  8.1849983E-05;  0.0000000E+00;
  1.4136062E+00;  9.9999998E-03;  4.0015820E-01;249;  2.0109156E-04;  0.0000000E+00; -1.6185299E-04;  9.9878101E+00;  4.1481775E-01; -1.3112533E+00;3;  1.3191502E-02;  0.0000000E+00;  8.4286723E-03;  0.0000000E+00;  0.0000000E+00;  0.0000000E+00;0;  6.7172879E-03;  9.2830696E+01;  0.0000000E+00; -4.0457752E-03;  1.0000000E+02;  0.0000000E+00;  9.9925728E+01;  6.7072758E-03;  0.0000000E+00;  1.0012291E-05;  0.0000000E+00;
  1.4123814E+00;  9.9999998E-03;  6.0006917E-01;250;  1.3222372E-03;  0.0000000E+00;  7.9998797E-05;  9.9877548E+00;  4.1485679E-01; -1.3172176E+00;3;  4.6470258E-02;  0.0000000E+00; -2.4938975E-03;  0.0000000E+00;  0.0000000E+00;  0.0000000E+00;0;  6.7577497E-03;  9.2803970E+01;  0.0000000E+00;  1.0474821E-02;  1.0000000E+02;  0.0000000E+00;  9.9927414E+01;  6.6819089E-03;  0.0000000E+00;  7.5840886E-05;  0.0000000E+00;
  1.4192272E+00;  9.9999998E-03;  8.0036306E-01;251;  3.3342473E-03;  0.0000000E+00;  1.0648648E-04;  9.9872847E+00;  4.1537127E-01; -1.3677971E+00;3;  6.1214495E-02;  0.0000000E+00; -6.4923510E-02;  0.0000000E+00;  0.0000000E+00;  0.0000000E+00;0;  7.0370501E-03;  9.2588997E+01;  0.0000000E+00;  9.7093899E-03;  1.0000000E+02;  0.0000000E+00;  9.9904251E+01;  6.9466983E-03;  0.0000000E+00;  9.0351794E-05;  0.0000000E+00;
  1.4240977E+00;  9.9999998E-03;  1.0005327E+00;252;  4.3472662E-03;  0.0000000E+00;  1.1131428E-04;  9.9868164E+00;  4.1601950E-01; -1.4181221E+00;3;  1.1790542E-02;  0.0000000E+00; -9.0121701E-02;  0.0000000E+00;  0.0000000E+00;  0.0000000E+00;0;  7.3351855E-03;  9.2292343E+01;  0.0000000E+00; -2.2521301E-03;  1.0000000E+02;  0.0000000E+00;  9.9907379E+01;  7.2520943E-03;  0.0000000E+00;  8.3091189E-05;  0.0000000E+00;
  1.6232413E+00;  9.9999998E-03;  8.3599616E-09;258;  6.9765644E-03;  0.0000000E+00;  1.6620090E-08;  9.9885950E+00;  4.1917378E-01; -1.2264421E+00;3;  8.9542149E-04;  0.0000000E+00; -2.1208831E-07;  0.0000000E+00;  0.0000000E+00;  0.0000000E+00;0;  7.9715606E-03;  9.0923485E+01;  0.0000000E+00; -3.6519663E-14;  1.0000000E+02;  0.0000000E+00;  9.9920967E+01;  7.8874854E-03;  0.0000000E+00;  8.4074978E-05;  0.0000000E+00;
  1.6240886E+00;  9.9999998E-03;  2.0062235E-01;259;  7.0727351E-03;  0.0000000E+00;  1.6307285E-04;  9.9884577E+00;  4.1926795E-01; -1.2412463E+00;3;  1.5093763E-03;  0.0000000E+00;  2.9592747E-03;  0.0000000E+00;  0.0000000E+00;  0.0000000E+00;0;  8.0727059E-03;  9.0898827E+01;  0.0000000E+00; -1.6024362E-03;  1.0000000E+02;  0.0000000E+00;  9.9898849E+01;  7.9757879E-03;  0.0000000E+00;  9.6917756E-05;  0.0000000E+00;
  1.6254874E+00;  9.9999998E-03;  4.0029266E-01;260;  6.8616550E-03;  0.0000000E+00;  3.2074069E-05;  9.9882145E+00;  4.1941008E-01; -1.2673943E+00;3;  3.4979612E-03;  0.0000000E+00;  3.0346049E-03;  0.0000000E+00;  0.0000000E+00;  0.0000000E+00;0;  8.2503827E-03;  9.0847977E+01;  0.0000000E+00; -7.7242190E-03;  1.0000000E+02;  0.0000000E+00;  9.9876137E+01;  8.1783980E-03;  0.0000000E+00;  7.1984541E-05;  0.0000000E+00;
  1.6226299E+00;  9.9999998E-03;  6.0002714E-01;261;  3.0348459E-03;  0.0000000E+00; -6.3218904E-05;  9.9882994E+00;  4.1933390E-01; -1.2582362E+00;3;  1.3479304E-02;  0.0000000E+00;  1.2773387E-04;  0.0000000E+00;  0.0000000E+00;  0.0000000E+00;0;  8.1309052E-03;  9.0880592E+01;  0.0000000E+00; -4.4605127E-03;  1.0000000E+02;  0.0000000E+00;  9.9884338E+01;  8.1285276E-03;  0.0000000E+00;  2.3779853E-06;  0.0000000E+00;
  1.6262326E+00;  9.9999998E-03;  8.0019760E-01;262;  4.6589579E-03;  0.0000000E+00;  5.5759196E-05;  9.9880381E+00;  4.1925329E-01; -1.2863650E+00;3;  3.1808872E-02;  0.0000000E+00; -2.0584799E-02;  0.0000000E+00;  0.0000000E+00;  0.0000000E+00;0;  8.3847577E-03;  9.0905052E+01;  0.0000000E+00;  3.2460033E-03;  1.0000000E+02;  0.0000000E+00;  9.9891701E+01;  8.3191739E-03;  0.0000000E+00;  6.5584136E-05;  0.0000000E+00;
  1.6307018E+00;  9.9999998E-03;  1.0005039E+00;263;  5.5721658E-03;  0.0000000E+00;  8.4899373E-05;  9.9878464E+00;  4.1925761E-01; -1.3069277E+00;3;  1.8674215E-02;  0.0000000E+00; -4.3248158E-02;  0.0000000E+00;  0.0000000E+00;  0.0000000E+00;0;  8.5585546E-03;  9.0902710E+01;  0.0000000E+00; -2.1440317E-03;  1.0000000E+02;  0.0000000E+00;  9.9893791E+01;  8.4855761E-03;  0.0000000E+00;  7.2978066E-05;  0.0000000E+00;
  1.8241966E+00;  9.9999998E-03;  7.7235800E-09;269;  6.9200261E-03;  0.0000000E+00; -1.3975629E-08;  9.9892006E+00;  4.2533237E-01; -1.1605631E+00;3;  5.4605748E-04;  0.0000000E+00;  3.6451208E-08;  0.0000000E+00;  0.0000000E+00;  0.0000000E+00;0;  9.3055395E-03;  8.8369453E+01;  0.0000000E+00; -4.0822380E-14;  1.0000000E+02;  0.0000000E+00;  9.9863495E+01;  9.2262067E-03;  0.0000000E+00;  7.9333018E-05;  0.0000000E+00;
  1.8251276E+00;  9.9999998E-03;  2.0016767E-01;270;  7.1012266E-03;  0.0000000E+00;  2.9362115E-04;  9.9890795E+00;  4.2529035E-01; -1.1736252E+00;3;  7.4119132E-04;  0.0000000E+00;  1.7349417E-03;  0.0000000E+00;  0.0000000E+00;  0.0000000E+00;0;  9.4188303E-03;  8.8403343E+01;  0.0000000E+00; -2.0527899E-04;  1.0000000E+02;  0.0000000E+00;  9.9844826E+01;  9.3038762E-03;  0.0000000E+00;  1.1495361E-04;  0.0000000E+00;
  1.8280983E+00;  9.9999998E-03;  3.9987686E-01;271;  7.2766026E-03;  0.0000000E+00;  1.6096407E-04;  9.9888735E+00;  4.2510036E-01; -1.1957076E+00;3;  1.1781603E-03;  0.0000000E+00;  3.1248517E-03;  0.0000000E+00;  0.0000000E+00;  0.0000000E+00;0;  9.6260430E-03;  8.8499741E+01;  0.0000000E+00; -1.3981129E-03;  1.0000000E+02;  0.0000000E+00;  9.9820702E+01;  9.4990134E-03;  0.0000000E+00;  1.2702918E-04;  0.0000000E+00;
  1.8329479E+00;  9.9999998E-03;  5.9981221E-01;272;  7.3760371E-03;  0.0000000E+00;  3.7403388E-05;  9.9887543E+00;  4.2470020E-01; -1.2084903E+00;3;  4.4960957E-03;  0.0000000E+00;  4.5108744E-03;  0.0000000E+00;  0.0000000E+00;  0.0000000E+00;0;  9.8182075E-03;  8.8655716E+01;  0.0000000E+00; -4.3092822E-03;  1.0000000E+02;  0.0000000E+00;  9.9826180E+01;  9.7282007E-03;  0.0000000E+00;  9.0006943E-05;  0.0000000E+00;
  1.8368794E+00;  9.9999998E-03;  8.0017841E-01;273;  6.8193278E-03;  0.0000000E+00;  4.9471368E-05;  9.9886818E+00;  4.2409655E-01; -1.2162814E+00;3;  1.0837656E-02;  0.0000000E+00;  2.5537612E-03;  0.0000000E+00;  0.0000000E+00;  0.0000000E+00;0;  9.9237403E-03;  8.8897392E+01;  0.0000000E+00; -6.1558979E-03;  1.0000000E+02;  0.0000000E+00;  9.9841629E+01;  9.8345941E-03;  0.0000000E+00;  8.9145928E-05;  0.0000000E+00;
  1.8397847E+00;  9.9999998E-03;  1.0006963E+00;274;  7.0491629E-03;  0.0000000E+00;  7.3254458E-05;  9.9887247E+00;  4.2333198E-01; -1.2116522E+00;3;  1.3976198E-02;  0.0000000E+00; -8.3945934E-03;  0.0000000E+00;  0.0000000E+00;  0.0000000E+00;0;  9.9229980E-03;  8.9214149E+01;  0.0000000E+00; -3.9552227E-03;  1.0000000E+02;  0.0000000E+00;  9.9848557E+01;  9.8436875E-03;  0.0000000E+00;  7.9310455E-05;  0.0000000E+00;
  2.0284963E+00;  9.9999998E-03; -1.2501110E-09;280;  6.8656006E-03;  0.0000000E+00; -9.7368256E-09;  9.9890995E+00;  4.3296966E-01; -1.1697277E+00;3;  3.0322830E-04;  0.0000000E+00;  4.2972772E-08;  0.0000000E+00;  0.0000000E+00;  0.0000000E+00;0;  1.1536743E-02;  8.5405746E+01;  0.0000000E+00; -5.9364690E-14;  1.0000000E+02;  0.0000000E+00;  9.9714531E+01;  1.1465473E-02;  0.0000000E+00;  7.1269089E-05;  0.0000000E+00;
  2.0296803E+00;  9.9999998E-03;  1.9938931E-01;281;  7.0689614E-03;  0.0000000E+00;  1.6811660E-04;  9.9890738E+00;  4.3272033E-01; -1.1724635E+00;3;  3.6521052E-04;  0.0000000E+00;  6.2379951E-04;  0.0000000E+00;  0.0000000E+00;  0.0000000E+00;0;  1.1594154E-02;  8.5509132E+01;  0.0000000E+00;  3.2604825E-05;  1.0000000E+02;  0.0000000E+00;  9.9706497E+01;  1.1492854E-02;  0.0000000E+00;  1.0129975E-04;  0.0000000E+00;
  2.0346050E+00;  9.9999998E-03;  3.9917514E-01;282;  7.4559115E-03;  0.0000000E+00;  2.0136952E-04;  9.9889927E+00;  4.3203193E-01; -1.1811002E+00;3;  5.7028048E-04;  0.0000000E+00;  1.5745091E-03;  0.0000000E+00;  0.0000000E+00;  0.0000000E+00;0;  1.1745098E-02;  8.5786674E+01;  0.0000000E+00;  7.5612174E-05;  1.0000000E+02;  0.0000000E+00;  9.9699699E+01;  1.1573170E-02;  0.0000000E+00;  1.7192817E-04;  0.0000000E+00;
  2.0478699E+00;  9.9999998E-03;  5.9962130E-01;283;  8.4096007E-03;  0.0000000E+00;  4.1321666E-05;  9.9890566E+00;  4.3113896E-01; -1.1740854E+00;3;  9.7536395E-04;  0.0000000E+00;  3.2056700E-03;  0.0000000E+00;  0.0000000E+00;  0.0000000E+00;0;  1.1869463E-02;  8.6143639E+01;  0.0000000E+00; -2.4922474E-03;  1.0000000E+02;  0.0000000E+00;  9.9700233E+01;  1.1719046E-02;  0.0000000E+00;  1.5041695E-04;  0.0000000E+00;
  2.0544374E+00;  9.9999998E-03;  8.0044222E-01;284;  9.4379270E-03;  0.0000000E+00;  3.7457463E-05;  9.9891510E+00;  4.2986223E-01; -1.1638942E+00;3;  2.2084080E-03;  0.0000000E+00;  4.4367816E-03;  0.0000000E+00;  0.0000000E+00;  0.0000000E+00;0;  1.1847935E-02;  8.6645592E+01;  0.0000000E+00; -1.1637820E-02;  1.0000000E+02;  0.0000000E+00;  9.9715866E+01;  1.1717186E-02;  0.0000000E+00;  1.3074819E-04;  0.0000000E+00;
  2.0539069E+00;  9.9999998E-03;  1.0013052E+00;285;  9.3858214E-03;  0.0000000E+00;  8.0909085E-05;  9.9893618E+00;  4.2834496E-01; -1.1412653E+00;3;  5.0130016E-03;  0.0000000E+00;  2.4603317E-03;  0.0000000E+00;  0.0000000E+00;  0.0000000E+00;0;  1.1653116E-02;  8.7250183E+01;  0.0000000E+00; -1.1422998E-02;  1.0000000E+02;  0.0000000E+00;  9.9735130E+01;  1.1541748E-02;  0.0000000E+00;  1.1136732E-04;  0.0000000E+00;
  2.2490413E+00;  9.9999998E-03; -6.9932193E-09;291;  6.9174408E-03;  0.0000000E+00; -1.4441424E-08;  9.9883976E+00;  4.4160783E-01; -1.2405548E+00;3;  1.7920055E-04;  0.0000000E+00;  1.3114065E-07;  0.0000000E+00;  0.0000000E+00;  0.0000000E+00;0;  1.5215017E-02;  8.2357643E+01;  0.0000000E+00; -8.9173420E-14;  1.0000000E+02;  0.0000000E+00;  9.9384941E+01;  1.5105233E-02;  0.0000000E+00;  1.0978386E-04;  0.0000000E+00;
  2.2502406E+00;  9.9999998E-03;  1.9896105E-01;292;  7.0587085E-03;  0.0000000E+00; -1.5516902E-04;  9.9884710E+00;  4.4113296E-01; -1.2326163E+00;3;  1.8217353E-04;  0.0000000E+00;  7.9824305E-05;  0.0000000E+00;  0.0000000E+00;  0.0000000E+00;0;  1.5138182E-02;  8.2536049E+01;  0.0000000E+00; -2.3924709E-04;  1.0000000E+02;  0.0000000E+00;  9.9385529E+01;  1.5023076E-02;  0.0000000E+00;  1.1510561E-04;  0.0000000E+00;
  2.2550430E+00;  9.9999998E-03;  3.9839098E-01;293;  8.2074124E-03;  0.0000000E+00; -5.9552061E-05;  9.9886675E+00;  4.3974382E-01; -1.2115066E+00;3;  3.0471981E-04;  0.0000000E+00;  6.4975029E-04;  0.0000000E+00;  0.0000000E+00;  0.0000000E+00;0;  1.4985604E-02;  8.3026634E+01;  0.0000000E+00; -8.8048383E-04;  1.0000000E+02;  0.0000000E+00;  9.9431068E+01;  1.4811121E-02;  0.0000000E+00;  1.7448294E-04;  0.0000000E+00;
  2.2712200E+00;  9.9999998E-03;  5.9969366E-01;294;  9.6755754E-03;  0.0000000E+00; -6.1217375E-05;  9.9890118E+00;  4.3790871E-01; -1.1741890E+00;3; -4.1441126E-03;  0.0000000E+00;  6.6578708E-04;  0.0000000E+00;  0.0000000E+00;  0.0000000E+00;0;  1.4788083E-02;  8.3714783E+01;  0.0000000E+00;  6.3618185E-04;  1.0000000E+02;  0.0000000E+00;  9.9442619E+01;  1.4589902E-02;  0.0000000E+00;  1.9818041E-04;  0.0000000E+00;
  2.2785830E+00;  9.9999998E-03;  8.0124754E-01;295;  1.3116590E-02;  0.0000000E+00;  1.9330775E-05;  9.9894819E+00;  4.3583015E-01; -1.1237131E+00;3; -3.1569146E-03;  0.0000000E+00;  1.2002568E-03;  0.0000000E+00;  0.0000000E+00;  0.0000000E+00;0;  1.4255361E-02;  8.4511627E+01;  0.0000000E+00; -1.8531223E-03;  1.0000000E+02;  0.0000000E+00;  9.9460861E+01;  1.4063754E-02;  0.0000000E+00;  1.9160678E-04;  0.0000000E+00;
  2.2803607E+00;  9.9999998E-03;  1.0026913E+00;296;  1.6204555E-02;  0.0000000E+00;  1.3551199E-04;  9.9900026E+00;  4.3385586E-01; -1.0680679E+00;3; -6.4605195E-04;  0.0000000E+00;  9.9996361E-04;  0.0000000E+00;  0.0000000E+00;  0.0000000E+00;0;  1.3612422E-02;  8.5269707E+01;  0.0000000E+00; -1.3561225E-02;  1.0000000E+02;  0.0000000E+00;  9.9484108E+01;  1.3429200E-02;  0.0000000E+00;  1.8322197E-04;  0.0000000E+00;
  2.4969523E+00;  9.9999998E-03; -1.1847428E-08;302;  8.4388619E-03;  0.0000000E+00; -1.0976068E-08;  9.9875784E+00;  4.4984275E-01; -1.3152080E+00;3; -3.6635878E-03;  0.0000000E+00; -2.4276099E-07;  0.0000000E+00;  0.0000000E+00;  0.0000000E+00;0;  2.0449921E-02;  7.9845726E+01;  0.0000000E+00; -1.4249416E-13;  1.0000000E+02;  0.0000000E+00;  9.8773590E+01;  2.0117970E-02;  0.0000000E+00;  3.3195151E-04;  0.0000000E+00;
  2.4951880E+00;  9.9999998E-03;  1.9894581E-01;303;  8.9150155E-03;  0.0000000E+00; -3.1944676E-04;  9.9877644E+00;  4.4919372E-01; -1.2956517E+00;3; -3.9635696E-03;  0.0000000E+00;  7.8001045E-05;  0.0000000E+00;  0.0000000E+00;  0.0000000E+00;0;  2.0126712E-02;  8.0069038E+01;  0.0000000E+00;  5.4710246E-05;  1.0000000E+02;  0.0000000E+00;  9.8786346E+01;  1.9798176E-02;  0.0000000E+00;  3.2853612E-04;  0.0000000E+00;
  2.4927304E+00;  9.9999998E-03;  3.9854857E-01;304;  1.1932020E-02;  0.0000000E+00; -4.0244829E-04;  9.9882822E+00;  4.4730255E-01; -1.2409812E+00;3; -3.3679048E-03;  0.0000000E+00;  1.2503791E-04;  0.0000000E+00;  0.0000000E+00;  0.0000000E+00;0;  1.9249391E-02;  8.0683998E+01;  0.0000000E+00;  8.4098472E-05;  1.0000000E+02;  0.0000000E+00;  9.8880341E+01;  1.8938346E-02;  0.0000000E+00;  3.1104533E-04;  0.0000000E+00;
  2.4874203E+00;  9.9999998E-03;  6.0063058E-01;305;  1.5535102E-02;  0.0000000E+00; -1.3030015E-04;  9.9889498E+00;  4.4480190E-01; -1.1706382E+00;3; -1.6823435E-03;  0.0000000E+00; -3.2991506E-05;  0.0000000E+00;  0.0000000E+00;  0.0000000E+00;0;  1.8070016E-02;  8.1548309E+01;  0.0000000E+00;  1.4113548E-04;  1.0000000E+02;  0.0000000E+00;  9.8946518E+01;  1.7709749E-02;  0.0000000E+00;  3.6026750E-04;  0.0000000E+00;
  2.4837508E+00;  9.9999998E-03;  8.0303770E-01;306;  1.7476898E-02;  0.0000000E+00;  5.4787084E-05;  9.9897032E+00;  4.4231316E-01; -1.0910501E+00;3; -3.7790742E-05;  0.0000000E+00;  3.0336189E-05;  0.0000000E+00;  0.0000000E+00;  0.0000000E+00;0;  1.6786048E-02;  8.2444557E+01;  0.0000000E+00;  2.7093364E-04;  1.0000000E+02;  0.0000000E+00;  9.8989235E+01;  1.6468495E-02;  0.0000000E+00;  3.1755384E-04;  0.0000000E+00;
  2.4811039E+00;  9.9999998E-03;  1.0051868E+00;307;  1.7436748E-02;  0.0000000E+00;  2.5415924E-04;  9.9903584E+00;  4.4021502E-01; -1.0217912E+00;3;  5.6875357E-05;  0.0000000E+00;  1.7510679E-04;  0.0000000E+00;  0.0000000E+00;  0.0000000E+00;0;  1.5683051E-02;  8.3216957E+01;  0.0000000E+00;  4.8735063E-04;  1.0000000E+02;  0.0000000E+00;  9.9024361E+01;  1.5412180E-02;  0.0000000E+00;  2.7087124E-04;  0.0000000E+00;
  2.7404916E+00;  9.9999998E-03; -1.1997952E-08;313;  2.0381793E-02;  0.0000000E+00; -2.2572271E-08;  9.9876318E+00;  4.5651031E-01; -1.2819455E+00;3; -9.7320322E-03;  0.0000000E+00; -1.8747048E-07;  0.0000000E+00;  0.0000000E+00;  0.0000000E+00;0;  2.4991848E-02;  7.8245506E+01;  0.0000000E+00; -2.0948170E-13;  1.0000000E+02;  0.0000000E+00;  9.7875710E+01;  2.4107935E-02;  0.0000000E+00;  8.8391179E-04;  0.0000000E+00;
  2.7355163E+00;  9.9999998E-03;  1.9931734E-01;314;  1.9525908E-02;  0.0000000E+00; -2.5707026E-04;  9.9877834E+00;  4.5601302E-01; -1.2670054E+00;3; -9.6425936E-03;  0.0000000E+00; -3.1147298E-05;  0.0000000E+00;  0.0000000E+00;  0.0000000E+00;0;  2.4589794E-02;  7.8392624E+01;  0.0000000E+00;  1.5062890E-04;  1.0000000E+02;  0.0000000E+00;  9.7907310E+01;  2.3714606E-02;  0.0000000E+00;  8.7518815E-04;  0.0000000E+00;
  2.7227445E+00;  9.9999998E-03;  4.0003273E-01;315;  1.9404562E-02;  0.0000000E+00; -3.6454434E-04;  9.9882679E+00;  4.5454004E-01; -1.2185643E+00;3; -6.2556500E-03;  0.0000000E+00;  6.0709797E-05;  0.0000000E+00;  0.0000000E+00;  0.0000000E+00;0;  2.3376629E-02;  7.8813141E+01;  0.0000000E+00;  4.9844343E-04;  1.0000000E+02;  0.0000000E+00;  9.8024010E+01;  2.2569614E-02;  0.0000000E+00;  8.0701447E-04;  0.0000000E+00;
  2.7029378E+00;  9.9999998E-03;  6.0313034E-01;316;  1.7157933E-02;  0.0000000E+00; -1.5338312E-04;  9.9889355E+00;  4.5266610E-01; -1.1517797E+00;3; -4.4561097E-05;  0.0000000E+00;  1.3439181E-04;  0.0000000E+00;  0.0000000E+00;  0.0000000E+00;0;  2.1664919E-02;  7.9413391E+01;  0.0000000E+00;  2.4718922E-03;  1.0000000E+02;  0.0000000E+00;  9.8108620E+01;  2.0990608E-02;  0.0000000E+00;  6.7431061E-04;  0.0000000E+00;
  2.6909447E+00;  9.9999998E-03;  8.0643731E-01;317;  1.7461559E-02;  0.0000000E+00;  2.3533024E-04;  9.9896727E+00;  4.5075631E-01; -1.0764147E+00;3; -8.8271277E-05;  0.0000000E+00; -1.8461025E-04;  0.0000000E+00;  0.0000000E+00;  0.0000000E+00;0;  2.0025816E-02;  8.0057648E+01;  0.0000000E+00;  3.2262919E-03;  1.0000000E+02;  0.0000000E+00;  9.8159012E+01;  1.9420847E-02;  0.0000000E+00;  6.0496776E-04;  0.0000000E+00;
  2.6848931E+00;  9.9999998E-03;  1.0094030E+00;318;  1.7404785E-02;  0.0000000E+00;  5.9061701E-04;  9.9902897E+00;  4.4915873E-01; -1.0127563E+00;3; -1.9564919E-04;  0.0000000E+00; -3.8078101E-04;  0.0000000E+00;  0.0000000E+00;  0.0000000E+00;0;  1.8737912E-02;  8.0601120E+01;  0.0000000E+00;  3.7371132E-03;  1.0000000E+02;  0.0000000E+00;  9.8201286E+01;  1.8174488E-02;  0.0000000E+00;  5.6342449E-04;  0.0000000E+00;
  2.9661705E+00;  9.9999998E-03;  1.4490437E-09;324;  3.3574875E-02;  0.0000000E+00; -3.1294846E-08;  9.9882631E+00;  4.6354318E-01; -1.1756204E+00;3; -3.2139097E-03;  0.0000000E+00; -3.9843098E-07;  0.0000000E+00;  0.0000000E+00;  0.0000000E+00;0;  2.8126024E-02;  7.6791443E+01;  0.0000000E+00; -2.7013979E-13;  1.0000000E+02;  0.0000000E+00;  9.6737473E+01;  2.6330864E-02;  0.0000000E+00;  1.7951588E-03;  0.0000000E+00;
  2.9599907E+00;  9.9999998E-03;  2.0037562E-01;325;  3.2244068E-02;  0.0000000E+00; -2.4485233E-04;  9.9883356E+00;  4.6334305E-01; -1.1696836E+00;3; -3.2768114E-03;  0.0000000E+00; -3.8652848E-05;  0.0000000E+00;  0.0000000E+00;  0.0000000E+00;0;  2.7825495E-02;  7.6822922E+01;  0.0000000E+00;  3.3084416E-05;  1.0000000E+02;  0.0000000E+00;  9.6783554E+01;  2.6069792E-02;  0.0000000E+00;  1.7557035E-03;  0.0000000E+00;
  2.9453518E+00;  9.9999998E-03;  4.0328237E-01;326;  2.8609831E-02;  0.0000000E+00; -2.8467466E-04;  9.9885931E+00;  4.6289036E-01; -1.1468180E+00;3; -2.4961967E-03;  0.0000000E+00; -1.1669475E-04;  0.0000000E+00;  0.0000000E+00;  0.0000000E+00;0;  2.6925666E-02;  7.6914734E+01;  0.0000000E+00;  1.8486970E-04;  1.0000000E+02;  0.0000000E+00;  9.6858917E+01;  2.5327699E-02;  0.0000000E+00;  1.5979677E-03;  0.0000000E+00;
  2.9264319E+00;  9.9999998E-03;  6.0761249E-01;327;  2.2203453E-02;  0.0000000E+00;  1.4675714E-04;  9.9889736E+00;  4.6242252E-01; -1.1121573E+00;3; -3.0695507E-03;  0.0000000E+00; -1.2593978E-04;  0.0000000E+00;  0.0000000E+00;  0.0000000E+00;0;  2.5634237E-02;  7.7055504E+01;  0.0000000E+00;  1.0491272E-03;  1.0000000E+02;  0.0000000E+00;  9.6885574E+01;  2.4244560E-02;  0.0000000E+00;  1.3896775E-03;  0.0000000E+00;
  2.9091659E+00;  9.9999998E-03;  8.1178141E-01;328;  1.7506775E-02;  0.0000000E+00;  7.4775954E-04;  9.9894171E+00;  4.6193230E-01; -1.0705447E+00;3;  3.5430225E-05;  0.0000000E+00;  2.7690915E-04;  0.0000000E+00;  0.0000000E+00;  0.0000000E+00;0;  2.4302419E-02;  7.7211884E+01;  0.0000000E+00;  1.5884671E-04;  1.0000000E+02;  0.0000000E+00;  9.6905571E+01;  2.3042735E-02;  0.0000000E+00;  1.2596847E-03;  0.0000000E+00;
  2.8996189E+00;  9.9999998E-03;  1.0157225E+00;329;  1.7350875E-02;  0.0000000E+00;  1.2926707E-03;  9.9897842E+00;  4.6157604E-01; -1.0350389E+00;3; -1.4598081E-04;  0.0000000E+00; -6.1568152E-04;  0.0000000E+00;  0.0000000E+00;  0.0000000E+00;0;  2.3262493E-02;  7.7326286E+01;  0.0000000E+00; -2.5910467E-03;  1.0000000E+02;  0.0000000E+00;  9.6918953E+01;  2.2059942E-02;  0.0000000E+00;  1.2025509E-03;  0.0000000E+00;
  3.1805115E+00;  9.9999998E-03;  4.9009161E-09;335;  3.9170716E-02;  0.0000000E+00;  3.6429697E-08;  9.9887495E+00;  4.7276074E-01; -1.0825119E+00;3; -3.2550646E-03;  0.0000000E+00; -2.8103022E-07;  0.0000000E+00;  0.0000000E+00;  0.0000000E+00;0;  3.1231485E-02;  7.4840538E+01;  0.0000000E+00; -1.8030793E-13;  1.0000000E+02;  0.0000000E+00;  9.5432716E+01;  2.8185219E-02;  0.0000000E+00;  3.0462660E-03;  0.0000000E+00;
  3.1744912E+00;  9.9999998E-03;  2.0293628E-01;336;  3.7394706E-02;  0.0000000E+00; -1.2813664E-04;  9.9887638E+00;  4.7289547E-01; -1.0823433E+00;3; -2.4238003E-03;  0.0000000E+00; -4.8059363E-05;  0.0000000E+00;  0.0000000E+00;  0.0000000E+00;0;  3.1067111E-02;  7.4775047E+01;  0.0000000E+00; -2.3416247E-05;  1.0000000E+02;  0.0000000E+00;  9.5462685E+01;  2.8090565E-02;  0.0000000E+00;  2.9765468E-03;  0.0000000E+00;
  3.1628213E+00;  9.9999998E-03;  4.0839607E-01;337;  3.3262249E-02;  0.0000000E+00;  1.1507022E-04;  9.9888191E+00;  4.7356299E-01; -1.0793500E+00;3; -2.2256537E-03;  0.0000000E+00; -3.3070511E-04;  0.0000000E+00;  0.0000000E+00;  0.0000000E+00;0;  3.0641742E-02;  7.4584793E+01;  0.0000000E+00; -3.1871494E-04;  1.0000000E+02;  0.0000000E+00;  9.5441437E+01;  2.7861554E-02;  0.0000000E+00;  2.7801879E-03;  0.0000000E+00;
  3.1501572E+00;  9.9999998E-03;  6.1372191E-01;338;  2.8931400E-02;  0.0000000E+00;  1.0943804E-03;  9.9888449E+00;  4.7460130E-01; -1.0794387E+00;3; -1.5493846E-03;  0.0000000E+00; -8.2929572E-04;  0.0000000E+00;  0.0000000E+00;  0.0000000E+00;0;  3.0313903E-02;  7.4308617E+01;  0.0000000E+00; -2.2437412E-03;  1.0000000E+02;  0.0000000E+00;  9.5375076E+01;  2.7571177E-02;  0.0000000E+00;  2.7427266E-03;  0.0000000E+00;
  3.1403892E+00;  9.9999998E-03;  8.1880581E-01;339;  2.3662193E-02;  0.0000000E+00;  1.9144984E-03;  9.9888792E+00;  4.7582373E-01; -1.0781362E+00;3; -8.4488234E-04;  0.0000000E+00; -8.4982160E-04;  0.0000000E+00;  0.0000000E+00;  0.0000000E+00;0;  2.9993292E-02;  7.3980949E+01;  0.0000000E+00; -8.2141971E-03;  1.0000000E+02;  0.0000000E+00;  9.5309059E+01;  2.7331889E-02;  0.0000000E+00;  2.6614040E-03;  0.0000000E+00;
  3.1386926E+00;  9.9999998E-03;  1.0239455E+00;340;  2.2177909E-02;  0.0000000E+00;  2.7307910E-03;  9.9888706E+00;  4.7703913E-01; -1.0792913E+00;3; -1.2249862E-03;  0.0000000E+00; -1.0682808E-03;  0.0000000E+00;  0.0000000E+00;  0.0000000E+00;0;  2.9978177E-02;  7.3656075E+01;  0.0000000E+00; -1.0250834E-02;  1.0000000E+02;  0.0000000E+00;  9.5243408E+01;  2.7316859E-02;  0.0000000E+00;  2.6613169E-03;  0.0000000E+00;
  3.3390014E+00;  9.9999998E-03; -1.3554820E-08;346;  4.0088162E-02;  0.0000000E+00;  1.9178552E-08;  9.9888744E+00;  2.4229258E-01; -1.0420330E+00;3; -1.1925540E-03;  0.0000000E+00;  2.6323687E-07;  0.0000000E+00;  0.0000000E+00;  0.0000000E+00;1;  3.4066364E-02;  2.8906268E+02;  0.0000000E+00;  2.0206842E-12;  1.0000000E+02;  0.0000000E+00;  9.4073357E+01;  2.9887818E-02;  0.0000000E+00;  4.1785445E-03;  0.0000000E+00;
  3.4536467E+00;  9.9999998E-03;  2.0764220E-01;347;  3.9018132E-02;  0.0000000E+00;  5.2775373E-04;  9.9887791E+00;  2.4274381E-01; -1.0348232E+00;3; -5.1003532E-04;  0.0000000E+00; -5.3202943E-04;  0.0000000E+00;  0.0000000E+00;  0.0000000E+00;1;  3.6730714E-02;  2.8824182E+02;  0.0000000E+00; -1.7124884E-03;  1.0000000E+02;  0.0000000E+00;  9.3989098E+01;  3.1688701E-02;  0.0000000E+00;  5.0420137E-03;  0.0000000E+00;
  3.4474101E+00;  9.9999998E-03;  4.1439971E-01;348;  3.5713624E-02;  0.0000000E+00;  2.0160084E-03;  9.9885845E+00;  2.4348778E-01; -1.0535257E+00;3; -1.0595520E-03;  0.0000000E+00; -1.7473684E-03;  0.0000000E+00;  0.0000000E+00;  0.0000000E+00;1;  3.7235957E-02;  2.8677725E+02;  0.0000000E+00; -3.3255429E-03;  1.0000000E+02;  0.0000000E+00;  9.3888397E+01;  3.2094706E-02;  0.0000000E+00;  5.1412522E-03;  0.0000000E+00;
  3.4424272E+00;  9.9999998E-03;  6.2045008E-01;349;  3.1769358E-02;  0.0000000E+00;  3.1249654E-03;  9.9883013E+00;  2.4454832E-01; -1.0803052E+00;3;  9.0474554E-05;  0.0000000E+00; -2.0597386E-03;  0.0000000E+00;  0.0000000E+00;  0.0000000E+00;1;  3.8012639E-02;  2.8468433E+02;  0.0000000E+00; -3.8687270E-03;  1.0000000E+02;  0.0000000E+00;  9.3755844E+01;  3.2771192E-02;  0.0000000E+00;  5.2414448E-03;  0.0000000E+00;
  3.4433756E+00;  9.9999998E-03;  8.2655817E-01;350;  3.2173131E-02;  0.0000000E+00;  4.1814018E-03;  9.9880142E+00;  2.4573572E-01; -1.1067078E+00;3; -2.4525239E-03;  0.0000000E+00; -7.1786443E-04;  0.0000000E+00;  0.0000000E+00;  0.0000000E+00;1;  3.8975935E-02;  2.8236188E+02;  0.0000000E+00; -1.3740378E-02;  1.0000000E+02;  0.0000000E+00;  9.3612335E+01;  3.3696420E-02;  0.0000000E+00;  5.2795159E-03;  0.0000000E+00;
  3.4468095E+00;  9.9999998E-03;  1.0330049E+00;351;  3.3188723E-02;  0.0000000E+00;  5.3564315E-03;  9.9877205E+00;  2.4682936E-01; -1.1333700E+00;3; -2.0870906E-03;  0.0000000E+00; -9.1228198E-04;  0.0000000E+00;  0.0000000E+00;  0.0000000E+00;1;  3.9963946E-02;  2.8026950E+02;  0.0000000E+00; -3.0429376E-02;  1.0000000E+02;  0.0000000E+00;  9.3473473E+01;  3.4591645E-02;  0.0000000E+00;  5.3723017E-03;  0.0000000E+00;
  3.5708318E+00;  9.9999998E-03; -3.2658271E-08;357;  4.2627808E-02;  0.0000000E+00; -1.4790067E-08;  9.9886465E+00;  2.4897990E-01; -1.0346135E+00;3; -2.9365651E-03;  0.0000000E+00;  7.9434540E-07;  0.0000000E+00;  0.0000000E+00;  0.0000000E+00;1;  3.9604269E-02;  2.7747946E+02;  0.0000000E+00;  6.6908653E-12;  1.0000000E+02;  0.0000000E+00;  9.2802658E+01;  3.3608515E-02;  0.0000000E+00;  5.9957546E-03;  0.0000000E+00;
  3.6893220E+00;  9.9999998E-03;  2.1126357E-01;358;  4.3624006E-02;  0.0000000E+00;  1.7583759E-03;  9.9883280E+00;  2.5005171E-01; -1.0545850E+00;3; -2.7717357E-03;  0.0000000E+00; -8.3653402E-04;  0.0000000E+00;  0.0000000E+00;  0.0000000E+00;1;  4.3217942E-02;  2.7572253E+02;  0.0000000E+00; -6.4403410E-03;  1.0000000E+02;  0.0000000E+00;  9.2590111E+01;  3.6269061E-02;  0.0000000E+00;  6.9488809E-03;  0.0000000E+00;
  3.6894467E+00;  9.9999998E-03;  4.1886926E-01;359;  4.2376745E-02;  0.0000000E+00;  3.4175480E-03;  9.9881029E+00;  2.5081003E-01; -1.0749342E+00;3; -3.7858156E-03;  0.0000000E+00; -2.5119283E-04;  0.0000000E+00;  0.0000000E+00;  0.0000000E+00;1;  4.4053264E-02;  2.7432785E+02;  0.0000000E+00; -2.5969891E-02;  1.0000000E+02;  0.0000000E+00;  9.2497162E+01;  3.6966469E-02;  0.0000000E+00;  7.0867948E-03;  0.0000000E+00;
  3.6897705E+00;  9.9999998E-03;  6.2600231E-01;360;  4.1559312E-02;  0.0000000E+00;  4.7564688E-03;  9.9877968E+00;  2.5181717E-01; -1.1025943E+00;3; -4.0417258E-03;  0.0000000E+00; -3.1281856E-03;  0.0000000E+00;  0.0000000E+00;  0.0000000E+00;1;  4.5154884E-02;  2.7250540E+02;  0.0000000E+00; -5.4637894E-02;  1.0000000E+02;  0.0000000E+00;  9.2365921E+01;  3.7915219E-02;  0.0000000E+00;  7.2396677E-03;  0.0000000E+00;
  3.6922820E+00;  9.9999998E-03;  8.3310628E-01;361;  4.2386688E-02;  0.0000000E+00;  6.1737020E-03;  9.9874916E+00;  2.5284585E-01; -1.1300004E+00;3; -3.3436303E-03;  0.0000000E+00; -2.2390566E-04;  0.0000000E+00;  0.0000000E+00;  0.0000000E+00;1;  4.6391018E-02;  2.7065280E+02;  0.0000000E+00; -7.1598262E-02;  1.0000000E+02;  0.0000000E+00;  9.2238411E+01;  3.8910475E-02;  0.0000000E+00;  7.4805431E-03;  0.0000000E+00;
  3.6978443E+00;  9.9999998E-03;  1.0406361E+00;362;  4.4927701E-02;  0.0000000E+00;  7.6490445E-03;  9.9872370E+00;  2.5374269E-01; -1.1526201E+00;3; -2.4563225E-03;  0.0000000E+00; -1.4107944E-03;  0.0000000E+00;  0.0000000E+00;  0.0000000E+00;1;  4.7450151E-02;  2.6906787E+02;  0.0000000E+00; -4.8936874E-02;  1.0000000E+02;  0.0000000E+00;  9.2123131E+01;  3.9758474E-02;  0.0000000E+00;  7.6916767E-03;  0.0000000E+00;
  3.8162262E+00;  9.9999998E-03; -4.1740307E-08;368;  5.1620457E-02;  0.0000000E+00; -4.4251607E-08;  9.9881096E+00;  2.5566158E-01; -1.0678228E+00;3; -3.1876375E-03;  0.0000000E+00;  1.2234950E-06;  0.0000000E+00;  0.0000000E+00;  0.0000000E+00;1;  4.6673249E-02;  2.6632001E+02;  0.0000000E+00;  1.0686106E-11;  1.0000000E+02;  0.0000000E+00;  9.1696182E+01;  3.8839363E-02;  0.0000000E+00;  7.8338869E-03;  0.0000000E+00;
  3.9359074E+00;  9.9999998E-03;  2.1203798E-01;369;  5.3268064E-02;  0.0000000E+00;  2.7576257E-03;  9.9878473E+00;  2.5686944E-01; -1.0873415E+00;3; -2.6902000E-03;  0.0000000E+00;  1.8187157E-04;  0.0000000E+00;  0.0000000E+00;  0.0000000E+00;1;  5.0141856E-02;  2.6439105E+02;  0.0000000E+00; -4.4378284E-03;  1.0000000E+02;  0.0000000E+00;  9.1492943E+01;  4.1481368E-02;  0.0000000E+00;  8.6604869E-03;  0.0000000E+00;
  3.9401357E+00;  9.9999998E-03;  4.2126578E-01;370;  5.4521337E-02;  0.0000000E+00;  4.5022671E-03;  9.9877291E+00;  2.5731018E-01; -1.0977875E+00;3; -2.5940638E-03;  0.0000000E+00; -5.8888813E-04;  0.0000000E+00;  0.0000000E+00;  0.0000000E+00;1;  5.0712842E-02;  2.6364944E+02;  0.0000000E+00; -1.8280843E-02;  1.0000000E+02;  0.0000000E+00;  9.1434036E+01;  4.1960694E-02;  0.0000000E+00;  8.7521495E-03;  0.0000000E+00;
  3.9423320E+00;  9.9999998E-03;  6.2952459E-01;371;  5.4746978E-02;  0.0000000E+00;  6.0710842E-03;  9.9875832E+00;  2.5782099E-01; -1.1107931E+00;3; -2.6190723E-03;  0.0000000E+00; -8.6882843E-05;  0.0000000E+00;  0.0000000E+00;  0.0000000E+00;1;  5.1362168E-02;  2.6278156E+02;  0.0000000E+00; -3.8014136E-02;  1.0000000E+02;  0.0000000E+00;  9.1371475E+01;  4.2486999E-02;  0.0000000E+00;  8.8751679E-03;  0.0000000E+00;
  3.9442339E+00;  9.9999998E-03;  8.3771873E-01;372;  5.5158652E-02;  0.0000000E+00;  7.6253130E-03;  9.9874554E+00;  2.5830030E-01; -1.1221528E+00;3; -2.1513593E-03;  0.0000000E+00;  1.7425923E-04;  0.0000000E+00;  0.0000000E+00;  0.0000000E+00;1;  5.1951837E-02;  2.6197092E+02;  0.0000000E+00; -4.5578673E-02;  1.0000000E+02;  0.0000000E+00;  9.1311584E+01;  4.2965800E-02;  0.0000000E+00;  8.9860372E-03;  0.0000000E+00;
  3.9483588E+00;  9.9999998E-03;  1.0461917E+00;373;  5.7545509E-02;  0.0000000E+00;  9.2958612E-03;  9.9873791E+00;  2.5867429E-01; -1.1288674E+00;3; -6.6093274E-04;  0.0000000E+00; -2.3799157E-04;  0.0000000E+00;  0.0000000E+00;  0.0000000E+00;1;  5.2364927E-02;  2.6134531E+02;  0.0000000E+00; -1.7342219E-02;  1.0000000E+02;  0.0000000E+00;  9.1264259E+01;  4.3275602E-02;  0.0000000E+00;  9.0893256E-03;  0.0000000E+00;
  4.0698895E+00;  9.9999998E-03; -1.8203965E-08;379;  6.3865669E-02;  0.0000000E+00; -4.6314504E-08;  9.9877253E+00;  2.6139569E-01; -1.0954344E+00;3; -2.6467449E-03;  0.0000000E+00;  1.4560164E-06;  0.0000000E+00;  0.0000000E+00;  0.0000000E+00;1;  5.3216420E-02;  2.5717776E+02;  0.0000000E+00;  1.0917858E-11;  1.0000000E+02;  0.0000000E+00;  9.0827614E+01;  4.3875083E-02;  0.0000000E+00;  9.3413359E-03;  0.0000000E+00;
  4.1897073E+00;  9.9999998E-03;  2.1019863E-01;380;  6.5843709E-02;  0.0000000E+00;  3.0067954E-03;  9.9876490E+00;  2.6226872E-01; -1.1006781E+00;3; -1.9525515E-03;  0.0000000E+00;  8.5253757E-04;  0.0000000E+00;  0.0000000E+00;  0.0000000E+00;1;  5.5656705E-02;  2.5575720E+02;  0.0000000E+00; -1.3840850E-03;  1.0000000E+02;  0.0000000E+00;  9.0723434E+01;  4.5756921E-02;  0.0000000E+00;  9.8997839E-03;  0.0000000E+00;
  4.1935401E+00;  9.9999998E-03;  4.2181155E-01;381;  6.7270219E-02;  0.0000000E+00;  4.8579909E-03;  9.9876728E+00;  2.6232749E-01; -1.0985146E+00;3; -1.6308456E-03;  0.0000000E+00; -7.1778975E-04;  0.0000000E+00;  0.0000000E+00;  0.0000000E+00;1;  5.5612013E-02;  2.5570303E+02;  0.0000000E+00; -6.2750629E-03;  1.0000000E+02;  0.0000000E+00;  9.0702278E+01;  4.5744058E-02;  0.0000000E+00;  9.8679531E-03;  0.0000000E+00;
  4.1948328E+00;  9.9999998E-03;  6.3151151E-01;382;  6.7541689E-02;  0.0000000E+00;  6.7399587E-03;  9.9876833E+00;  2.6233801E-01; -1.0975455E+00;3; -1.3705207E-03;  0.0000000E+00;  2.5033185E-04;  0.0000000E+00;  0.0000000E+00;  0.0000000E+00;1;  5.5582050E-02;  2.5568324E+02;  0.0000000E+00; -1.4038901E-02;  1.0000000E+02;  0.0000000E+00;  9.0701599E+01;  4.5689736E-02;  0.0000000E+00;  9.8923137E-03;  0.0000000E+00;
  4.1949191E+00;  9.9999998E-03;  8.4081674E-01;383;  6.7356929E-02;  0.0000000E+00;  8.5372031E-03;  9.9877024E+00;  2.6232705E-01; -1.0958450E+00;3; -1.0665839E-03;  0.0000000E+00;  1.4247964E-05;  0.0000000E+00;  0.0000000E+00;  0.0000000E+00;1;  5.5515483E-02;  2.5570383E+02;  0.0000000E+00; -1.7173735E-02;  1.0000000E+02;  0.0000000E+00;  9.0702667E+01;  4.5612756E-02;  0.0000000E+00;  9.9027278E-03;  0.0000000E+00;
  4.1952391E+00;  9.9999998E-03;  1.0501252E+00;384;  6.7612998E-02;  0.0000000E+00;  1.0356550E-02;  9.9877338E+00;  2.6229736E-01; -1.0930268E+00;3; -4.3123998E-04;  0.0000000E+00;  4.7718492E-04;  0.0000000E+00;  0.0000000E+00;  0.0000000E+00;1;  5.5367865E-02;  2.5575128E+02;  0.0000000E+00; -4.2980285E-03;  1.0000000E+02;  0.0000000E+00;  9.0706352E+01;  4.5518298E-02;  0.0000000E+00;  9.8495651E-03;  0.0000000E+00;
  4.0779905E+00;  9.9999998E-03;  8.4031421E-01;551;  6.6449046E-02;  0.0000000E+00;  8.1468737E-03;  9.9876204E+00;  2.6169080E-01; -1.1046655E+00;3; -1.8017249E-03;  0.0000000E+00;  3.3863221E-04; -4.3160208E+08; -4.3160208E+08; -4.3160208E+08;1;  5.3843930E-02;  2.5666797E+02;  0.0000000E+00; -3.8826142E-03;  1.0000000E+02;  0.0000000E+00;  9.0800880E+01;  4.4348676E-02;  0.0000000E+00;  9.4952546E-03;  0.0000000E+00;
  4.0787468E+00;  9.9999998E-03;  1.0494810E+00;552;  6.7407541E-02;  0.0000000E+00;  9.8915482E-03;  9.9876223E+00;  2.6170984E-01; -1.1044409E+00;3; -3.9920019E-04;  0.0000000E+00;  1.5876573E-04; -4.3160208E+08; -4.3160208E+08; -4.3160208E+08;1;  5.3832259E-02;  2.5663583E+02;  0.0000000E+00; -3.9833589E-03;  1.0000000E+02;  0.0000000E+00;  9.0798431E+01;  4.4343308E-02;  0.0000000E+00;  9.4889514E-03;  0.0000000E+00;
  4.0778704E+00;  9.9999998E-03;  6.3119519E-01;554;  6.6657476E-02;  0.0000000E+00;  6.4258506E-03;  9.9876490E+00;  2.6163325E-01; -1.1021146E+00;3; -2.0300827E-03;  0.0000000E+00; -1.7093589E-04; -4.3160208E+08; -4.3160208E+08; -4.3160208E+08;1;  5.3693734E-02;  2.5676279E+02;  0.0000000E+00; -4.1407002E-03;  1.0000000E+02;  0.0000000E+00;  9.0807098E+01;  4.4260770E-02;  0.0000000E+00;  9.4329622E-03;  0.0000000E+00;
  4.0766044E+00;  9.9999998E-03;  4.2168599E-01;556;  6.6542879E-02;  0.0000000E+00;  4.8886407E-03;  9.9876690E+00;  2.6154065E-01; -1.1003264E+00;3; -1.9547271E-03;  0.0000000E+00;  1.1910621E-04; -4.3160208E+08; -4.3160208E+08; -4.3160208E+08;1;  5.3582206E-02;  2.5691330E+02;  0.0000000E+00; -2.6997430E-03;  1.0000000E+02;  0.0000000E+00;  9.0819809E+01;  4.4126213E-02;  0.0000000E+00;  9.4559947E-03;  0.0000000E+00;
  4.1867609E+00;  9.9999998E-03; -1.2449100E-10;558;  6.4455219E-02;  0.0000000E+00; -4.0453038E-08;  9.9876480E+00;  2.6228905E-01; -1.1007615E+00;3; -2.5201682E-03;  0.0000000E+00;  1.4526418E-06; -4.3160208E+08; -4.3160208E+08; -4.3160208E+08;1;  5.5608492E-02;  2.5579478E+02;  0.0000000E+00;  7.1219012E-12;  1.0000000E+02;  0.0000000E+00;  9.0696518E+01;  4.5744456E-02;  0.0000000E+00;  9.8640360E-03;  0.0000000E+00;
  4.0727301E+00;  9.9999998E-03;  2.1089624E-01;559;  6.5085284E-02;  0.0000000E+00;  3.3608943E-03;  9.9876938E+00;  2.6142734E-01; -1.0981544E+00;3; -2.2744166E-03;  0.0000000E+00;  1.6246650E-04; -4.3160208E+08; -4.3160208E+08; -4.3160208E+08;1;  5.3403020E-02;  2.5708740E+02;  0.0000000E+00; -8.4801979E-04;  1.0000000E+02;  0.0000000E+00;  9.0836945E+01;  4.3965895E-02;  0.0000000E+00;  9.4371252E-03;  0.0000000E+00;
  3.8311963E+00;  9.9999998E-03;  1.0453323E+00;567;  5.6250568E-02;  0.0000000E+00;  8.5793193E-03;  9.9873314E+00;  2.5793758E-01; -1.1370440E+00;3; -1.8835637E-03;  0.0000000E+00; -1.6902687E-04; -4.3160208E+08; -4.3160208E+08; -4.3160208E+08;1;  5.0076663E-02;  2.6245703E+02;  0.0000000E+00; -3.2636963E-03;  1.0000000E+02;  0.0000000E+00;  9.1396706E+01;  4.1607212E-02;  0.0000000E+00;  8.4694512E-03;  0.0000000E+00;
  3.8265741E+00;  9.9999998E-03;  8.3702087E-01;569;  5.2836884E-02;  0.0000000E+00;  7.0393700E-03;  9.9874401E+00;  2.5750703E-01; -1.1274974E+00;3; -4.8220395E-03;  0.0000000E+00; -9.4614242E-04; -4.3160208E+08; -4.3160208E+08; -4.3160208E+08;1;  4.9539350E-02;  2.6318799E+02;  0.0000000E+00; -2.4662085E-02;  1.0000000E+02;  0.0000000E+00;  9.1449974E+01;  4.1155245E-02;  0.0000000E+00;  8.3841067E-03;  0.0000000E+00;
  3.8250329E+00;  9.9999998E-03;  6.2900108E-01;573;  5.3123105E-02;  0.0000000E+00;  5.5514174E-03;  9.9876490E+00;  2.5695994E-01; -1.1088330E+00;3; -4.3623024E-03;  0.0000000E+00; -2.0298902E-03; -4.3160208E+08; -4.3160208E+08; -4.3160208E+08;1;  4.8668511E-02;  2.6412845E+02;  0.0000000E+00; -2.3973728E-02;  1.0000000E+02;  0.0000000E+00;  9.1515907E+01;  4.0469497E-02;  0.0000000E+00;  8.1990128E-03;  0.0000000E+00;
  3.8232319E+00;  9.9999998E-03;  4.2085135E-01;575;  5.3632267E-02;  0.0000000E+00;  4.2350716E-03;  9.9878473E+00;  2.5638288E-01; -1.0910870E+00;3; -3.3458073E-03;  0.0000000E+00;  4.0473740E-04; -4.3160208E+08; -4.3160208E+08; -4.3160208E+08;1;  4.7851898E-02;  2.6511896E+02;  0.0000000E+00; -1.3096243E-02;  1.0000000E+02;  0.0000000E+00;  9.1591118E+01;  3.9759763E-02;  0.0000000E+00;  8.0921343E-03;  0.0000000E+00;
  3.8193033E+00;  9.9999998E-03;  2.1225470E-01;577;  5.2892465E-02;  0.0000000E+00;  2.6522677E-03;  9.9880219E+00;  2.5590381E-01; -1.0755659E+00;3; -2.8537975E-03;  0.0000000E+00; -7.0718111E-04; -4.3160208E+08; -4.3160208E+08; -4.3160208E+08;1;  4.7078744E-02;  2.6595819E+02;  0.0000000E+00; -3.5396682E-03;  1.0000000E+02;  0.0000000E+00;  9.1645554E+01;  3.9138004E-02;  0.0000000E+00;  7.9407394E-03;  0.0000000E+00;
  3.9327860E+00;  9.9999998E-03; -4.5498190E-08;580;  5.1953480E-02;  0.0000000E+00; -6.2132443E-08;  9.9879055E+00;  2.5666213E-01; -1.0821989E+00;3; -3.0072706E-03;  0.0000000E+00;  1.3616982E-06; -4.3160208E+08; -4.3160208E+08; -4.3160208E+08;1;  4.9837522E-02;  2.6471033E+02;  0.0000000E+00;  1.1337447E-11;  1.0000000E+02;  0.0000000E+00;  9.1531502E+01;  4.1249648E-02;  0.0000000E+00;  8.5878735E-03;  0.0000000E+00;
  3.5801105E+00;  9.9999998E-03;  1.0396425E+00;583;  4.2596787E-02;  0.0000000E+00;  6.6781486E-03;  9.9874134E+00;  2.5286901E-01; -1.1460915E+00;3; -4.9946760E-03;  0.0000000E+00; -6.7720853E-04; -4.3160208E+08; -4.3160208E+08; -4.3160208E+08;1;  4.4134706E-02;  2.7041733E+02;  0.0000000E+00; -3.2228630E-02;  1.0000000E+02;  0.0000000E+00;  9.2301720E+01;  3.7384484E-02;  0.0000000E+00;  6.7502209E-03;  0.0000000E+00;
  3.5746739E+00;  9.9999998E-03;  8.3227950E-01;585;  4.0172122E-02;  0.0000000E+00;  5.2497182E-03;  9.9877033E+00;  2.5199237E-01; -1.1201737E+00;3; -5.9681055E-03;  0.0000000E+00; -1.0772038E-03; -4.3160208E+08; -4.3160208E+08; -4.3160208E+08;1;  4.2949107E-02;  2.7199258E+02;  0.0000000E+00; -5.3814653E-02;  1.0000000E+02;  0.0000000E+00;  9.2411072E+01;  3.6494285E-02;  0.0000000E+00;  6.4548203E-03;  0.0000000E+00;
  3.5729024E+00;  9.9999998E-03;  6.2528288E-01;587;  4.0560506E-02;  0.0000000E+00;  4.0832893E-03;  9.9880075E+00;  2.5099155E-01; -1.0926464E+00;3; -5.3744265E-03;  0.0000000E+00; -5.7812245E-04; -4.3160208E+08; -4.3160208E+08; -4.3160208E+08;1;  4.1877959E-02;  2.7381082E+02;  0.0000000E+00; -4.3317325E-02;  1.0000000E+02;  0.0000000E+00;  9.2535339E+01;  3.5502635E-02;  0.0000000E+00;  6.3753244E-03;  0.0000000E+00;
  3.5729115E+00;  9.9999998E-03;  4.1820699E-01;589;  4.2048622E-02;  0.0000000E+00;  2.9194937E-03;  9.9883137E+00;  2.5002459E-01; -1.0647321E+00;3; -4.3192627E-03;  0.0000000E+00;  1.6595956E-03; -4.3160208E+08; -4.3160208E+08; -4.3160208E+08;1;  4.0823180E-02;  2.7557559E+02;  0.0000000E+00; -2.2379266E-02;  1.0000000E+02;  0.0000000E+00;  9.2660835E+01;  3.4597464E-02;  0.0000000E+00;  6.2257168E-03;  0.0000000E+00;
  3.5729437E+00;  9.9999998E-03;  2.1090865E-01;593;  4.3633237E-02;  0.0000000E+00;  9.2000258E-04;  9.9885645E+00;  2.4931632E-01; -1.0419205E+00;3; -2.7742190E-03;  0.0000000E+00; -1.6917425E-03; -4.3160208E+08; -4.3160208E+08; -4.3160208E+08;1;  3.9936341E-02;  2.7691751E+02;  0.0000000E+00; -5.9071477E-03;  1.0000000E+02;  0.0000000E+00;  9.2739059E+01;  3.3946235E-02;  0.0000000E+00;  5.9901057E-03;  0.0000000E+00;
  3.6872294E+00;  9.9999998E-03; -3.3348634E-08;594;  4.2615149E-02;  0.0000000E+00; -2.3192683E-08;  9.9884233E+00;  2.4969536E-01; -1.0460981E+00;3; -2.9378615E-03;  0.0000000E+00;  1.0240682E-06; -4.3160208E+08; -4.3160208E+08; -4.3160208E+08;1;  4.2821132E-02;  2.7631042E+02;  0.0000000E+00;  8.8366085E-12;  1.0000000E+02;  0.0000000E+00;  9.2657829E+01;  3.5922103E-02;  0.0000000E+00;  6.8990309E-03;  0.0000000E+00;
  3.3297169E+00;  9.9999998E-03;  1.0322901E+00;602;  3.1914916E-02;  0.0000000E+00;  4.4408850E-03;  9.9880772E+00;  2.4619292E-01; -1.1182551E+00;3; -3.8541930E-03;  0.0000000E+00; -2.4181982E-03; -4.3160208E+08; -4.3160208E+08; -4.3160208E+08;1;  3.6314592E-02;  2.8131433E+02;  0.0000000E+00; -1.7047711E-02;  1.0000000E+02;  0.0000000E+00;  9.3615105E+01;  3.1802893E-02;  0.0000000E+00;  4.5117005E-03;  0.0000000E+00;
  3.3263483E+00;  9.9999998E-03;  8.2599688E-01;607;  3.1023923E-02;  0.0000000E+00;  3.3857692E-03;  9.9883041E+00;  2.4522068E-01; -1.0975262E+00;3; -4.0417775E-03;  0.0000000E+00; -1.9483087E-03; -4.3160208E+08; -4.3160208E+08; -4.3160208E+08;1;  3.5548486E-02;  2.8320248E+02;  0.0000000E+00; -1.1430728E-03;  1.0000000E+02;  0.0000000E+00;  9.3732040E+01;  3.1163460E-02;  0.0000000E+00;  4.3850243E-03;  0.0000000E+00;
  3.3255928E+00;  9.9999998E-03;  6.1996394E-01;609;  3.0637022E-02;  0.0000000E+00;  2.4190205E-03;  9.9885216E+00;  2.4415249E-01; -1.0772924E+00;3; -4.9435114E-03;  0.0000000E+00; -2.6084282E-03; -4.3160208E+08; -4.3160208E+08; -4.3160208E+08;1;  3.4849305E-02;  2.8530405E+02;  0.0000000E+00;  3.3173067E-03;  1.0000000E+02;  0.0000000E+00;  9.3859787E+01;  3.0534882E-02;  0.0000000E+00;  4.3144212E-03;  0.0000000E+00;
  3.3306801E+00;  9.9999998E-03;  4.1406170E-01;611;  3.5690453E-02;  0.0000000E+00;  1.0480101E-03;  9.9887581E+00;  2.4321420E-01; -1.0542562E+00;3; -5.2113016E-04;  0.0000000E+00; -1.3539100E-03; -4.3160208E+08; -4.3160208E+08; -4.3160208E+08;1;  3.4250014E-02;  2.8720715E+02;  0.0000000E+00; -1.2832191E-03;  1.0000000E+02;  0.0000000E+00;  9.3962479E+01;  3.0173270E-02;  0.0000000E+00;  4.0767454E-03;  0.0000000E+00;
  3.3369942E+00;  9.9999998E-03;  2.0752902E-01;613;  3.9085772E-02;  0.0000000E+00; -2.7781698E-05;  9.9888582E+00;  2.4254812E-01; -1.0438579E+00;3; -7.1367703E-04;  0.0000000E+00; -1.0712009E-03; -4.3160208E+08; -4.3160208E+08; -4.3160208E+08;1;  3.4075934E-02;  2.8855063E+02;  0.0000000E+00; -1.3735231E-03;  1.0000000E+02;  0.0000000E+00;  9.4041595E+01;  2.9973092E-02;  0.0000000E+00;  4.1028433E-03;  0.0000000E+00;
  3.4556525E+00;  9.9999998E-03; -1.7648732E-08;614;  4.0072735E-02;  0.0000000E+00;  9.4117947E-10;  9.9888268E+00;  2.4246450E-01; -1.0301819E+00;3; -1.1029138E-03;  0.0000000E+00;  5.6035788E-07; -4.3160208E+08; -4.3160208E+08; -4.3160208E+08;1;  3.6613520E-02;  2.8879385E+02;  0.0000000E+00;  2.4407258E-12;  1.0000000E+02;  0.0000000E+00;  9.4026108E+01;  3.1530425E-02;  0.0000000E+00;  5.0830944E-03;  0.0000000E+00;
  4.3230433E+00;  9.9999998E-03;  1.0526313E+00;546;  7.6672241E-02;  0.0000000E+00;  1.0755176E-02;  9.9879074E+00;  2.6505977E-01; -1.0765836E+00;3; -7.2971836E-04;  0.0000000E+00;  6.4260722E-04; -4.3160208E+08; -4.3160208E+08; -4.3160208E+08;1;  5.6507766E-02;  2.5149902E+02;  0.0000000E+00;  5.0997868E-04;  1.0000000E+02;  0.0000000E+00;  9.0328857E+01;  4.6391062E-02;  0.0000000E+00;  1.0116702E-02;  0.0000000E+00;
  4.3252254E+00;  9.9999998E-03;  8.4280831E-01;547;  7.7292748E-02;  0.0000000E+00;  8.8435160E-03;  9.9878435E+00;  2.6520130E-01; -1.0822487E+00;3; -1.1215516E-03;  0.0000000E+00;  2.8449084E-04; -4.3160208E+08; -4.3160208E+08; -4.3160208E+08;1;  5.6834444E-02;  2.5127724E+02;  0.0000000E+00; -1.0762307E-03;  1.0000000E+02;  0.0000000E+00;  9.0311729E+01;  4.6631254E-02;  0.0000000E+00;  1.0203188E-02;  0.0000000E+00;
  4.3275633E+00;  9.9999998E-03;  6.3280773E-01;541;  7.8086227E-02;  0.0000000E+00;  6.8732547E-03;  9.9877930E+00;  2.6536849E-01; -1.0867454E+00;3; -1.3235657E-03;  0.0000000E+00;  7.9628627E-04; -4.3160208E+08; -4.3160208E+08; -4.3160208E+08;1;  5.7109017E-02;  2.5101135E+02;  0.0000000E+00; -1.6021288E-03;  1.0000000E+02;  0.0000000E+00;  9.0292923E+01;  4.6899352E-02;  0.0000000E+00;  1.0209664E-02;  0.0000000E+00;
  4.3295646E+00;  9.9999998E-03;  4.2205796E-01;542;  7.8646295E-02;  0.0000000E+00;  4.7872034E-03;  9.9877319E+00;  2.6553759E-01; -1.0921460E+00;3; -1.5370328E-03;  0.0000000E+00; -2.9254696E-04; -4.3160208E+08; -4.3160208E+08; -4.3160208E+08;1;  5.7420090E-02;  2.5074641E+02;  0.0000000E+00; -8.9631538E-04;  1.0000000E+02;  0.0000000E+00;  9.0272217E+01;  4.7171701E-02;  0.0000000E+00;  1.0248389E-02;  0.0000000E+00;
  4.3299332E+00;  9.9999998E-03;  2.0862836E-01;391;  7.8496896E-02;  0.0000000E+00;  3.0175806E-03;  9.9876575E+00;  2.6564273E-01; -1.0987768E+00;3; -1.8012872E-03;  0.0000000E+00;  8.1433431E-04;  0.0000000E+00;  0.0000000E+00;  0.0000000E+00;1;  5.7772674E-02;  2.5053854E+02;  0.0000000E+00;  2.0181993E-05;  1.0000000E+02;  0.0000000E+00;  9.0274895E+01;  4.7395431E-02;  0.0000000E+00;  1.0377244E-02;  0.0000000E+00;
  4.3311429E+00;  9.9999998E-03;  4.2178407E-08;390;  7.8539088E-02;  0.0000000E+00;  3.1940406E-09;  9.9876413E+00;  2.6579994E-01; -1.1002023E+00;3; -2.5086708E-03;  0.0000000E+00;  1.3410092E-06;  0.0000000E+00;  0.0000000E+00;  0.0000000E+00;1;  5.7863444E-02;  2.5044884E+02;  0.0000000E+00;  7.6713240E-13;  1.0000000E+02;  0.0000000E+00;  9.0200272E+01;  4.7498416E-02;  0.0000000E+00;  1.0365028E-02;  0.0000000E+00;
  4.4393692E+00;  9.9999998E-03;  1.0531093E+00;395;  7.6695301E-02;  0.0000000E+00;  1.1061253E-02;  9.9879560E+00;  2.6560348E-01; -1.0716805E+00;3; -9.8893675E-04;  0.0000000E+00;  7.2041916E-04;  0.0000000E+00;  0.0000000E+00;  0.0000000E+00;1;  5.7755213E-02;  2.5067920E+02;  0.0000000E+00; -7.8495946E-03;  1.0000000E+02;  0.0000000E+00;  9.0253815E+01;  4.7386009E-02;  0.0000000E+00;  1.0369205E-02;  0.0000000E+00;
  4.4416265E+00;  9.9999998E-03;  8.4317547E-01;394;  7.7384874E-02;  0.0000000E+00;  9.0649435E-03;  9.9878960E+00;  2.6573923E-01; -1.0770290E+00;3; -1.3314991E-03;  0.0000000E+00;  5.7388283E-04;  0.0000000E+00;  0.0000000E+00;  0.0000000E+00;1;  5.8067095E-02;  2.5046881E+02;  0.0000000E+00; -5.9077754E-03;  1.0000000E+02;  0.0000000E+00;  9.0237686E+01;  4.7624245E-02;  0.0000000E+00;  1.0442849E-02;  0.0000000E+00;
  4.4440413E+00;  9.9999998E-03;  6.3302815E-01;393;  7.8236237E-02;  0.0000000E+00;  6.9755148E-03;  9.9878416E+00;  2.6590717E-01; -1.0818464E+00;3; -1.5140950E-03;  0.0000000E+00;  7.6727767E-04;  0.0000000E+00;  0.0000000E+00;  0.0000000E+00;1;  5.8356807E-02;  2.5020309E+02;  0.0000000E+00; -2.2065022E-03;  1.0000000E+02;  0.0000000E+00;  9.0218636E+01;  4.7908034E-02;  0.0000000E+00;  1.0448773E-02;  0.0000000E+00;
  4.4462361E+00;  9.9999998E-03;  4.2205635E-01;392;  7.8934446E-02;  0.0000000E+00;  4.7171311E-03;  9.9877739E+00;  2.6608282E-01; -1.0878844E+00;3; -1.6801625E-03;  0.0000000E+00; -5.4510130E-04;  0.0000000E+00;  0.0000000E+00;  0.0000000E+00;1;  5.8709677E-02;  2.4992964E+02;  0.0000000E+00; -4.0436502E-05;  1.0000000E+02;  0.0000000E+00;  9.0197380E+01;  4.8209921E-02;  0.0000000E+00;  1.0499758E-02;  0.0000000E+00;
  4.5961752E+00;  9.9999998E-03;  8.5519950E-08;401;  9.6078768E-02;  0.0000000E+00;  3.8982556E-08;  9.9877119E+00;  2.6885861E-01; -1.0929813E+00;3; -1.1103641E-03;  0.0000000E+00;  6.4252208E-07;  0.0000000E+00;  0.0000000E+00;  0.0000000E+00;1;  6.0473479E-02;  2.4588246E+02;  0.0000000E+00; -1.2699911E-12;  1.0000000E+02;  0.0000000E+00;  8.9798813E+01;  4.9546670E-02;  0.0000000E+00;  1.0926810E-02;  0.0000000E+00;
  4.5872140E+00;  9.9999998E-03;  2.0852296E-01;402;  9.1791034E-02;  0.0000000E+00;  2.3064234E-03;  9.9877405E+00;  2.6866364E-01; -1.0904552E+00;3; -2.1045126E-03;  0.0000000E+00;  1.2417091E-03;  0.0000000E+00;  0.0000000E+00;  0.0000000E+00;1;  6.0256399E-02;  2.4598985E+02;  0.0000000E+00;  4.0859173E-04;  1.0000000E+02;  0.0000000E+00;  8.9890076E+01;  4.9395490E-02;  0.0000000E+00;  1.0860911E-02;  0.0000000E+00;
  4.5805511E+00;  9.9999998E-03;  4.2335474E-01;403;  8.9733861E-02;  0.0000000E+00;  4.6244147E-03;  9.9878082E+00;  2.6861355E-01; -1.0844254E+00;3; -1.8895429E-03;  0.0000000E+00; -4.0330668E-04;  0.0000000E+00;  0.0000000E+00;  0.0000000E+00;1;  5.9870541E-02;  2.4612230E+02;  0.0000000E+00;  6.8872661E-04;  1.0000000E+02;  0.0000000E+00;  8.9875427E+01;  4.9173824E-02;  0.0000000E+00;  1.0696717E-02;  0.0000000E+00;
  4.6910143E+00;  9.9999998E-03;  6.3481182E-01;404;  8.8190913E-02;  0.0000000E+00;  7.2124205E-03;  9.9878502E+00;  2.6887658E-01; -1.0805221E+00;3; -2.0557807E-03;  0.0000000E+00;  9.0674398E-04;  0.0000000E+00;  0.0000000E+00;  0.0000000E+00;1;  6.0415942E-02;  2.4573849E+02;  0.0000000E+00;  1.7686537E-03;  1.0000000E+02;  0.0000000E+00;  8.9839310E+01;  4.9584229E-02;  0.0000000E+00;  1.0831714E-02;  0.0000000E+00;
  4.6863680E+00;  9.9999998E-03;  8.4520781E-01;405;  8.7103248E-02;  0.0000000E+00;  9.4681364E-03;  9.9878521E+00;  2.6890022E-01; -1.0803696E+00;3; -1.7155726E-03;  0.0000000E+00;  6.0801249E-04;  0.0000000E+00;  0.0000000E+00;  0.0000000E+00;1;  6.0381275E-02;  2.4571005E+02;  0.0000000E+00; -2.3300836E-03;  1.0000000E+02;  0.0000000E+00;  8.9835510E+01;  4.9483418E-02;  0.0000000E+00;  1.0897856E-02;  0.0000000E+00;
  4.6844921E+00;  9.9999998E-03;  1.0554312E+00;406;  8.8434733E-02;  0.0000000E+00;  1.1565539E-02;  9.9878597E+00;  2.6895320E-01; -1.0796831E+00;3;  6.6165626E-04;  0.0000000E+00;  9.8517491E-04;  0.0000000E+00;  0.0000000E+00;  0.0000000E+00;1;  6.0333632E-02;  2.4562878E+02;  0.0000000E+00; -5.8325906E-03;  1.0000000E+02;  0.0000000E+00;  8.9829247E+01;  4.9472973E-02;  0.0000000E+00;  1.0860658E-02;  0.0000000E+00;
  4.8487325E+00;  9.9999998E-03;  7.1534551E-08;412;  1.0932991E-01;  0.0000000E+00;  6.4183325E-08;  9.9877853E+00;  2.7021438E-01; -1.0861371E+00;3;  4.1311968E-04;  0.0000000E+00; -5.2726597E-07;  0.0000000E+00;  0.0000000E+00;  0.0000000E+00;1;  6.1227191E-02;  2.4381874E+02;  0.0000000E+00;  1.1003438E-12;  1.0000000E+02;  0.0000000E+00;  8.9652596E+01;  5.0136842E-02;  0.0000000E+00;  1.1090348E-02;  0.0000000E+00;
  4.9593596E+00;  9.9999998E-03;  2.1324633E-01;413;  1.0725512E-01;  0.0000000E+00;  2.1285522E-03;  9.9878426E+00;  2.7002031E-01; -1.0809830E+00;3; -6.2030071E-05;  0.0000000E+00;  1.6444616E-05;  0.0000000E+00;  0.0000000E+00;  0.0000000E+00;1;  6.0845606E-02;  2.4407892E+02;  0.0000000E+00;  7.0619560E-04;  1.0000000E+02;  0.0000000E+00;  8.9686432E+01;  4.9879145E-02;  0.0000000E+00;  1.0966462E-02;  0.0000000E+00;
  4.9487286E+00;  9.9999998E-03;  4.2599586E-01;414;  1.0252378E-01;  0.0000000E+00;  5.3789830E-03;  9.9877577E+00;  2.7031580E-01; -1.0885139E+00;3; -1.1454945E-03;  0.0000000E+00; -4.7319525E-04;  0.0000000E+00;  0.0000000E+00;  0.0000000E+00;1;  6.1292607E-02;  2.4363316E+02;  0.0000000E+00;  2.6569911E-03;  1.0000000E+02;  0.0000000E+00;  8.9653282E+01;  5.0218426E-02;  0.0000000E+00;  1.1074182E-02;  0.0000000E+00;
  4.9411330E+00;  9.9999998E-03;  6.3654226E-01;415;  9.9718437E-02;  0.0000000E+00;  7.5196587E-03;  9.9876890E+00;  2.7069217E-01; -1.0946124E+00;3; -1.6658595E-03;  0.0000000E+00;  2.0472334E-04;  0.0000000E+00;  0.0000000E+00;  0.0000000E+00;1;  6.1657105E-02;  2.4306488E+02;  0.0000000E+00;  2.0318008E-03;  1.0000000E+02;  0.0000000E+00;  8.9611946E+01;  5.0590660E-02;  0.0000000E+00;  1.1066443E-02;  0.0000000E+00;
  4.9369721E+00;  9.9999998E-03;  8.4651309E-01;416;  9.8788746E-02;  0.0000000E+00;  9.7048795E-03;  9.9876022E+00;  2.7106959E-01; -1.1023523E+00;3; -1.1469031E-03;  0.0000000E+00;  7.5849029E-04;  0.0000000E+00;  0.0000000E+00;  0.0000000E+00;1;  6.2101111E-02;  2.4250583E+02;  0.0000000E+00; -2.1699832E-03;  1.0000000E+02;  0.0000000E+00;  8.9568260E+01;  5.0903112E-02;  0.0000000E+00;  1.1197998E-02;  0.0000000E+00;
  4.9374843E+00;  9.9999998E-03;  1.0566347E+00;417;  1.0173394E-01;  0.0000000E+00;  1.1817555E-02;  9.9875193E+00;  2.7140376E-01; -1.1097187E+00;3;  2.4721564E-03;  0.0000000E+00;  9.1296778E-04;  0.0000000E+00;  0.0000000E+00;  0.0000000E+00;1;  6.2514566E-02;  2.4200974E+02;  0.0000000E+00;  1.0009487E-02;  1.0000000E+02;  0.0000000E+00;  8.9528549E+01;  5.1264115E-02;  0.0000000E+00;  1.1250453E-02;  0.0000000E+00;
  5.0876632E+00;  9.9999998E-03;  6.5341013E-08;423;  1.1596365E-01;  0.0000000E+00;  1.3233652E-07;  9.9879065E+00;  2.6902619E-01; -1.0752649E+00;3;  3.0051882E-04;  0.0000000E+00; -1.9047241E-06;  0.0000000E+00;  0.0000000E+00;  0.0000000E+00;1;  5.9924867E-02;  2.4547502E+02;  0.0000000E+00;  8.9565177E-13;  1.0000000E+02;  0.0000000E+00;  8.9838394E+01;  4.9056709E-02;  0.0000000E+00;  1.0868158E-02;  0.0000000E+00;
  5.2059755E+00;  9.9999998E-03;  2.1861222E-01;424;  1.1731614E-01;  0.0000000E+00;  2.8438452E-03;  9.9879150E+00;  2.6861003E-01; -1.0744435E+00;3;  1.2230694E-03;  0.0000000E+00; -4.8155096E-04;  0.0000000E+00;  0.0000000E+00;  0.0000000E+00;1;  5.8856942E-02;  2.4625336E+02;  0.0000000E+00;  1.6690583E-05;  1.0000000E+02;  0.0000000E+00;  8.9832443E+01;  4.8249919E-02;  0.0000000E+00;  1.0607021E-02;  0.0000000E+00;
  5.2050543E+00;  9.9999998E-03;  4.2768645E-01;425;  1.1600582E-01;  0.0000000E+00;  5.7380456E-03;  9.9877129E+00;  2.6914647E-01; -1.0924083E+00;3;  5.0716102E-04;  0.0000000E+00; -5.7526637E-04;  0.0000000E+00;  0.0000000E+00;  0.0000000E+00;1;  5.9848882E-02;  2.4539609E+02;  0.0000000E+00; -2.8869137E-03;  1.0000000E+02;  0.0000000E+00;  8.9783890E+01;  4.9024258E-02;  0.0000000E+00;  1.0824625E-02;  0.0000000E+00;
  5.2069182E+00;  9.9999998E-03;  6.3670802E-01;426;  1.1615006E-01;  0.0000000E+00;  7.5602620E-03;  9.9875259E+00;  2.6978719E-01; -1.1090480E+00;3;  2.6094512E-04;  0.0000000E+00; -8.7121932E-04;  0.0000000E+00;  0.0000000E+00;  0.0000000E+00;1;  6.0741685E-02;  2.4441740E+02;  0.0000000E+00; -7.7139339E-03;  1.0000000E+02;  0.0000000E+00;  8.9713501E+01;  4.9828008E-02;  0.0000000E+00;  1.0913676E-02;  0.0000000E+00;
  5.2118821E+00;  9.9999998E-03;  8.4587181E-01;427;  1.1655845E-01;  0.0000000E+00;  9.5032137E-03;  9.9873610E+00;  2.7037051E-01; -1.1237262E+00;3; -6.5716027E-05;  0.0000000E+00;  7.3482434E-04;  0.0000000E+00;  0.0000000E+00;  0.0000000E+00;1;  6.1496168E-02;  2.4353635E+02;  0.0000000E+00;  2.4865044E-03;  1.0000000E+02;  0.0000000E+00;  8.9647919E+01;  5.0423183E-02;  0.0000000E+00;  1.1072988E-02;  0.0000000E+00;
  5.2156572E+00;  9.9999998E-03;  1.0555581E+00;428;  1.1599932E-01;  0.0000000E+00;  1.1494518E-02;  9.9872522E+00;  2.7083203E-01; -1.1333704E+00;3; -7.2256854E-04;  0.0000000E+00;  4.5016248E-04;  0.0000000E+00;  0.0000000E+00;  0.0000000E+00;1;  6.1975494E-02;  2.4284874E+02;  0.0000000E+00; -4.4607716E-03;  1.0000000E+02;  0.0000000E+00;  8.9594009E+01;  5.0830077E-02;  0.0000000E+00;  1.1145418E-02;  0.0000000E+00;
  5.3373995E+00;  9.9999998E-03;  2.3511479E-08;434;  1.2602602E-01;  0.0000000E+00;  1.7624447E-07;  9.9881010E+00;  2.6437885E-01; -1.0578917E+00;3;  1.4426168E-03;  0.0000000E+00; -2.8889663E-06;  0.0000000E+00;  0.0000000E+00;  0.0000000E+00;1;  5.6276277E-02;  2.5248550E+02;  0.0000000E+00;  2.3417932E-13;  1.0000000E+02;  0.0000000E+00;  9.0444130E+01;  4.6128191E-02;  0.0000000E+00;  1.0148087E-02;  0.0000000E+00;
  5.4626808E+00;  9.9999998E-03;  2.1696874E-01;435;  1.2730239E-01;  0.0000000E+00;  3.1863672E-03;  9.9881306E+00;  2.6342517E-01; -1.0552851E+00;3;  1.0226538E-03;  0.0000000E+00;  1.3648163E-03;  0.0000000E+00;  0.0000000E+00;  0.0000000E+00;1;  5.4007076E-02;  2.5417627E+02;  0.0000000E+00; -2.5141180E-02;  1.0000000E+02;  0.0000000E+00;  9.0495377E+01;  4.4280723E-02;  0.0000000E+00;  9.7263521E-03;  0.0000000E+00;
  5.4837790E+00;  9.9999998E-03;  4.2509949E-01;436;  1.3651654E-01;  0.0000000E+00;  4.9391864E-03;  9.9879780E+00;  2.6381040E-01; -1.0688497E+00;3;  3.6083341E-03;  0.0000000E+00; -6.1253062E-04;  0.0000000E+00;  0.0000000E+00;  0.0000000E+00;1;  5.4282404E-02;  2.5358005E+02;  0.0000000E+00; -5.8807462E-02;  1.0000000E+02;  0.0000000E+00;  9.0440674E+01;  4.4487834E-02;  0.0000000E+00;  9.7945705E-03;  0.0000000E+00;
  5.4971852E+00;  9.9999998E-03;  6.3344133E-01;437;  1.4132164E-01;  0.0000000E+00;  6.7101475E-03;  9.9877148E+00;  2.6449823E-01; -1.0922185E+00;3;  5.3959303E-03;  0.0000000E+00; -1.8487147E-03;  0.0000000E+00;  0.0000000E+00;  0.0000000E+00;1;  5.5178292E-02;  2.5248544E+02;  0.0000000E+00; -1.5585099E-02;  1.0000000E+02;  0.0000000E+00;  9.0356995E+01;  4.5189690E-02;  0.0000000E+00;  9.9886004E-03;  0.0000000E+00;
  5.5009694E+00;  9.9999998E-03;  8.4219640E-01;438;  1.3437524E-01;  0.0000000E+00;  8.4198108E-03;  9.9875584E+00;  2.6515815E-01; -1.1061553E+00;3;  3.3525941E-03;  0.0000000E+00;  4.2172062E-05;  0.0000000E+00;  0.0000000E+00;  0.0000000E+00;1;  5.5839941E-02;  2.5144579E+02;  0.0000000E+00;  1.9188201E-01;  1.0000000E+02;  0.0000000E+00;  9.0278259E+01;  4.5761593E-02;  0.0000000E+00;  1.0078347E-02;  0.0000000E+00;
  5.5187201E+00;  9.9999998E-03;  1.0515097E+00;439;  1.4175473E-01;  0.0000000E+00;  1.0280073E-02;  9.9873028E+00;  2.6614463E-01; -1.1288347E+00;3;  3.6733206E-03;  0.0000000E+00; -7.7598373E-04;  0.0000000E+00;  0.0000000E+00;  0.0000000E+00;1;  5.6567810E-02;  2.4990958E+02;  0.0000000E+00; -2.6987153E-01;  1.0000000E+02;  0.0000000E+00;  9.0157761E+01;  4.6400156E-02;  0.0000000E+00;  1.0167654E-02;  0.0000000E+00;
  5.6048746E+00;  9.9999998E-03; -7.0337713E-08;445;  1.3443977E-01;  0.0000000E+00;  1.1622478E-07;  9.9884529E+00;  2.5584140E-01; -1.0266097E+00;3; -8.6925598E-04;  0.0000000E+00; -1.0292279E-06;  0.0000000E+00;  0.0000000E+00;  0.0000000E+00;1;  4.9562268E-02;  2.6655951E+02;  0.0000000E+00;  1.0278631E-11;  1.0000000E+02;  0.0000000E+00;  9.1485817E+01;  4.0695533E-02;  0.0000000E+00;  8.8667348E-03;  0.0000000E+00;
  5.7536054E+00;  9.9999998E-03;  2.0948985E-01;446;  1.4519137E-01;  0.0000000E+00;  4.8991025E-04;  9.9887028E+00;  2.5451812E-01; -1.0044024E+00;3;  4.5444863E-04;  0.0000000E+00;  7.1979553E-04;  0.0000000E+00;  0.0000000E+00;  0.0000000E+00;1;  4.4762142E-02;  2.6883102E+02;  0.0000000E+00; -6.0285058E-02;  1.0000000E+02;  0.0000000E+00;  9.1663651E+01;  3.6828592E-02;  0.0000000E+00;  7.9335487E-03;  0.0000000E+00;
  5.7734985E+00;  9.9999998E-03;  4.1979739E-01;447;  1.5503523E-01;  0.0000000E+00;  3.4134772E-03;  9.9883575E+00;  2.5554422E-01; -1.0350842E+00;3;  2.2203806E-03;  0.0000000E+00; -1.9749254E-03;  0.0000000E+00;  0.0000000E+00;  0.0000000E+00;1;  4.5542896E-02;  2.6714920E+02;  0.0000000E+00; -5.4163534E-02;  1.0000000E+02;  0.0000000E+00;  9.1495560E+01;  3.7304670E-02;  0.0000000E+00;  8.2382243E-03;  0.0000000E+00;
  5.7579923E+00;  9.9999998E-03;  6.2790006E-01;448;  1.5412329E-01;  0.0000000E+00;  5.2704937E-03;  9.9879551E+00;  2.5666824E-01; -1.0708538E+00;3;  2.1748394E-03;  0.0000000E+00; -8.8985101E-04;  0.0000000E+00;  0.0000000E+00;  0.0000000E+00;1;  4.7593519E-02;  2.6520746E+02;  0.0000000E+00; -1.8303438E-01;  1.0000000E+02;  0.0000000E+00;  9.1353958E+01;  3.8980793E-02;  0.0000000E+00;  8.6127268E-03;  0.0000000E+00;
  5.7495990E+00;  9.9999998E-03;  8.3668578E-01;449;  1.4830537E-01;  0.0000000E+00;  7.0653358E-03;  9.9878197E+00;  2.5742978E-01; -1.0828831E+00;3;  2.5793121E-03;  0.0000000E+00; -3.5209476E-04;  0.0000000E+00;  0.0000000E+00;  0.0000000E+00;1;  4.8417043E-02;  2.6394501E+02;  0.0000000E+00;  7.6293997E-02;  1.0000000E+02;  0.0000000E+00;  9.1247070E+01;  3.9590754E-02;  0.0000000E+00;  8.8262893E-03;  0.0000000E+00;
  5.7230191E+00;  9.9999998E-03;  1.0454559E+00;450;  1.4167644E-01;  0.0000000E+00;  8.8723581E-03;  9.9879503E+00;  2.5706512E-01; -1.0712785E+00;3;  3.7012426E-03;  0.0000000E+00; -1.7499747E-03;  0.0000000E+00;  0.0000000E+00;  0.0000000E+00;1;  4.8606385E-02;  2.6457425E+02;  0.0000000E+00; -2.2656667E-01;  1.0000000E+02;  0.0000000E+00;  9.1291679E+01;  3.9847348E-02;  0.0000000E+00;  8.7590367E-03;  0.0000000E+00;
  5.8560948E+00;  9.9999998E-03; -3.1528248E-07;456;  1.4566779E-01;  0.0000000E+00; -6.8669806E-08;  9.9888830E+00;  2.4603020E-01; -9.8834443E-01;3; -3.8458034E-03;  0.0000000E+00;  5.4624397E-06;  0.0000000E+00;  0.0000000E+00;  0.0000000E+00;1;  4.1137494E-02;  2.8444595E+02;  0.0000000E+00; -1.3824401E-12;  1.0000000E+02;  0.0000000E+00;  9.2715179E+01;  3.3698484E-02;  0.0000000E+00;  7.4390084E-03;  0.0000000E+00;
  5.0972896E+00;  9.9999998E-03;  1.0561230E+00;495;  1.1403616E-01;  0.0000000E+00;  1.1743814E-02;  9.9872913E+00;  2.7149627E-01; -1.1299528E+00;3; -1.5130703E-03;  0.0000000E+00;  6.7794521E-04; -4.3160208E+08; -4.3160208E+08; -4.3160208E+08;1;  6.2911265E-02;  2.4187434E+02;  0.0000000E+00;  2.1857587E-03;  1.0000000E+02;  0.0000000E+00;  8.9515572E+01;  5.1595114E-02;  0.0000000E+00;  1.1316148E-02;  0.0000000E+00;
  4.8193908E+00;  9.9999998E-03;  1.0566013E+00;497;  9.9122681E-02;  0.0000000E+00;  1.1770864E-02;  9.9876499E+00;  2.7124289E-01; -1.0981915E+00;3; -1.4769705E-04;  0.0000000E+00;  9.8117185E-04; -4.3160208E+08; -4.3160208E+08; -4.3160208E+08;1;  6.1871935E-02;  2.4224699E+02;  0.0000000E+00;  4.5651786E-02;  1.0000000E+02;  0.0000000E+00;  8.9549149E+01;  5.0734553E-02;  0.0000000E+00;  1.1137381E-02;  0.0000000E+00;
  4.8195601E+00;  9.9999998E-03;  8.4646577E-01;499;  9.7581863E-02;  0.0000000E+00;  9.6607190E-03;  9.9876890E+00;  2.7097967E-01; -1.0946932E+00;3; -1.8003784E-03;  0.0000000E+00;  7.3513918E-04; -4.3160208E+08; -4.3160208E+08; -4.3160208E+08;1;  6.1675221E-02;  2.4263646E+02;  0.0000000E+00;  1.2605964E-02;  1.0000000E+02;  0.0000000E+00;  8.9580566E+01;  5.0546579E-02;  0.0000000E+00;  1.1128641E-02;  0.0000000E+00;
  5.0931845E+00;  9.9999998E-03;  8.4633797E-01;501;  1.1416622E-01;  0.0000000E+00;  9.7068995E-03;  9.9873838E+00;  2.7102962E-01; -1.1216868E+00;3; -1.1433489E-03;  0.0000000E+00;  5.8382895E-04; -4.3160208E+08; -4.3160208E+08; -4.3160208E+08;1;  6.2481262E-02;  2.4256384E+02;  0.0000000E+00; -6.7689260E-03;  1.0000000E+02;  0.0000000E+00;  8.9570244E+01;  5.1226851E-02;  0.0000000E+00;  1.1254409E-02;  0.0000000E+00;
  4.8237462E+00;  9.9999998E-03;  6.3641715E-01;503;  9.8641805E-02;  0.0000000E+00;  7.4330345E-03;  9.9877386E+00;  2.7069372E-01; -1.0902907E+00;3; -2.0502629E-03;  0.0000000E+00;  2.3009194E-04; -4.3160208E+08; -4.3160208E+08; -4.3160208E+08;1;  6.1434522E-02;  2.4305806E+02;  0.0000000E+00;  6.3594389E-03;  1.0000000E+02;  0.0000000E+00;  8.9614014E+01;  5.0415702E-02;  0.0000000E+00;  1.1018818E-02;  0.0000000E+00;
  5.0885005E+00;  9.9999998E-03;  6.3700110E-01;505;  1.1395084E-01;  0.0000000E+00;  7.6422682E-03;  9.9875364E+00;  2.7044123E-01; -1.1081215E+00;3; -8.6342957E-04;  0.0000000E+00; -1.7899452E-05; -4.3160208E+08; -4.3160208E+08; -4.3160208E+08;1;  6.1755754E-02;  2.4344156E+02;  0.0000000E+00; -1.6496714E-02;  1.0000000E+02;  0.0000000E+00;  8.9637589E+01;  5.0681699E-02;  0.0000000E+00;  1.1074057E-02;  0.0000000E+00;
  4.8312125E+00;  9.9999998E-03;  4.2572963E-01;507;  1.0128202E-01;  0.0000000E+00;  4.9779816E-03;  9.9877758E+00;  2.7042907E-01; -1.0869986E+00;3; -1.7453948E-03;  0.0000000E+00; -1.9457907E-04; -4.3160208E+08; -4.3160208E+08; -4.3160208E+08;1;  6.1255921E-02;  2.4345245E+02;  0.0000000E+00;  4.0989132E-03;  1.0000000E+02;  0.0000000E+00;  8.9645111E+01;  5.0275106E-02;  0.0000000E+00;  1.0980814E-02;  0.0000000E+00;
  4.8416800E+00;  9.9999998E-03;  2.1211943E-01;509;  1.0547790E-01;  0.0000000E+00;  2.0668656E-03;  9.9877977E+00;  2.7021876E-01; -1.0850294E+00;3; -1.4248297E-03;  0.0000000E+00;  1.3094939E-03; -4.3160208E+08; -4.3160208E+08; -4.3160208E+08;1;  6.1165348E-02;  2.4372951E+02;  0.0000000E+00;  1.0713284E-03;  1.0000000E+02;  0.0000000E+00;  8.9682709E+01;  5.0153721E-02;  0.0000000E+00;  1.1011626E-02;  0.0000000E+00;
  4.9662685E+00;  9.9999998E-03;  6.6112918E-08;510;  1.1084663E-01;  0.0000000E+00;  1.0439969E-07;  9.9878511E+00;  2.6993945E-01; -1.0801849E+00;3;  1.5094720E-03;  0.0000000E+00; -1.1599894E-06; -4.3160208E+08; -4.3160208E+08; -4.3160208E+08;1;  6.0782213E-02;  2.4424791E+02;  0.0000000E+00;  1.6758530E-12;  1.0000000E+02;  0.0000000E+00;  8.9678490E+01;  4.9748849E-02;  0.0000000E+00;  1.1033363E-02;  0.0000000E+00;
  5.0877271E+00;  9.9999998E-03;  4.2764685E-01;512;  1.1478812E-01;  0.0000000E+00;  5.5629206E-03;  9.9876947E+00;  2.6983383E-01; -1.0940781E+00;3; -2.7799243E-04;  0.0000000E+00; -1.7434111E-04; -4.3160208E+08; -4.3160208E+08; -4.3160208E+08;1;  6.0978457E-02;  2.4436093E+02;  0.0000000E+00; -6.3236384E-03;  1.0000000E+02;  0.0000000E+00;  8.9705727E+01;  4.9997512E-02;  0.0000000E+00;  1.0980946E-02;  0.0000000E+00;
  5.0897131E+00;  9.9999998E-03;  2.1745659E-01;514;  1.1715042E-01;  0.0000000E+00;  2.3641773E-03;  9.9878521E+00;  2.6933426E-01; -1.0800869E+00;3;  8.4472861E-04;  0.0000000E+00;  2.9725683E-04; -4.3160208E+08; -4.3160208E+08; -4.3160208E+08;1;  6.0185645E-02;  2.4513094E+02;  0.0000000E+00; -6.2765228E-04;  1.0000000E+02;  0.0000000E+00;  8.9758308E+01;  4.9370430E-02;  0.0000000E+00;  1.0815215E-02;  0.0000000E+00;
  5.2041411E+00;  9.9999998E-03;  6.9576807E-08;515;  1.1632971E-01;  0.0000000E+00;  1.7626515E-07;  9.9879913E+00;  2.6825285E-01; -1.0676606E+00;3;  6.9401169E-04;  0.0000000E+00; -2.5315705E-06; -4.3160208E+08; -4.3160208E+08; -4.3160208E+08;1;  5.8506478E-02;  2.4661671E+02;  0.0000000E+00;  1.6077698E-13;  1.0000000E+02;  0.0000000E+00;  8.9939880E+01;  4.7909286E-02;  0.0000000E+00;  1.0597192E-02;  0.0000000E+00;
  4.5667629E+00;  9.9999998E-03;  1.0551008E+00;517;  8.6427525E-02;  0.0000000E+00;  1.1361522E-02;  9.9879322E+00;  2.6845664E-01; -1.0734279E+00;3; -1.0538683E-03;  0.0000000E+00;  8.7941502E-04; -4.3160208E+08; -4.3160208E+08; -4.3160208E+08;1;  5.9148733E-02;  2.4636835E+02;  0.0000000E+00;  2.6817832E-02;  1.0000000E+02;  0.0000000E+00;  8.9892494E+01;  4.8508745E-02;  0.0000000E+00;  1.0639989E-02;  0.0000000E+00;
  4.5696459E+00;  9.9999998E-03;  8.4494197E-01;519;  8.6703487E-02;  0.0000000E+00;  9.3072401E-03;  9.9878864E+00;  2.6847836E-01; -1.0775039E+00;3; -1.6472157E-03;  0.0000000E+00;  5.7341665E-04; -4.3160208E+08; -4.3160208E+08; -4.3160208E+08;1;  5.9393819E-02;  2.4633432E+02;  0.0000000E+00;  1.0306631E-02;  1.0000000E+02;  0.0000000E+00;  8.9890099E+01;  4.8687726E-02;  0.0000000E+00;  1.0706093E-02;  0.0000000E+00;
  4.7150402E+00;  9.9999998E-03;  7.9714177E-08;521;  9.8799452E-02;  0.0000000E+00;  5.5818411E-08;  9.9877625E+00;  2.6904601E-01; -1.0882823E+00;3;  2.6199361E-04;  0.0000000E+00;  1.4462849E-07; -4.3160208E+08; -4.3160208E+08; -4.3160208E+08;1;  6.0971398E-02;  2.4563490E+02;  0.0000000E+00;  1.1183340E-13;  1.0000000E+02;  0.0000000E+00;  8.9764839E+01;  4.9922701E-02;  0.0000000E+00;  1.1048698E-02;  0.0000000E+00;
  4.5743451E+00;  9.9999998E-03;  6.3460577E-01;522;  8.7926559E-02;  0.0000000E+00;  7.1533704E-03;  9.9878473E+00;  2.6853353E-01; -1.0809928E+00;3; -1.8247637E-03;  0.0000000E+00;  6.5762084E-04; -4.3160208E+08; -4.3160208E+08; -4.3160208E+08;1;  5.9626687E-02;  2.4624713E+02;  0.0000000E+00;  2.9729102E-03;  1.0000000E+02;  0.0000000E+00;  8.9884476E+01;  4.8919339E-02;  0.0000000E+00;  1.0707348E-02;  0.0000000E+00;
  4.6975384E+00;  9.9999998E-03;  4.2344213E-01;524;  9.0288758E-02;  0.0000000E+00;  4.7954894E-03;  9.9878244E+00;  2.6887858E-01; -1.0827925E+00;3; -1.9681456E-03;  0.0000000E+00; -2.7363814E-04; -4.3160208E+08; -4.3160208E+08; -4.3160208E+08;1;  6.0575556E-02;  2.4573659E+02;  0.0000000E+00;  1.3612761E-03;  1.0000000E+02;  0.0000000E+00;  8.9839439E+01;  4.9699090E-02;  0.0000000E+00;  1.0876466E-02;  0.0000000E+00;
  4.7048855E+00;  9.9999998E-03;  2.0867978E-01;526;  9.2998303E-02;  0.0000000E+00;  1.9599942E-03;  9.9877977E+00;  2.6887342E-01; -1.0851680E+00;3; -1.8981489E-03;  0.0000000E+00;  5.4048997E-04; -4.3160208E+08; -4.3160208E+08; -4.3160208E+08;1;  6.0746860E-02;  2.4571100E+02;  0.0000000E+00;  5.8986590E-04;  1.0000000E+02;  0.0000000E+00;  8.9852463E+01;  4.9791794E-02;  0.0000000E+00;  1.0955065E-02;  0.0000000E+00;
  5.4000072E+00;  9.9999998E-03;  1.0527475E+00;528;  1.3933934E-01;  0.0000000E+00;  1.0925789E-02;  9.9871655E+00;  2.6762703E-01; -1.1410841E+00;3;  2.4104894E-03;  0.0000000E+00; -5.8985170E-04; -4.3160208E+08; -4.3160208E+08; -4.3160208E+08;1;  5.9640106E-02;  2.4763625E+02;  0.0000000E+00; -2.7983186E-01;  1.0000000E+02;  0.0000000E+00;  8.9978699E+01;  4.8851278E-02;  0.0000000E+00;  1.0788827E-02;  0.0000000E+00;
  5.3798532E+00;  9.9999998E-03;  8.4312910E-01;530;  1.2829857E-01;  0.0000000E+00;  8.9726588E-03;  9.9874067E+00;  2.6665926E-01; -1.1196239E+00;3; -1.1111500E-03;  0.0000000E+00;  4.8233310E-04; -4.3160208E+08; -4.3160208E+08; -4.3160208E+08;1;  5.8862112E-02;  2.4912157E+02;  0.0000000E+00;  1.5347843E-01;  1.0000000E+02;  0.0000000E+00;  9.0094940E+01;  4.8263300E-02;  0.0000000E+00;  1.0598811E-02;  0.0000000E+00;
  5.3759513E+00;  9.9999998E-03;  6.3440049E-01;532;  1.3557558E-01;  0.0000000E+00;  7.1917102E-03;  9.9875765E+00;  2.6589954E-01; -1.1045214E+00;3;  1.9803490E-03;  0.0000000E+00; -8.1975153E-04; -4.3160208E+08; -4.3160208E+08; -4.3160208E+08;1;  5.8131412E-02;  2.5030551E+02;  0.0000000E+00; -2.4282234E-02;  1.0000000E+02;  0.0000000E+00;  9.0184341E+01;  4.7656726E-02;  0.0000000E+00;  1.0474685E-02;  0.0000000E+00;
  5.3645525E+00;  9.9999998E-03;  4.2602989E-01;534;  1.3303700E-01;  0.0000000E+00;  5.8270860E-03;  9.9877863E+00;  2.6516640E-01; -1.0858691E+00;3;  1.2925849E-03;  0.0000000E+00;  1.0807689E-03; -4.3160208E+08; -4.3160208E+08; -4.3160208E+08;1;  5.7336006E-02;  2.5145978E+02;  0.0000000E+00; -6.9719270E-02;  1.0000000E+02;  0.0000000E+00;  9.0270012E+01;  4.6881717E-02;  0.0000000E+00;  1.0454290E-02;  0.0000000E+00;
  4.4490166E+00;  9.9999998E-03;  7.5091592E-08;535;  8.0091678E-02;  0.0000000E+00;  2.6996300E-08;  9.9876671E+00;  2.6637062E-01; -1.0973676E+00;3; -2.0624711E-03;  0.0000000E+00;  1.0889236E-06; -4.3160208E+08; -4.3160208E+08; -4.3160208E+08;1;  5.9253026E-02;  2.4960939E+02;  0.0000000E+00; -2.3415857E-12;  1.0000000E+02;  0.0000000E+00;  9.0116852E+01;  4.8585746E-02;  0.0000000E+00;  1.0667279E-02;  0.0000000E+00;
  4.4469981E+00;  9.9999998E-03;  2.0804951E-01;537;  7.9091571E-02;  0.0000000E+00;  2.5147235E-03;  9.9876957E+00;  2.6619184E-01; -1.0948294E+00;3; -1.9089315E-03;  0.0000000E+00;  8.9437963E-04; -4.3160208E+08; -4.3160208E+08; -4.3160208E+08;1;  5.9093632E-02;  2.4970830E+02;  0.0000000E+00;  4.3812636E-04;  1.0000000E+02;  0.0000000E+00;  9.0203125E+01;  4.8465934E-02;  0.0000000E+00;  1.0627700E-02;  0.0000000E+00;
  5.3463306E+00;  9.9999998E-03;  2.1855612E-01;543;  1.2712395E-01;  0.0000000E+00;  3.4682713E-03;  9.9880075E+00;  2.6470661E-01; -1.0662106E+00;3;  5.8006332E-04;  0.0000000E+00; -3.1207933E-04; -4.3160208E+08; -4.3160208E+08; -4.3160208E+08;1;  5.6583822E-02;  2.5223370E+02;  0.0000000E+00; -3.0044913E-02;  1.0000000E+02;  0.0000000E+00;  9.0308975E+01;  4.6354637E-02;  0.0000000E+00;  1.0229186E-02;  0.0000000E+00;
  5.4538550E+00;  9.9999998E-03; -2.0727818E-08;548;  1.2652019E-01;  0.0000000E+00;  1.4566660E-07;  9.9882183E+00;  2.6317537E-01; -1.0474428E+00;3;  2.2975793E-03;  0.0000000E+00; -2.5974587E-06; -4.3160208E+08; -4.3160208E+08; -4.3160208E+08;1;  5.3769592E-02;  2.5434669E+02;  0.0000000E+00;  3.2058648E-12;  1.0000000E+02;  0.0000000E+00;  9.0607254E+01;  4.4126790E-02;  0.0000000E+00;  9.6428012E-03;  0.0000000E+00;
  5.6251745E+00;  9.9999998E-03;  8.3763027E-01;561;  1.4148822E-01;  0.0000000E+00;  7.6510739E-03;  9.9877520E+00;  2.5885323E-01; -1.0889274E+00;3;  4.1196491E-03;  0.0000000E+00; -7.5240911E-05; -4.3160208E+08; -4.3160208E+08; -4.3160208E+08;1;  5.2066084E-02;  2.6156741E+02;  0.0000000E+00;  9.9429742E-02;  1.0000000E+02;  0.0000000E+00;  9.1065506E+01;  4.2716056E-02;  0.0000000E+00;  9.3500288E-03;  0.0000000E+00;
  5.6068859E+00;  9.9999998E-03;  1.0467976E+00;563;  1.4176762E-01;  0.0000000E+00;  9.7131012E-03;  9.9874964E+00;  2.5892264E-01; -1.1116616E+00;3;  3.7636522E-03;  0.0000000E+00; -1.3273447E-03; -4.3160208E+08; -4.3160208E+08; -4.3160208E+08;1;  5.3612024E-02;  2.6144385E+02;  0.0000000E+00; -2.2714151E-01;  1.0000000E+02;  0.0000000E+00;  9.1056175E+01;  4.3961421E-02;  0.0000000E+00;  9.6506048E-03;  0.0000000E+00;
  5.6360412E+00;  9.9999998E-03;  6.2885314E-01;565;  1.5048516E-01;  0.0000000E+00;  5.9707961E-03;  9.9878721E+00;  2.5794891E-01; -1.0782228E+00;3;  3.3661863E-03;  0.0000000E+00; -2.5066047E-04; -4.3160208E+08; -4.3160208E+08; -4.3160208E+08;1;  5.1278096E-02;  2.6306104E+02;  0.0000000E+00; -1.5833539E-01;  1.0000000E+02;  0.0000000E+00;  9.1186180E+01;  4.1979119E-02;  0.0000000E+00;  9.2989756E-03;  0.0000000E+00;
  5.6559491E+00;  9.9999998E-03;  4.2067006E-01;571;  1.5302432E-01;  0.0000000E+00;  3.9909086E-03;  9.9882669E+00;  2.5682524E-01; -1.0431416E+00;3;  5.6353456E-04;  0.0000000E+00;  3.0554243E-04; -4.3160208E+08; -4.3160208E+08; -4.3160208E+08;1;  4.9109161E-02;  2.6497766E+02;  0.0000000E+00; -6.0631234E-02;  1.0000000E+02;  0.0000000E+00;  9.1326546E+01;  4.0226460E-02;  0.0000000E+00;  8.8827023E-03;  0.0000000E+00;
  5.6360197E+00;  9.9999998E-03;  2.1270669E-01;579;  1.4312498E-01;  0.0000000E+00;  2.9473742E-03;  9.9884510E+00;  2.5588521E-01; -1.0267677E+00;3; -1.9356172E-03;  0.0000000E+00; -9.4361760E-04; -4.3160208E+08; -4.3160208E+08; -4.3160208E+08;1;  4.8825920E-02;  2.6662366E+02;  0.0000000E+00; -6.6072308E-02;  1.0000000E+02;  0.0000000E+00;  9.1433434E+01;  3.9940476E-02;  0.0000000E+00;  8.8854441E-03;  0.0000000E+00;
  5.7224383E+00;  9.9999998E-03;  7.1915487E-08;581;  1.3545878E-01;  0.0000000E+00;  1.7709587E-07;  9.9886360E+00;  2.5457737E-01; -1.0103381E+00;3; -7.3825917E-04;  0.0000000E+00; -1.7520506E-07; -4.3160208E+08; -4.3160208E+08; -4.3160208E+08;1;  4.5870401E-02;  2.6875861E+02;  0.0000000E+00;  1.4200869E-11;  1.0000000E+02;  0.0000000E+00;  9.1643929E+01;  3.7664410E-02;  0.0000000E+00;  8.2059922E-03;  0.0000000E+00;
  5.8659410E+00;  9.9999998E-03;  8.3143103E-01;591;  1.5223326E-01;  0.0000000E+00;  6.1986381E-03;  9.9879217E+00;  2.5015303E-01; -1.0738196E+00;3;  2.9607390E-03;  0.0000000E+00; -1.4079437E-03; -4.3160208E+08; -4.3160208E+08; -4.3160208E+08;1;  4.4334661E-02;  2.7664597E+02;  0.0000000E+00; -6.1176471E-02;  1.0000000E+02;  0.0000000E+00;  9.2199043E+01;  3.6401644E-02;  0.0000000E+00;  7.9330178E-03;  0.0000000E+00;
  5.8704524E+00;  9.9999998E-03;  6.2270355E-01;596;  1.5575422E-01;  0.0000000E+00;  4.6130833E-03;  9.9880047E+00;  2.4894600E-01; -1.0664538E+00;3;  1.8403521E-03;  0.0000000E+00; -2.5762082E-04; -4.3160208E+08; -4.3160208E+08; -4.3160208E+08;1;  4.3923583E-02;  2.7879150E+02;  0.0000000E+00; -3.3954218E-01;  1.0000000E+02;  0.0000000E+00;  9.2378906E+01;  3.5970833E-02;  0.0000000E+00;  7.9527507E-03;  0.0000000E+00;
  5.8399420E+00;  9.9999998E-03;  1.0392559E+00;598;  1.4639904E-01;  0.0000000E+00;  7.9968516E-03;  9.9881792E+00;  2.4854416E-01; -1.0509276E+00;3;  1.4006463E-04;  0.0000000E+00; -1.6520591E-03; -4.3160208E+08; -4.3160208E+08; -4.3160208E+08;1;  4.4163629E-02;  2.7960556E+02;  0.0000000E+00;  1.4406350E-01;  1.0000000E+02;  0.0000000E+00;  9.2411179E+01;  3.6266398E-02;  0.0000000E+00;  7.8972327E-03;  0.0000000E+00;
  5.8787575E+00;  9.9999998E-03;  4.1516003E-01;600;  1.5795733E-01;  0.0000000E+00;  3.0084250E-03;  9.9883165E+00;  2.4800187E-01; -1.0387391E+00;3;  4.1976878E-03;  0.0000000E+00; -1.2049340E-03; -4.3160208E+08; -4.3160208E+08; -4.3160208E+08;1;  4.2513203E-02;  2.8057013E+02;  0.0000000E+00; -3.9233780E-01;  1.0000000E+02;  0.0000000E+00;  9.2500954E+01;  3.4828421E-02;  0.0000000E+00;  7.6847817E-03;  0.0000000E+00;
  5.8684802E+00;  9.9999998E-03;  2.0643546E-01;604;  1.4876334E-01;  0.0000000E+00; -5.9243939E-05;  9.9888725E+00;  2.4658267E-01; -9.8929822E-01;3; -1.5287753E-04;  0.0000000E+00; -3.3260323E-05; -4.3160208E+08; -4.3160208E+08; -4.3160208E+08;1;  4.0804408E-02;  2.8321414E+02;  0.0000000E+00; -2.0267776E-01;  1.0000000E+02;  0.0000000E+00;  9.2702179E+01;  3.3582933E-02;  0.0000000E+00;  7.2214738E-03;  0.0000000E+00;
  5.9586601E+00;  9.9999998E-03;  1.0386840E+00;461;  1.5113847E-01;  0.0000000E+00;  7.3260805E-03;  9.9881687E+00;  2.4763894E-01; -1.0518802E+00;3;  3.7234540E-03;  0.0000000E+00; -1.4233883E-03;  0.0000000E+00;  0.0000000E+00;  0.0000000E+00;1;  4.0368229E-02;  2.8126779E+02;  0.0000000E+00;  1.4809769E-01;  1.0000000E+02;  0.0000000E+00;  9.2537537E+01;  3.3055533E-02;  0.0000000E+00;  7.3126955E-03;  0.0000000E+00;
  5.9735560E+00;  9.9999998E-03;  4.1988585E-08;605;  1.4960255E-01;  0.0000000E+00;  1.0225561E-06;  9.9890203E+00;  2.4539766E-01; -9.7615528E-01;3;  2.3701733E-03;  0.0000000E+00;  3.0980445E-06; -4.3160208E+08; -4.3160208E+08; -4.3160208E+08;1;  3.6980264E-02;  2.8569235E+02;  0.0000000E+00; -4.1466214E-12;  1.0000000E+02;  0.0000000E+00;  9.2790115E+01;  3.0202748E-02;  0.0000000E+00;  6.7775147E-03;  0.0000000E+00;
  5.9833269E+00;  9.9999998E-03;  8.3067250E-01;460;  1.5392847E-01;  0.0000000E+00;  5.3582694E-03;  9.9881773E+00;  2.4900630E-01; -1.0510852E+00;3;  3.9043254E-03;  0.0000000E+00; -1.5289397E-03;  0.0000000E+00;  0.0000000E+00;  0.0000000E+00;1;  3.9432943E-02;  2.7874582E+02;  0.0000000E+00; -2.9836927E-02;  1.0000000E+02;  0.0000000E+00;  9.2353462E+01;  3.2453123E-02;  0.0000000E+00;  6.9798203E-03;  0.0000000E+00;
  5.9876170E+00;  9.9999998E-03;  6.2199849E-01;459;  1.5721820E-01;  0.0000000E+00;  3.7496604E-03;  9.9880447E+00;  2.4808784E-01; -1.0629021E+00;3;  5.9619709E-03;  0.0000000E+00; -3.3866256E-03;  0.0000000E+00;  0.0000000E+00;  0.0000000E+00;1;  3.9724302E-02;  2.8037711E+02;  0.0000000E+00; -3.1655124E-01;  1.0000000E+02;  0.0000000E+00;  9.2493256E+01;  3.2699883E-02;  0.0000000E+00;  7.0244200E-03;  0.0000000E+00;
  5.9855323E+00;  9.9999998E-03;  2.0611653E-01;457;  1.5109561E-01;  0.0000000E+00; -1.7807446E-04;  9.9890118E+00;  2.4587582E-01; -9.7689706E-01;3;  3.4981384E-03;  0.0000000E+00; -3.7465803E-04;  0.0000000E+00;  0.0000000E+00;  0.0000000E+00;1;  3.6616411E-02;  2.8458853E+02;  0.0000000E+00; -1.9695196E-01;  1.0000000E+02;  0.0000000E+00;  9.2789490E+01;  3.0064194E-02;  0.0000000E+00;  6.5522171E-03;  0.0000000E+00;
  5.9952941E+00;  9.9999998E-03;  4.1449878E-01;458;  1.5832366E-01;  0.0000000E+00;  2.6388788E-03;  9.9882469E+00;  2.4726814E-01; -1.0448850E+00;3;  2.9399344E-03;  0.0000000E+00;  2.3259772E-03;  0.0000000E+00;  0.0000000E+00;  0.0000000E+00;1;  3.8856205E-02;  2.8191888E+02;  0.0000000E+00; -3.7905392E-01;  1.0000000E+02;  0.0000000E+00;  9.2604095E+01;  3.1784095E-02;  0.0000000E+00;  7.0721097E-03;  0.0000000E+00;
  6.1253777E+00;  9.9999998E-03;  1.0313234E+00;472;  1.5502910E-01;  0.0000000E+00;  6.0898778E-03;  9.9882011E+00;  4.7630981E-01; -1.0489647E+00;3;  6.2139938E-03;  0.0000000E+00; -4.8767347E-03;  0.0000000E+00;  0.0000000E+00;  0.0000000E+00;0;  3.4012944E-02;  7.4955719E+01;  0.0000000E+00; -3.5227526E-02;  1.0000000E+02;  0.0000000E+00;  9.3862762E+01;  2.7907412E-02;  0.0000000E+00;  6.1055305E-03;  0.0000000E+00;
  6.1322317E+00;  9.9999998E-03;  8.2329357E-01;471;  1.5535809E-01;  0.0000000E+00;  4.3101003E-03;  9.9886608E+00;  4.7541723E-01; -1.0081083E+00;3;  3.8538384E-03;  0.0000000E+00; -2.1129977E-03;  0.0000000E+00;  0.0000000E+00;  0.0000000E+00;0;  3.2449082E-02;  7.5197830E+01;  0.0000000E+00; -1.1884759E-02;  1.0000000E+02;  0.0000000E+00;  9.3921089E+01;  2.6648683E-02;  0.0000000E+00;  5.8003985E-03;  0.0000000E+00;
  6.1424356E+00;  9.9999998E-03;  2.0193261E-01;468;  1.5881366E-01;  0.0000000E+00;  9.3964965E-04;  9.9883375E+00;  4.7429439E-01; -1.0368295E+00;3;  4.5714658E-03;  0.0000000E+00; -6.8420498E-04;  0.0000000E+00;  0.0000000E+00;  0.0000000E+00;0;  3.3088125E-02;  7.5500206E+01;  0.0000000E+00;  4.2508245E-02;  1.0000000E+02;  0.0000000E+00;  9.3981865E+01;  2.7116915E-02;  0.0000000E+00;  5.9712119E-03;  0.0000000E+00;
  6.1441112E+00;  9.9999998E-03;  4.0897954E-01;469;  1.5948658E-01;  0.0000000E+00;  1.9615514E-03;  9.9880276E+00;  4.7590843E-01; -1.0643851E+00;3;  6.5259589E-03;  0.0000000E+00; -2.5214537E-03;  0.0000000E+00;  0.0000000E+00;  0.0000000E+00;0;  3.3898219E-02;  7.5069656E+01;  0.0000000E+00;  9.1634393E-02;  1.0000000E+02;  0.0000000E+00;  9.3875656E+01;  2.7737636E-02;  0.0000000E+00;  6.1605829E-03;  0.0000000E+00;
  6.1435599E+00;  9.9999998E-03;  6.1633939E-01;470;  1.5906754E-01;  0.0000000E+00;  3.1995603E-03;  9.9878397E+00;  4.7757453E-01; -1.0811303E+00;3;  6.3544875E-03;  0.0000000E+00; -2.0720484E-03;  0.0000000E+00;  0.0000000E+00;  0.0000000E+00;0;  3.4437675E-02;  7.4636497E+01;  0.0000000E+00;  5.5505998E-02;  1.0000000E+02;  0.0000000E+00;  9.3760124E+01;  2.8168384E-02;  0.0000000E+00;  6.2692920E-03;  0.0000000E+00;
  6.1480093E+00;  9.9999998E-03; -2.2481356E-07;467;  1.5785751E-01;  0.0000000E+00; -1.7329425E-07;  9.9885130E+00;  4.7515920E-01; -1.0212500E+00;3; -1.7147958E-03;  0.0000000E+00;  2.1527987E-05;  0.0000000E+00;  0.0000000E+00;  0.0000000E+00;0;  3.2297261E-02;  7.5279144E+01;  0.0000000E+00;  7.7193920E-12;  1.0000000E+02;  0.0000000E+00;  9.3918716E+01;  2.6461460E-02;  0.0000000E+00;  5.8358018E-03;  0.0000000E+00;
  6.3457899E+00;  9.9999998E-03;  4.0150240E-01;479;  1.5914609E-01;  0.0000000E+00;  5.4708146E-04;  9.9884100E+00;  4.5263913E-01; -1.0304171E+00;3;  7.0192562E-03;  0.0000000E+00; -3.3365698E-03;  0.0000000E+00;  0.0000000E+00;  0.0000000E+00;0;  2.4588995E-02;  8.1486694E+01;  0.0000000E+00;  7.8061134E-02;  1.0000000E+02;  0.0000000E+00;  9.5611343E+01;  2.0098519E-02;  0.0000000E+00;  4.4904761E-03;  0.0000000E+00;
  6.3445940E+00;  9.9999998E-03;  6.0860008E-01;480;  1.5833047E-01;  0.0000000E+00;  1.6221101E-03;  9.9888973E+00;  4.5257768E-01; -9.8707014E-01;3;  6.4300876E-03;  0.0000000E+00; -3.6180262E-03;  0.0000000E+00;  0.0000000E+00;  0.0000000E+00;0;  2.3559693E-02;  8.1493469E+01;  0.0000000E+00; -4.4069499E-02;  1.0000000E+02;  0.0000000E+00;  9.5636978E+01;  1.9274328E-02;  0.0000000E+00;  4.2853663E-03;  0.0000000E+00;
  6.3512068E+00;  9.9999998E-03;  8.1754631E-01;481;  1.5986064E-01;  0.0000000E+00;  3.3974226E-03;  9.9874363E+00;  4.5926976E-01; -1.1169519E+00;3;  2.7111974E-03;  0.0000000E+00;  5.8207661E-05;  0.0000000E+00;  0.0000000E+00;  0.0000000E+00;0;  2.6355175E-02;  7.9539230E+01;  0.0000000E+00; -6.1512336E-02;  1.0000000E+02;  0.0000000E+00;  9.5128265E+01;  2.1529231E-02;  0.0000000E+00;  4.8259441E-03;  0.0000000E+00;
  6.3564658E+00;  9.9999998E-03;  1.9929601E-01;478;  1.5987456E-01;  0.0000000E+00; -1.5868878E-04;  9.9879131E+00;  4.5750186E-01; -1.0745589E+00;3;  4.9081398E-03;  0.0000000E+00; -1.2805685E-05;  0.0000000E+00;  0.0000000E+00;  0.0000000E+00;0;  2.5098480E-02;  8.0096565E+01;  0.0000000E+00;  3.4230996E-02;  1.0000000E+02;  0.0000000E+00;  9.5206299E+01;  2.0488326E-02;  0.0000000E+00;  4.6101552E-03;  0.0000000E+00;
  6.3613539E+00;  9.9999998E-03; -1.1082473E-08;477;  1.6079293E-01;  0.0000000E+00;  8.9596114E-07;  9.9873962E+00;  4.5961782E-01; -1.1205554E+00;3;  5.1408615E-03;  0.0000000E+00;  3.8404018E-05;  0.0000000E+00;  0.0000000E+00;  0.0000000E+00;0;  2.5951263E-02;  7.9504173E+01;  0.0000000E+00;  5.1330836E-12;  1.0000000E+02;  0.0000000E+00;  9.5027214E+01;  2.1201704E-02;  0.0000000E+00;  4.7495589E-03;  0.0000000E+00;
  6.5571237E+00;  9.9999998E-03;  3.9904758E-01;487;  1.6008969E-01;  0.0000000E+00; -3.6859082E-04;  9.9878149E+00;  4.3657181E-01; -1.0833023E+00;3;  6.4008264E-03;  0.0000000E+00; -5.5436324E-04;  0.0000000E+00;  0.0000000E+00;  0.0000000E+00;0;  1.5889425E-02;  8.6457397E+01;  0.0000000E+00; -1.3513274E-01;  1.0000000E+02;  0.0000000E+00;  9.6861870E+01;  1.2970781E-02;  0.0000000E+00;  2.9186439E-03;  0.0000000E+00;
  6.5663147E+00;  9.9999998E-03;  6.0751396E-01;488;  1.6164641E-01;  0.0000000E+00;  2.2015602E-03;  9.9840460E+00;  4.4524714E-01; -1.4183666E+00;3;  8.1426613E-03;  0.0000000E+00;  3.1393133E-03;  0.0000000E+00;  0.0000000E+00;  0.0000000E+00;0;  1.9970583E-02;  8.3639740E+01;  0.0000000E+00; -1.0015171E-01;  1.0000000E+02;  0.0000000E+00;  9.6194778E+01;  1.5272225E-02;  0.0000000E+00;  4.6983571E-03;  0.0000000E+00;
  6.5653415E+00;  9.9999998E-03;  1.9718897E-01;486;  1.6156812E-01;  0.0000000E+00; -7.9023774E-04;  9.9856701E+00;  4.4189736E-01; -1.2740180E+00;3;  6.6170529E-03;  0.0000000E+00; -3.0029193E-04;  0.0000000E+00;  0.0000000E+00;  0.0000000E+00;0;  1.8229987E-02;  8.4777954E+01;  0.0000000E+00; -2.0284437E-02;  1.0000000E+02;  0.0000000E+00;  9.6377304E+01;  1.4849528E-02;  0.0000000E+00;  3.3804602E-03;  0.0000000E+00;
  6.5709815E+00;  9.9999998E-03; -2.8828534E-08;485;  1.6302866E-01;  0.0000000E+00;  9.3594616E-07;  9.9835634E+00;  4.4579971E-01; -1.4612895E+00;3;  7.8323111E-03;  0.0000000E+00;  5.7868659E-05;  0.0000000E+00;  0.0000000E+00;  0.0000000E+00;0;  2.0564642E-02;  8.3560036E+01;  0.0000000E+00;  8.2555360E-12;  1.0000000E+02;  0.0000000E+00;  9.6039833E+01;  1.6785095E-02;  0.0000000E+00;  3.7795473E-03;  0.0000000E+00;
  6.7756443E+00;  9.9999998E-03; -8.2617170E-08;491;  1.6444691E-01;  0.0000000E+00;  1.9004576E-06;  9.9624996E+00;  4.3197295E-01; -3.3339505E+00;3;  9.8140994E-03;  0.0000000E+00;  3.8482249E-05;  0.0000000E+00;  0.0000000E+00;  0.0000000E+00;0;  1.5856402E-02;  8.7841278E+01;  0.0000000E+00; -1.5218391E-11;  1.0000000E+02;  0.0000000E+00;  9.6915810E+01;  1.2886711E-02;  0.0000000E+00;  2.9696911E-03;  0.0000000E+00;
  6.7692308E+00;  9.9999998E-03;  1.9558902E-01;492;  1.6308515E-01;  0.0000000E+00; -7.2946987E-04;  9.9698763E+00;  4.2699161E-01; -2.6781297E+00;3;  7.2800610E-03;  0.0000000E+00;  9.4265863E-04;  0.0000000E+00;  0.0000000E+00;  0.0000000E+00;0;  1.3385037E-02;  8.9542831E+01;  0.0000000E+00; -1.3062027E-01;  1.0000000E+02;  0.0000000E+00;  9.7436951E+01;  1.0844201E-02;  0.0000000E+00;  2.5408359E-03;  0.0000000E+00;
  6.7718115E+00;  9.9999998E-03;  4.0114406E-01;493;  1.6489379E-01;  0.0000000E+00;  9.2966773E-05;  9.9630556E+00;  4.3041807E-01; -3.2845097E+00;3;  4.6355054E-03;  0.0000000E+00; -7.9770386E-03;  0.0000000E+00;  0.0000000E+00;  0.0000000E+00;0;  1.6893905E-02;  8.8237305E+01;  0.0000000E+00; -1.6356775E-01;  1.0000000E+02;  0.0000000E+00;  9.7185501E+01;  1.4278308E-02;  0.0000000E+00;  2.6155971E-03;  0.0000000E+00;
