TimeStep;Np;Nbound;Nfixed;Nmoving;Nfloat;Nfluid
5.00132;588;165;165;0;0;423

Pos.x;Pos.y;Pos.z;Idp;Vel.x;Vel.y;Vel.z;Rhop;Mass;Press;Type;Acec.x;Acec.y;Acec.z;AceVisc.x;AceVisc.y;AceVisc.z;CellOffSpring;GradVel;Qfxx;Qfxy;Qfxz;Qfyy;Qfyz;Qfzz;StrainDot.x;StrainDot.y;StrainDot.z;VonMises3D;
 -1.0000000E+00;  9.9999998E-03; -2.0000000E+00;0;  0.0000000E+00;  0.0000000E+00;  0.0000000E+00;  1.0000000E+01;  4.0000001E-01;  0.0000000E+00;0;  0.0000000E+00;  0.0000000E+00;  0.0000000E+00;  0.0000000E+00;  0.0000000E+00;  0.0000000E+00;0; -1.3750278E-07;  1.0000000E+02;  0.0000000E+00;  0.0000000E+00;  1.0000000E+02;  0.0000000E+00;  1.0000000E+02;  1.3706153E-07;  0.0000000E+00; -2.7456431E-07;  0.0000000E+00;
 -8.0000001E-01;  9.9999998E-03; -2.0000000E+00;21;  0.0000000E+00;  0.0000000E+00;  0.0000000E+00;  1.0000000E+01;  4.0000001E-01;  0.0000000E+00;0;  0.0000000E+00;  0.0000000E+00;  0.0000000E+00;  0.0000000E+00;  0.0000000E+00;  0.0000000E+00;0; -1.5654598E-07;  1.0000000E+02;  0.0000000E+00;  0.0000000E+00;  1.0000000E+02;  0.0000000E+00;  1.0000000E+02;  4.8265684E-07;  0.0000000E+00; -6.3920282E-07;  0.0000000E+00;
 -6.0000002E-01;  9.9999998E-03; -2.0000000E+00;42;  0.0000000E+00;  0.0000000E+00;  0.0000000E+00;  1.0000000E+01;  4.0000001E-01;  0.0000000E+00;0;  0.0000000E+00;  0.0000000E+00;  0.0000000E+00;  0.0000000E+00;  0.0000000E+00;  0.0000000E+00;0;  1.1804718E-07;  1.0000000E+02;  0.0000000E+00;  0.0000000E+00;  1.0000000E+02;  0.0000000E+00;  1.0000000E+02;  9.9780993E-07;  0.0000000E+00; -8.7976275E-07;  0.0000000E+00;
 -4.0000001E-01;  9.9999998E-03; -2.0000000E+00;63;  0.0000000E+00;  0.0000000E+00;  0.0000000E+00;  1.0000092E+01;  4.0000001E-01;  9.8762587E-03;0;  0.0000000E+00;  0.0000000E+00;  0.0000000E+00;  0.0000000E+00;  0.0000000E+00;  0.0000000E+00;0;  1.1779551E-06;  1.0000000E+02;  0.0000000E+00;  0.0000000E+00;  1.0000000E+02;  0.0000000E+00;  1.0000000E+02;  1.6626607E-06;  0.0000000E+00; -4.8470554E-07;  0.0000000E+00;
 -2.0000000E-01;  9.9999998E-03; -2.0000000E+00;84;  0.0000000E+00;  0.0000000E+00;  0.0000000E+00;  1.0000140E+01;  4.0000001E-01;  1.5135041E-02;0;  0.0000000E+00;  0.0000000E+00;  0.0000000E+00;  0.0000000E+00;  0.0000000E+00;  0.0000000E+00;0;  4.7908948E-06;  1.0000000E+02;  0.0000000E+00;  0.0000000E+00;  1.0000000E+02;  0.0000000E+00;  1.0000000E+02;  3.7782493E-06;  0.0000000E+00;  1.0126454E-06;  0.0000000E+00;
  0.0000000E+00;  9.9999998E-03; -2.0000000E+00;105;  0.0000000E+00;  0.0000000E+00;  0.0000000E+00;  1.0000150E+01;  4.0000001E-01;  1.6161133E-02;0;  0.0000000E+00;  0.0000000E+00;  0.0000000E+00;  0.0000000E+00;  0.0000000E+00;  0.0000000E+00;0;  1.4689595E-05;  1.0000000E+02;  0.0000000E+00;  0.0000000E+00;  1.0000000E+02;  0.0000000E+00;  1.0000000E+02;  1.1187956E-05;  0.0000000E+00;  3.5016380E-06;  0.0000000E+00;
  2.0000000E-01;  9.9999998E-03; -2.0000000E+00;115;  0.0000000E+00;  0.0000000E+00;  0.0000000E+00;  1.0000000E+01;  4.0000001E-01;  0.0000000E+00;0;  0.0000000E+00;  0.0000000E+00;  0.0000000E+00;  0.0000000E+00;  0.0000000E+00;  0.0000000E+00;0;  3.6603669E-05;  1.0000000E+02;  0.0000000E+00;  0.0000000E+00;  1.0000000E+02;  0.0000000E+00;  1.0000000E+02;  3.0734263E-05;  0.0000000E+00;  5.8694059E-06;  0.0000000E+00;
  4.0000001E-01;  9.9999998E-03; -2.0000000E+00;125;  0.0000000E+00;  0.0000000E+00;  0.0000000E+00;  1.0000000E+01;  4.0000001E-01;  0.0000000E+00;0;  0.0000000E+00;  0.0000000E+00;  0.0000000E+00;  0.0000000E+00;  0.0000000E+00;  0.0000000E+00;0;  7.9698730E-05;  1.0000000E+02;  0.0000000E+00;  0.0000000E+00;  1.0000000E+02;  0.0000000E+00;  1.0000000E+02;  7.3314150E-05;  0.0000000E+00;  6.3845773E-06;  0.0000000E+00;
  6.0000002E-01;  9.9999998E-03; -2.0000000E+00;135;  0.0000000E+00;  0.0000000E+00;  0.0000000E+00;  1.0000000E+01;  4.0000001E-01;  0.0000000E+00;0;  0.0000000E+00;  0.0000000E+00;  0.0000000E+00;  0.0000000E+00;  0.0000000E+00;  0.0000000E+00;0;  1.5564845E-04;  1.0000000E+02;  0.0000000E+00;  0.0000000E+00;  1.0000000E+02;  0.0000000E+00;  1.0000000E+02;  1.5221236E-04;  0.0000000E+00;  3.4360808E-06;  0.0000000E+00;
  8.0000001E-01;  9.9999998E-03; -2.0000000E+00;145;  0.0000000E+00;  0.0000000E+00;  0.0000000E+00;  1.0000000E+01;  4.0000001E-01;  0.0000000E+00;0;  0.0000000E+00;  0.0000000E+00;  0.0000000E+00;  0.0000000E+00;  0.0000000E+00;  0.0000000E+00;0;  2.6794558E-04;  1.0000000E+02;  0.0000000E+00;  0.0000000E+00;  1.0000000E+02;  0.0000000E+00;  1.0000000E+02;  2.7228161E-04;  0.0000000E+00; -4.3360351E-06;  0.0000000E+00;
  1.0000000E+00;  9.9999998E-03; -2.0000000E+00;155;  0.0000000E+00;  0.0000000E+00;  0.0000000E+00;  1.0000000E+01;  4.0000001E-01;  0.0000000E+00;0;  0.0000000E+00;  0.0000000E+00;  0.0000000E+00;  0.0000000E+00;  0.0000000E+00;  0.0000000E+00;0;  3.8987337E-04;  1.0000000E+02;  0.0000000E+00;  0.0000000E+00;  1.0000000E+02;  0.0000000E+00;  1.0000000E+02;  4.0831490E-04;  0.0000000E+00; -1.8441537E-05;  0.0000000E+00;
 -1.0000000E+00;  9.9999998E-03; -1.8000000E+00;1;  0.0000000E+00;  0.0000000E+00;  0.0000000E+00;  1.0000000E+01;  4.0000001E-01;  0.0000000E+00;0;  0.0000000E+00;  0.0000000E+00;  0.0000000E+00;  0.0000000E+00;  0.0000000E+00;  0.0000000E+00;0; -2.2999666E-07;  1.0000000E+02;  0.0000000E+00;  0.0000000E+00;  1.0000000E+02;  0.0000000E+00;  1.0000000E+02;  5.1218041E-07;  0.0000000E+00; -7.4217706E-07;  0.0000000E+00;
 -1.0000000E+00;  9.9999998E-03; -1.6000000E+00;2;  0.0000000E+00;  0.0000000E+00;  0.0000000E+00;  1.0000038E+01;  4.0000001E-01;  4.1044205E-03;0;  0.0000000E+00;  0.0000000E+00;  0.0000000E+00;  0.0000000E+00;  0.0000000E+00;  0.0000000E+00;0;  1.4201635E-07;  1.0000000E+02;  0.0000000E+00;  0.0000000E+00;  1.0000000E+02;  0.0000000E+00;  1.0000000E+02;  1.3712635E-06;  0.0000000E+00; -1.2292471E-06;  0.0000000E+00;
 -1.0000000E+00;  9.9999998E-03; -1.4000000E+00;3;  0.0000000E+00;  0.0000000E+00;  0.0000000E+00;  1.0000267E+01;  4.0000001E-01;  2.8730944E-02;0;  0.0000000E+00;  0.0000000E+00;  0.0000000E+00;  0.0000000E+00;  0.0000000E+00;  0.0000000E+00;0;  1.5310497E-06;  1.0000000E+02;  0.0000000E+00;  0.0000000E+00;  1.0000000E+02;  0.0000000E+00;  1.0000000E+02;  3.0600083E-06;  0.0000000E+00; -1.5289586E-06;  0.0000000E+00;
 -1.0000000E+00;  9.9999998E-03; -1.2000000E+00;4;  0.0000000E+00;  0.0000000E+00;  0.0000000E+00;  1.0000500E+01;  4.0000001E-01;  5.3742256E-02;0;  0.0000000E+00;  0.0000000E+00;  0.0000000E+00;  0.0000000E+00;  0.0000000E+00;  0.0000000E+00;0;  4.4758922E-06;  1.0000000E+02;  0.0000000E+00;  0.0000000E+00;  1.0000000E+02;  0.0000000E+00;  1.0000000E+02;  5.9945078E-06;  0.0000000E+00; -1.5186155E-06;  0.0000000E+00;
 -1.0000000E+00;  9.9999998E-03; -1.0000000E+00;5;  0.0000000E+00;  0.0000000E+00;  0.0000000E+00;  1.0000754E+01;  4.0000001E-01;  8.1190571E-02;0;  0.0000000E+00;  0.0000000E+00;  0.0000000E+00;  0.0000000E+00;  0.0000000E+00;  0.0000000E+00;0;  9.3356721E-06;  1.0000000E+02;  0.0000000E+00;  0.0000000E+00;  1.0000000E+02;  0.0000000E+00;  1.0000000E+02;  1.0481719E-05;  0.0000000E+00; -1.1460465E-06;  0.0000000E+00;
 -1.0000000E+00;  9.9999998E-03; -8.0000001E-01;6;  0.0000000E+00;  0.0000000E+00;  0.0000000E+00;  1.0001022E+01;  4.0000001E-01;  1.1004978E-01;0;  0.0000000E+00;  0.0000000E+00;  0.0000000E+00;  0.0000000E+00;  0.0000000E+00;  0.0000000E+00;0;  1.6059237E-05;  1.0000000E+02;  0.0000000E+00;  0.0000000E+00;  1.0000000E+02;  0.0000000E+00;  1.0000000E+02;  1.6489506E-05;  0.0000000E+00; -4.3026947E-07;  0.0000000E+00;
 -1.0000000E+00;  9.9999998E-03; -6.0000002E-01;7;  0.0000000E+00;  0.0000000E+00;  0.0000000E+00;  1.0000807E+01;  4.0000001E-01;  8.6834148E-02;0;  0.0000000E+00;  0.0000000E+00;  0.0000000E+00;  0.0000000E+00;  0.0000000E+00;  0.0000000E+00;0;  2.3927643E-05;  1.0000000E+02;  0.0000000E+00;  0.0000000E+00;  1.0000000E+02;  0.0000000E+00;  1.0000000E+02;  2.3425117E-05;  0.0000000E+00;  5.0252680E-07;  0.0000000E+00;
 -1.0000000E+00;  9.9999998E-03; -4.0000001E-01;8;  0.0000000E+00;  0.0000000E+00;  0.0000000E+00;  1.0000521E+01;  4.0000001E-01;  5.6050994E-02;0;  0.0000000E+00;  0.0000000E+00;  0.0000000E+00;  0.0000000E+00;  0.0000000E+00;  0.0000000E+00;0;  3.1513195E-05;  1.0000000E+02;  0.0000000E+00;  0.0000000E+00;  1.0000000E+02;  0.0000000E+00;  1.0000000E+02;  3.0098377E-05;  0.0000000E+00;  1.4148179E-06;  0.0000000E+00;
 -1.0000000E+00;  9.9999998E-03; -2.0000000E-01;9;  0.0000000E+00;  0.0000000E+00;  0.0000000E+00;  1.0000548E+01;  4.0000001E-01;  5.9001043E-02;0;  0.0000000E+00;  0.0000000E+00;  0.0000000E+00;  0.0000000E+00;  0.0000000E+00;  0.0000000E+00;0;  3.7055623E-05;  1.0000000E+02;  0.0000000E+00;  0.0000000E+00;  1.0000000E+02;  0.0000000E+00;  1.0000000E+02;  3.4995672E-05;  0.0000000E+00;  2.0599527E-06;  0.0000000E+00;
 -8.0000001E-01;  9.9999998E-03; -1.8000000E+00;22;  0.0000000E+00;  0.0000000E+00;  0.0000000E+00;  1.0000087E+01;  4.0000001E-01;  9.3632080E-03;0;  0.0000000E+00;  0.0000000E+00;  0.0000000E+00;  0.0000000E+00;  0.0000000E+00;  0.0000000E+00;0;  6.2234335E-08;  1.0000000E+02;  0.0000000E+00;  0.0000000E+00;  1.0000000E+02;  0.0000000E+00;  1.0000000E+02;  1.4675095E-06;  0.0000000E+00; -1.4052752E-06;  0.0000000E+00;
 -8.0000001E-01;  9.9999998E-03; -1.6000000E+00;23;  0.0000000E+00;  0.0000000E+00;  0.0000000E+00;  1.0000361E+01;  4.0000001E-01;  3.8863726E-02;0;  0.0000000E+00;  0.0000000E+00;  0.0000000E+00;  0.0000000E+00;  0.0000000E+00;  0.0000000E+00;0;  1.2992700E-06;  1.0000000E+02;  0.0000000E+00;  0.0000000E+00;  1.0000000E+02;  0.0000000E+00;  1.0000000E+02;  3.3868894E-06;  0.0000000E+00; -2.0876194E-06;  0.0000000E+00;
 -8.0000001E-01;  9.9999998E-03; -1.4000000E+00;24;  0.0000000E+00;  0.0000000E+00;  0.0000000E+00;  1.0000714E+01;  4.0000001E-01;  7.6829612E-02;0;  0.0000000E+00;  0.0000000E+00;  0.0000000E+00;  0.0000000E+00;  0.0000000E+00;  0.0000000E+00;0;  4.3567879E-06;  1.0000000E+02;  0.0000000E+00;  0.0000000E+00;  1.0000000E+02;  0.0000000E+00;  1.0000000E+02;  6.7927795E-06;  0.0000000E+00; -2.4359913E-06;  0.0000000E+00;
 -8.0000001E-01;  9.9999998E-03; -1.2000000E+00;25;  0.0000000E+00;  0.0000000E+00;  0.0000000E+00;  1.0001216E+01;  4.0000001E-01;  1.3082840E-01;0;  0.0000000E+00;  0.0000000E+00;  0.0000000E+00;  0.0000000E+00;  0.0000000E+00;  0.0000000E+00;0;  1.0020015E-05;  1.0000000E+02;  0.0000000E+00;  0.0000000E+00;  1.0000000E+02;  0.0000000E+00;  1.0000000E+02;  1.2384869E-05;  0.0000000E+00; -2.3648543E-06;  0.0000000E+00;
 -8.0000001E-01;  9.9999998E-03; -1.0000000E+00;26;  0.0000000E+00;  0.0000000E+00;  0.0000000E+00;  1.0001770E+01;  4.0000001E-01;  1.9047074E-01;0;  0.0000000E+00;  0.0000000E+00;  0.0000000E+00;  0.0000000E+00;  0.0000000E+00;  0.0000000E+00;0;  1.8816110E-05;  1.0000000E+02;  0.0000000E+00;  0.0000000E+00;  1.0000000E+02;  0.0000000E+00;  1.0000000E+02;  2.0629457E-05;  0.0000000E+00; -1.8133460E-06;  0.0000000E+00;
 -8.0000001E-01;  9.9999998E-03; -8.0000001E-01;27;  0.0000000E+00;  0.0000000E+00;  0.0000000E+00;  1.0001509E+01;  4.0000001E-01;  1.6238111E-01;0;  0.0000000E+00;  0.0000000E+00;  0.0000000E+00;  0.0000000E+00;  0.0000000E+00;  0.0000000E+00;0;  3.0704578E-05;  1.0000000E+02;  0.0000000E+00;  0.0000000E+00;  1.0000000E+02;  0.0000000E+00;  1.0000000E+02;  3.1459789E-05;  0.0000000E+00; -7.5521297E-07;  0.0000000E+00;
 -8.0000001E-01;  9.9999998E-03; -6.0000002E-01;28;  0.0000000E+00;  0.0000000E+00;  0.0000000E+00;  1.0001845E+01;  4.0000001E-01;  1.9855133E-01;0;  0.0000000E+00;  0.0000000E+00;  0.0000000E+00;  0.0000000E+00;  0.0000000E+00;  0.0000000E+00;0;  4.4624128E-05;  1.0000000E+02;  0.0000000E+00;  0.0000000E+00;  1.0000000E+02;  0.0000000E+00;  1.0000000E+02;  4.3909113E-05;  0.0000000E+00;  7.1501586E-07;  0.0000000E+00;
 -8.0000001E-01;  9.9999998E-03; -4.0000001E-01;29;  0.0000000E+00;  0.0000000E+00;  0.0000000E+00;  1.0002072E+01;  4.0000001E-01;  2.2292131E-01;0;  0.0000000E+00;  0.0000000E+00;  0.0000000E+00;  0.0000000E+00;  0.0000000E+00;  0.0000000E+00;0;  5.8220023E-05;  1.0000000E+02;  0.0000000E+00;  0.0000000E+00;  1.0000000E+02;  0.0000000E+00;  1.0000000E+02;  5.5917313E-05;  0.0000000E+00;  2.3027089E-06;  0.0000000E+00;
 -8.0000001E-01;  9.9999998E-03; -2.0000000E-01;30;  0.0000000E+00;  0.0000000E+00;  0.0000000E+00;  1.0001723E+01;  4.0000001E-01;  1.8546848E-01;0;  0.0000000E+00;  0.0000000E+00;  0.0000000E+00;  0.0000000E+00;  0.0000000E+00;  0.0000000E+00;0;  6.8277055E-05;  1.0000000E+02;  0.0000000E+00;  0.0000000E+00;  1.0000000E+02;  0.0000000E+00;  1.0000000E+02;  6.4719228E-05;  0.0000000E+00;  3.5578248E-06;  0.0000000E+00;
 -6.0000002E-01;  9.9999998E-03; -1.8000000E+00;43;  0.0000000E+00;  0.0000000E+00;  0.0000000E+00;  1.0000278E+01;  4.0000001E-01;  3.0013572E-02;0;  0.0000000E+00;  0.0000000E+00;  0.0000000E+00;  0.0000000E+00;  0.0000000E+00;  0.0000000E+00;0;  9.5601649E-07;  1.0000000E+02;  0.0000000E+00;  0.0000000E+00;  1.0000000E+02;  0.0000000E+00;  1.0000000E+02;  2.5975501E-06;  0.0000000E+00; -1.6415336E-06;  0.0000000E+00;
 -6.0000002E-01;  9.9999998E-03; -1.6000000E+00;44;  0.0000000E+00;  0.0000000E+00;  0.0000000E+00;  1.0000634E+01;  4.0000001E-01;  6.8235986E-02;0;  0.0000000E+00;  0.0000000E+00;  0.0000000E+00;  0.0000000E+00;  0.0000000E+00;  0.0000000E+00;0;  3.3854349E-06;  1.0000000E+02;  0.0000000E+00;  0.0000000E+00;  1.0000000E+02;  0.0000000E+00;  1.0000000E+02;  5.7029993E-06;  0.0000000E+00; -2.3175644E-06;  0.0000000E+00;
 -6.0000002E-01;  9.9999998E-03; -1.4000000E+00;45;  0.0000000E+00;  0.0000000E+00;  0.0000000E+00;  1.0001203E+01;  4.0000001E-01;  1.2941749E-01;0;  0.0000000E+00;  0.0000000E+00;  0.0000000E+00;  0.0000000E+00;  0.0000000E+00;  0.0000000E+00;0;  8.1192120E-06;  1.0000000E+02;  0.0000000E+00;  0.0000000E+00;  1.0000000E+02;  0.0000000E+00;  1.0000000E+02;  1.0858346E-05;  0.0000000E+00; -2.7391347E-06;  0.0000000E+00;
 -6.0000002E-01;  9.9999998E-03; -1.2000000E+00;46;  0.0000000E+00;  0.0000000E+00;  0.0000000E+00;  1.0001933E+01;  4.0000001E-01;  2.0804279E-01;0;  0.0000000E+00;  0.0000000E+00;  0.0000000E+00;  0.0000000E+00;  0.0000000E+00;  0.0000000E+00;0;  1.5855339E-05;  1.0000000E+02;  0.0000000E+00;  0.0000000E+00;  1.0000000E+02;  0.0000000E+00;  1.0000000E+02;  1.8654195E-05;  0.0000000E+00; -2.7988553E-06;  0.0000000E+00;
 -6.0000002E-01;  9.9999998E-03; -1.0000000E+00;47;  0.0000000E+00;  0.0000000E+00;  0.0000000E+00;  1.0002085E+01;  4.0000001E-01;  2.2433221E-01;0;  0.0000000E+00;  0.0000000E+00;  0.0000000E+00;  0.0000000E+00;  0.0000000E+00;  0.0000000E+00;0;  2.7103968E-05;  1.0000000E+02;  0.0000000E+00;  0.0000000E+00;  1.0000000E+02;  0.0000000E+00;  1.0000000E+02;  2.9432602E-05;  0.0000000E+00; -2.3286341E-06;  0.0000000E+00;
 -6.0000002E-01;  9.9999998E-03; -8.0000001E-01;48;  0.0000000E+00;  0.0000000E+00;  0.0000000E+00;  1.0002733E+01;  4.0000001E-01;  2.9410735E-01;0;  0.0000000E+00;  0.0000000E+00;  0.0000000E+00;  0.0000000E+00;  0.0000000E+00;  0.0000000E+00;0;  4.1865766E-05;  1.0000000E+02;  0.0000000E+00;  0.0000000E+00;  1.0000000E+02;  0.0000000E+00;  1.0000000E+02;  4.3040858E-05;  0.0000000E+00; -1.1750933E-06;  0.0000000E+00;
 -6.0000002E-01;  9.9999998E-03; -6.0000002E-01;49;  0.0000000E+00;  0.0000000E+00;  0.0000000E+00;  1.0003360E+01;  4.0000001E-01;  3.6144549E-01;0;  0.0000000E+00;  0.0000000E+00;  0.0000000E+00;  0.0000000E+00;  0.0000000E+00;  0.0000000E+00;0;  5.9219587E-05;  1.0000000E+02;  0.0000000E+00;  0.0000000E+00;  1.0000000E+02;  0.0000000E+00;  1.0000000E+02;  5.8576508E-05;  0.0000000E+00;  6.4307835E-07;  0.0000000E+00;
 -6.0000002E-01;  9.9999998E-03; -4.0000001E-01;50;  0.0000000E+00;  0.0000000E+00;  0.0000000E+00;  1.0002982E+01;  4.0000001E-01;  3.2091436E-01;0;  0.0000000E+00;  0.0000000E+00;  0.0000000E+00;  0.0000000E+00;  0.0000000E+00;  0.0000000E+00;0;  7.6628705E-05;  1.0000000E+02;  0.0000000E+00;  0.0000000E+00;  1.0000000E+02;  0.0000000E+00;  1.0000000E+02;  7.3845389E-05;  0.0000000E+00;  2.7833144E-06;  0.0000000E+00;
 -6.0000002E-01;  9.9999998E-03; -2.0000000E-01;51;  0.0000000E+00;  0.0000000E+00;  0.0000000E+00;  1.0003181E+01;  4.0000001E-01;  3.4233430E-01;0;  0.0000000E+00;  0.0000000E+00;  0.0000000E+00;  0.0000000E+00;  0.0000000E+00;  0.0000000E+00;0;  8.9956680E-05;  1.0000000E+02;  0.0000000E+00;  0.0000000E+00;  1.0000000E+02;  0.0000000E+00;  1.0000000E+02;  8.5374311E-05;  0.0000000E+00;  4.5823654E-06;  0.0000000E+00;
 -4.0000001E-01;  9.9999998E-03; -1.8000000E+00;64;  0.0000000E+00;  0.0000000E+00;  0.0000000E+00;  1.0000381E+01;  4.0000001E-01;  4.0915929E-02;0;  0.0000000E+00;  0.0000000E+00;  0.0000000E+00;  0.0000000E+00;  0.0000000E+00;  0.0000000E+00;0;  3.7889024E-06;  1.0000000E+02;  0.0000000E+00;  0.0000000E+00;  1.0000000E+02;  0.0000000E+00;  1.0000000E+02;  4.4861031E-06;  0.0000000E+00; -6.9720073E-07;  0.0000000E+00;
 -4.0000001E-01;  9.9999998E-03; -1.6000000E+00;65;  0.0000000E+00;  0.0000000E+00;  0.0000000E+00;  1.0000803E+01;  4.0000001E-01;  8.6449325E-02;0;  0.0000000E+00;  0.0000000E+00;  0.0000000E+00;  0.0000000E+00;  0.0000000E+00;  0.0000000E+00;0;  8.7989856E-06;  1.0000000E+02;  0.0000000E+00;  0.0000000E+00;  1.0000000E+02;  0.0000000E+00;  1.0000000E+02;  9.8856626E-06;  0.0000000E+00; -1.0866772E-06;  0.0000000E+00;
 -4.0000001E-01;  9.9999998E-03; -1.4000000E+00;66;  0.0000000E+00;  0.0000000E+00;  0.0000000E+00;  1.0001434E+01;  4.0000001E-01;  1.5430051E-01;0;  0.0000000E+00;  0.0000000E+00;  0.0000000E+00;  0.0000000E+00;  0.0000000E+00;  0.0000000E+00;0;  1.6437391E-05;  1.0000000E+02;  0.0000000E+00;  0.0000000E+00;  1.0000000E+02;  0.0000000E+00;  1.0000000E+02;  1.8155011E-05;  0.0000000E+00; -1.7176204E-06;  0.0000000E+00;
 -4.0000001E-01;  9.9999998E-03; -1.2000000E+00;67;  0.0000000E+00;  0.0000000E+00;  0.0000000E+00;  1.0001489E+01;  4.0000001E-01;  1.6020061E-01;0;  0.0000000E+00;  0.0000000E+00;  0.0000000E+00;  0.0000000E+00;  0.0000000E+00;  0.0000000E+00;0;  2.6394193E-05;  1.0000000E+02;  0.0000000E+00;  0.0000000E+00;  1.0000000E+02;  0.0000000E+00;  1.0000000E+02;  2.8725490E-05;  0.0000000E+00; -2.3312971E-06;  0.0000000E+00;
 -4.0000001E-01;  9.9999998E-03; -1.0000000E+00;68;  0.0000000E+00;  0.0000000E+00;  0.0000000E+00;  1.0002433E+01;  4.0000001E-01;  2.6178497E-01;0;  0.0000000E+00;  0.0000000E+00;  0.0000000E+00;  0.0000000E+00;  0.0000000E+00;  0.0000000E+00;0;  3.8178510E-05;  1.0000000E+02;  0.0000000E+00;  0.0000000E+00;  1.0000000E+02;  0.0000000E+00;  1.0000000E+02;  4.0631134E-05;  0.0000000E+00; -2.4526248E-06;  0.0000000E+00;
 -4.0000001E-01;  9.9999998E-03; -8.0000001E-01;69;  0.0000000E+00;  0.0000000E+00;  0.0000000E+00;  1.0003429E+01;  4.0000001E-01;  3.6901292E-01;0;  0.0000000E+00;  0.0000000E+00;  0.0000000E+00;  0.0000000E+00;  0.0000000E+00;  0.0000000E+00;0;  5.1439190E-05;  1.0000000E+02;  0.0000000E+00;  0.0000000E+00;  1.0000000E+02;  0.0000000E+00;  1.0000000E+02;  5.3122818E-05;  0.0000000E+00; -1.6836278E-06;  0.0000000E+00;
 -4.0000001E-01;  9.9999998E-03; -6.0000002E-01;70;  0.0000000E+00;  0.0000000E+00;  0.0000000E+00;  1.0003712E+01;  4.0000001E-01;  3.9941129E-01;0;  0.0000000E+00;  0.0000000E+00;  0.0000000E+00;  0.0000000E+00;  0.0000000E+00;  0.0000000E+00;0;  6.6026128E-05;  1.0000000E+02;  0.0000000E+00;  0.0000000E+00;  1.0000000E+02;  0.0000000E+00;  1.0000000E+02;  6.5993598E-05;  0.0000000E+00;  3.2529591E-08;  0.0000000E+00;
 -4.0000001E-01;  9.9999998E-03; -4.0000001E-01;71;  0.0000000E+00;  0.0000000E+00;  0.0000000E+00;  1.0004066E+01;  4.0000001E-01;  4.3750542E-01;0;  0.0000000E+00;  0.0000000E+00;  0.0000000E+00;  0.0000000E+00;  0.0000000E+00;  0.0000000E+00;0;  8.0810627E-05;  1.0000000E+02;  0.0000000E+00;  0.0000000E+00;  1.0000000E+02;  0.0000000E+00;  1.0000000E+02;  7.8566532E-05;  0.0000000E+00;  2.2440965E-06;  0.0000000E+00;
 -4.0000001E-01;  9.9999998E-03; -2.0000000E-01;72;  0.0000000E+00;  0.0000000E+00;  0.0000000E+00;  1.0004426E+01;  4.0000001E-01;  4.7624087E-01;0;  0.0000000E+00;  0.0000000E+00;  0.0000000E+00;  0.0000000E+00;  0.0000000E+00;  0.0000000E+00;0;  9.2587172E-05;  1.0000000E+02;  0.0000000E+00;  0.0000000E+00;  1.0000000E+02;  0.0000000E+00;  1.0000000E+02;  8.8510969E-05;  0.0000000E+00;  4.0762011E-06;  0.0000000E+00;
 -2.0000000E-01;  9.9999998E-03; -1.8000000E+00;85;  0.0000000E+00;  0.0000000E+00;  0.0000000E+00;  1.0000424E+01;  4.0000001E-01;  4.5661647E-02;0;  0.0000000E+00;  0.0000000E+00;  0.0000000E+00;  0.0000000E+00;  0.0000000E+00;  0.0000000E+00;0;  1.2727263E-05;  1.0000000E+02;  0.0000000E+00;  0.0000000E+00;  1.0000000E+02;  0.0000000E+00;  1.0000000E+02;  1.0737241E-05;  0.0000000E+00;  1.9900226E-06;  0.0000000E+00;
 -2.0000000E-01;  9.9999998E-03; -1.6000000E+00;86;  0.0000000E+00;  0.0000000E+00;  0.0000000E+00;  1.0000000E+01;  4.0000001E-01;  0.0000000E+00;0;  0.0000000E+00;  0.0000000E+00;  0.0000000E+00;  0.0000000E+00;  0.0000000E+00;  0.0000000E+00;0;  2.4904666E-05;  1.0000000E+02;  0.0000000E+00;  0.0000000E+00;  1.0000000E+02;  0.0000000E+00;  1.0000000E+02;  2.2748305E-05;  0.0000000E+00;  2.1563603E-06;  0.0000000E+00;
 -2.0000000E-01;  9.9999998E-03; -1.4000000E+00;87;  0.0000000E+00;  0.0000000E+00;  0.0000000E+00;  1.0000262E+01;  4.0000001E-01;  2.8217873E-02;0;  0.0000000E+00;  0.0000000E+00;  0.0000000E+00;  0.0000000E+00;  0.0000000E+00;  0.0000000E+00;0;  3.9960134E-05;  1.0000000E+02;  0.0000000E+00;  0.0000000E+00;  1.0000000E+02;  0.0000000E+00;  1.0000000E+02;  3.8774921E-05;  0.0000000E+00;  1.1852150E-06;  0.0000000E+00;
 -2.0000000E-01;  9.9999998E-03; -1.2000000E+00;88;  0.0000000E+00;  0.0000000E+00;  0.0000000E+00;  1.0000836E+01;  4.0000001E-01;  9.0040661E-02;0;  0.0000000E+00;  0.0000000E+00;  0.0000000E+00;  0.0000000E+00;  0.0000000E+00;  0.0000000E+00;0;  5.4982473E-05;  1.0000000E+02;  0.0000000E+00;  0.0000000E+00;  1.0000000E+02;  0.0000000E+00;  1.0000000E+02;  5.5459415E-05;  0.0000000E+00; -4.7694380E-07;  0.0000000E+00;
 -2.0000000E-01;  9.9999998E-03; -1.0000000E+00;89;  0.0000000E+00;  0.0000000E+00;  0.0000000E+00;  1.0001122E+01;  4.0000001E-01;  1.2069553E-01;0;  0.0000000E+00;  0.0000000E+00;  0.0000000E+00;  0.0000000E+00;  0.0000000E+00;  0.0000000E+00;0;  6.6710003E-05;  1.0000000E+02;  0.0000000E+00;  0.0000000E+00;  1.0000000E+02;  0.0000000E+00;  1.0000000E+02;  6.8602363E-05;  0.0000000E+00; -1.8923608E-06;  0.0000000E+00;
 -2.0000000E-01;  9.9999998E-03; -8.0000001E-01;90;  0.0000000E+00;  0.0000000E+00;  0.0000000E+00;  1.0002116E+01;  4.0000001E-01;  2.2766693E-01;0;  0.0000000E+00;  0.0000000E+00;  0.0000000E+00;  0.0000000E+00;  0.0000000E+00;  0.0000000E+00;0;  7.3575844E-05;  1.0000000E+02;  0.0000000E+00;  0.0000000E+00;  1.0000000E+02;  0.0000000E+00;  1.0000000E+02;  7.5822121E-05;  0.0000000E+00; -2.2462798E-06;  0.0000000E+00;
 -2.0000000E-01;  9.9999998E-03; -6.0000002E-01;91;  0.0000000E+00;  0.0000000E+00;  0.0000000E+00;  1.0003077E+01;  4.0000001E-01;  3.3104694E-01;0;  0.0000000E+00;  0.0000000E+00;  0.0000000E+00;  0.0000000E+00;  0.0000000E+00;  0.0000000E+00;0;  7.7211109E-05;  1.0000000E+02;  0.0000000E+00;  0.0000000E+00;  1.0000000E+02;  0.0000000E+00;  1.0000000E+02;  7.8585304E-05;  0.0000000E+00; -1.3741936E-06;  0.0000000E+00;
 -2.0000000E-01;  9.9999998E-03; -4.0000001E-01;92;  0.0000000E+00;  0.0000000E+00;  0.0000000E+00;  1.0003680E+01;  4.0000001E-01;  3.9594805E-01;0;  0.0000000E+00;  0.0000000E+00;  0.0000000E+00;  0.0000000E+00;  0.0000000E+00;  0.0000000E+00;0;  8.0036538E-05;  1.0000000E+02;  0.0000000E+00;  0.0000000E+00;  1.0000000E+02;  0.0000000E+00;  1.0000000E+02;  7.9951518E-05;  0.0000000E+00;  8.5020325E-08;  0.0000000E+00;
 -2.0000000E-01;  9.9999998E-03; -2.0000000E-01;93;  0.0000000E+00;  0.0000000E+00;  0.0000000E+00;  1.0004141E+01;  4.0000001E-01;  4.4558585E-01;0;  0.0000000E+00;  0.0000000E+00;  0.0000000E+00;  0.0000000E+00;  0.0000000E+00;  0.0000000E+00;0;  8.2203282E-05;  1.0000000E+02;  0.0000000E+00;  0.0000000E+00;  1.0000000E+02;  0.0000000E+00;  1.0000000E+02;  8.1068058E-05;  0.0000000E+00;  1.1352241E-06;  0.0000000E+00;
  0.0000000E+00;  9.9999998E-03; -1.8000000E+00;106;  0.0000000E+00;  0.0000000E+00;  0.0000000E+00;  1.0000000E+01;  4.0000001E-01;  0.0000000E+00;0;  0.0000000E+00;  0.0000000E+00;  0.0000000E+00;  0.0000000E+00;  0.0000000E+00;  0.0000000E+00;0;  3.4879184E-05;  1.0000000E+02;  0.0000000E+00;  0.0000000E+00;  1.0000000E+02;  0.0000000E+00;  1.0000000E+02;  2.8873608E-05;  0.0000000E+00;  6.0055768E-06;  0.0000000E+00;
  0.0000000E+00;  9.9999998E-03; -1.6000000E+00;107;  0.0000000E+00;  0.0000000E+00;  0.0000000E+00;  1.0000000E+01;  4.0000001E-01;  0.0000000E+00;0;  0.0000000E+00;  0.0000000E+00;  0.0000000E+00;  0.0000000E+00;  0.0000000E+00;  0.0000000E+00;0;  6.3464890E-05;  1.0000000E+02;  0.0000000E+00;  0.0000000E+00;  1.0000000E+02;  0.0000000E+00;  1.0000000E+02;  5.6424618E-05;  0.0000000E+00;  7.0402721E-06;  0.0000000E+00;
  0.0000000E+00;  9.9999998E-03; -1.4000000E+00;108;  0.0000000E+00;  0.0000000E+00;  0.0000000E+00;  1.0000000E+01;  4.0000001E-01;  0.0000000E+00;0;  0.0000000E+00;  0.0000000E+00;  0.0000000E+00;  0.0000000E+00;  0.0000000E+00;  0.0000000E+00;0;  9.6049349E-05;  1.0000000E+02;  0.0000000E+00;  0.0000000E+00;  1.0000000E+02;  0.0000000E+00;  1.0000000E+02;  9.0013833E-05;  0.0000000E+00;  6.0355178E-06;  0.0000000E+00;
  0.0000000E+00;  9.9999998E-03; -1.2000000E+00;109;  0.0000000E+00;  0.0000000E+00;  0.0000000E+00;  1.0000000E+01;  4.0000001E-01;  0.0000000E+00;0;  0.0000000E+00;  0.0000000E+00;  0.0000000E+00;  0.0000000E+00;  0.0000000E+00;  0.0000000E+00;0;  1.2428199E-04;  1.0000000E+02;  0.0000000E+00;  0.0000000E+00;  1.0000000E+02;  0.0000000E+00;  1.0000000E+02;  1.2095703E-04;  0.0000000E+00;  3.3249660E-06;  0.0000000E+00;
  2.0000000E-01;  9.9999998E-03; -1.8000000E+00;116;  0.0000000E+00;  0.0000000E+00;  0.0000000E+00;  1.0000000E+01;  4.0000001E-01;  0.0000000E+00;0;  0.0000000E+00;  0.0000000E+00;  0.0000000E+00;  0.0000000E+00;  0.0000000E+00;  0.0000000E+00;0;  8.1177888E-05;  1.0000000E+02;  0.0000000E+00;  0.0000000E+00;  1.0000000E+02;  0.0000000E+00;  1.0000000E+02;  7.1609080E-05;  0.0000000E+00;  9.5688101E-06;  0.0000000E+00;
  2.0000000E-01;  9.9999998E-03; -1.6000000E+00;117;  0.0000000E+00;  0.0000000E+00;  0.0000000E+00;  1.0000000E+01;  4.0000001E-01;  0.0000000E+00;0;  0.0000000E+00;  0.0000000E+00;  0.0000000E+00;  0.0000000E+00;  0.0000000E+00;  0.0000000E+00;0;  1.4320982E-04;  1.0000000E+02;  0.0000000E+00;  0.0000000E+00;  1.0000000E+02;  0.0000000E+00;  1.0000000E+02;  1.3156960E-04;  0.0000000E+00;  1.1640227E-05;  0.0000000E+00;
  2.0000000E-01;  9.9999998E-03; -1.4000000E+00;118;  0.0000000E+00;  0.0000000E+00;  0.0000000E+00;  1.0000000E+01;  4.0000001E-01;  0.0000000E+00;0;  0.0000000E+00;  0.0000000E+00;  0.0000000E+00;  0.0000000E+00;  0.0000000E+00;  0.0000000E+00;0;  2.1387306E-04;  1.0000000E+02;  0.0000000E+00;  0.0000000E+00;  1.0000000E+02;  0.0000000E+00;  1.0000000E+02;  2.0238364E-04;  0.0000000E+00;  1.1489418E-05;  0.0000000E+00;
  2.0000000E-01;  9.9999998E-03; -1.2000000E+00;119;  0.0000000E+00;  0.0000000E+00;  0.0000000E+00;  1.0000000E+01;  4.0000001E-01;  0.0000000E+00;0;  0.0000000E+00;  0.0000000E+00;  0.0000000E+00;  0.0000000E+00;  0.0000000E+00;  0.0000000E+00;0;  2.7576735E-04;  1.0000000E+02;  0.0000000E+00;  0.0000000E+00;  1.0000000E+02;  0.0000000E+00;  1.0000000E+02;  2.6686926E-04;  0.0000000E+00;  8.8980851E-06;  0.0000000E+00;
  4.0000001E-01;  9.9999998E-03; -1.8000000E+00;126;  0.0000000E+00;  0.0000000E+00;  0.0000000E+00;  1.0000000E+01;  4.0000001E-01;  0.0000000E+00;0;  0.0000000E+00;  0.0000000E+00;  0.0000000E+00;  0.0000000E+00;  0.0000000E+00;  0.0000000E+00;0;  1.6876969E-04;  1.0000000E+02;  0.0000000E+00;  0.0000000E+00;  1.0000000E+02;  0.0000000E+00;  1.0000000E+02;  1.5882539E-04;  0.0000000E+00;  9.9443014E-06;  0.0000000E+00;
  4.0000001E-01;  9.9999998E-03; -1.6000000E+00;127;  0.0000000E+00;  0.0000000E+00;  0.0000000E+00;  1.0000000E+01;  4.0000001E-01;  0.0000000E+00;0;  0.0000000E+00;  0.0000000E+00;  0.0000000E+00;  0.0000000E+00;  0.0000000E+00;  0.0000000E+00;0;  2.9358111E-04;  1.0000000E+02;  0.0000000E+00;  0.0000000E+00;  1.0000000E+02;  0.0000000E+00;  1.0000000E+02;  2.8105304E-04;  0.0000000E+00;  1.2528053E-05;  0.0000000E+00;
  4.0000001E-01;  9.9999998E-03; -1.4000000E+00;128;  0.0000000E+00;  0.0000000E+00;  0.0000000E+00;  1.0000000E+01;  4.0000001E-01;  0.0000000E+00;0;  0.0000000E+00;  0.0000000E+00;  0.0000000E+00;  0.0000000E+00;  0.0000000E+00;  0.0000000E+00;0;  4.4106410E-04;  1.0000000E+02;  0.0000000E+00;  0.0000000E+00;  1.0000000E+02;  0.0000000E+00;  1.0000000E+02;  4.2723143E-04;  0.0000000E+00;  1.3832663E-05;  0.0000000E+00;
  4.0000001E-01;  9.9999998E-03; -1.2000000E+00;129;  0.0000000E+00;  0.0000000E+00;  0.0000000E+00;  1.0000000E+01;  4.0000001E-01;  0.0000000E+00;0;  0.0000000E+00;  0.0000000E+00;  0.0000000E+00;  0.0000000E+00;  0.0000000E+00;  0.0000000E+00;0;  5.8241526E-04;  1.0000000E+02;  0.0000000E+00;  0.0000000E+00;  1.0000000E+02;  0.0000000E+00;  1.0000000E+02;  5.6954339E-04;  0.0000000E+00;  1.2871857E-05;  0.0000000E+00;
  6.0000002E-01;  9.9999998E-03; -1.8000000E+00;136;  0.0000000E+00;  0.0000000E+00;  0.0000000E+00;  1.0000000E+01;  4.0000001E-01;  0.0000000E+00;0;  0.0000000E+00;  0.0000000E+00;  0.0000000E+00;  0.0000000E+00;  0.0000000E+00;  0.0000000E+00;0;  3.1659816E-04;  1.0000000E+02;  0.0000000E+00;  0.0000000E+00;  1.0000000E+02;  0.0000000E+00;  1.0000000E+02;  3.1189597E-04;  0.0000000E+00;  4.7021895E-06;  0.0000000E+00;
  6.0000002E-01;  9.9999998E-03; -1.6000000E+00;137;  0.0000000E+00;  0.0000000E+00;  0.0000000E+00;  1.0000000E+01;  4.0000001E-01;  0.0000000E+00;0;  0.0000000E+00;  0.0000000E+00;  0.0000000E+00;  0.0000000E+00;  0.0000000E+00;  0.0000000E+00;0;  5.4670573E-04;  1.0000000E+02;  0.0000000E+00;  0.0000000E+00;  1.0000000E+02;  0.0000000E+00;  1.0000000E+02;  5.4043822E-04;  0.0000000E+00;  6.2675103E-06;  0.0000000E+00;
  6.0000002E-01;  9.9999998E-03; -1.4000000E+00;138;  0.0000000E+00;  0.0000000E+00;  0.0000000E+00;  1.0000000E+01;  4.0000001E-01;  0.0000000E+00;0;  0.0000000E+00;  0.0000000E+00;  0.0000000E+00;  0.0000000E+00;  0.0000000E+00;  0.0000000E+00;0;  8.3375582E-04;  1.0000000E+02;  0.0000000E+00;  0.0000000E+00;  1.0000000E+02;  0.0000000E+00;  1.0000000E+02;  8.2555803E-04;  0.0000000E+00;  8.1978214E-06;  0.0000000E+00;
  6.0000002E-01;  9.9999998E-03; -1.2000000E+00;139;  0.0000000E+00;  0.0000000E+00;  0.0000000E+00;  1.0000000E+01;  4.0000001E-01;  0.0000000E+00;0;  0.0000000E+00;  0.0000000E+00;  0.0000000E+00;  0.0000000E+00;  0.0000000E+00;  0.0000000E+00;0;  1.1269193E-03;  1.0000000E+02;  0.0000000E+00;  0.0000000E+00;  1.0000000E+02;  0.0000000E+00;  1.0000000E+02;  1.1175721E-03;  0.0000000E+00;  9.3472499E-06;  0.0000000E+00;
  8.0000001E-01;  9.9999998E-03; -1.8000000E+00;146;  0.0000000E+00;  0.0000000E+00;  0.0000000E+00;  1.0000000E+01;  4.0000001E-01;  0.0000000E+00;0;  0.0000000E+00;  0.0000000E+00;  0.0000000E+00;  0.0000000E+00;  0.0000000E+00;  0.0000000E+00;0;  5.2136916E-04;  1.0000000E+02;  0.0000000E+00;  0.0000000E+00;  1.0000000E+02;  0.0000000E+00;  1.0000000E+02;  5.2855362E-04;  0.0000000E+00; -7.1844597E-06;  0.0000000E+00;
  8.0000001E-01;  9.9999998E-03; -1.6000000E+00;147;  0.0000000E+00;  0.0000000E+00;  0.0000000E+00;  1.0000000E+01;  4.0000001E-01;  0.0000000E+00;0;  0.0000000E+00;  0.0000000E+00;  0.0000000E+00;  0.0000000E+00;  0.0000000E+00;  0.0000000E+00;0;  8.9839997E-04;  1.0000000E+02;  0.0000000E+00;  0.0000000E+00;  1.0000000E+02;  0.0000000E+00;  1.0000000E+02;  9.0670481E-04;  0.0000000E+00; -8.3048362E-06;  0.0000000E+00;
  8.0000001E-01;  9.9999998E-03; -1.4000000E+00;148;  0.0000000E+00;  0.0000000E+00;  0.0000000E+00;  1.0000000E+01;  4.0000001E-01;  0.0000000E+00;0;  0.0000000E+00;  0.0000000E+00;  0.0000000E+00;  0.0000000E+00;  0.0000000E+00;  0.0000000E+00;0;  1.3947537E-03;  1.0000000E+02;  0.0000000E+00;  0.0000000E+00;  1.0000000E+02;  0.0000000E+00;  1.0000000E+02;  1.4025427E-03;  0.0000000E+00; -7.7890509E-06;  0.0000000E+00;
  8.0000001E-01;  9.9999998E-03; -1.2000000E+00;149;  0.0000000E+00;  0.0000000E+00;  0.0000000E+00;  1.0000000E+01;  4.0000001E-01;  0.0000000E+00;0;  0.0000000E+00;  0.0000000E+00;  0.0000000E+00;  0.0000000E+00;  0.0000000E+00;  0.0000000E+00;0;  1.9202911E-03;  1.0000000E+02;  0.0000000E+00;  0.0000000E+00;  1.0000000E+02;  0.0000000E+00;  1.0000000E+02;  1.9259325E-03;  0.0000000E+00; -5.6414028E-06;  0.0000000E+00;
  1.0000000E+00;  9.9999998E-03; -1.8000000E+00;156;  0.0000000E+00;  0.0000000E+00;  0.0000000E+00;  1.0000000E+01;  4.0000001E-01;  0.0000000E+00;0;  0.0000000E+00;  0.0000000E+00;  0.0000000E+00;  0.0000000E+00;  0.0000000E+00;  0.0000000E+00;0;  7.3315937E-04;  1.0000000E+02;  0.0000000E+00;  0.0000000E+00;  1.0000000E+02;  0.0000000E+00;  1.0000000E+02;  7.5819838E-04;  0.0000000E+00; -2.5038995E-05;  0.0000000E+00;
  1.0000000E+00;  9.9999998E-03; -1.6000000E+00;157;  0.0000000E+00;  0.0000000E+00;  0.0000000E+00;  1.0000000E+01;  4.0000001E-01;  0.0000000E+00;0;  0.0000000E+00;  0.0000000E+00;  0.0000000E+00;  0.0000000E+00;  0.0000000E+00;  0.0000000E+00;0;  1.2791594E-03;  1.0000000E+02;  0.0000000E+00;  0.0000000E+00;  1.0000000E+02;  0.0000000E+00;  1.0000000E+02;  1.3083972E-03;  0.0000000E+00; -2.9237739E-05;  0.0000000E+00;
  1.0000000E+00;  9.9999998E-03; -1.4000000E+00;158;  0.0000000E+00;  0.0000000E+00;  0.0000000E+00;  1.0000000E+01;  4.0000001E-01;  0.0000000E+00;0;  0.0000000E+00;  0.0000000E+00;  0.0000000E+00;  0.0000000E+00;  0.0000000E+00;  0.0000000E+00;0;  2.0337636E-03;  1.0000000E+02;  0.0000000E+00;  0.0000000E+00;  1.0000000E+02;  0.0000000E+00;  1.0000000E+02;  2.0652919E-03;  0.0000000E+00; -3.1528311E-05;  0.0000000E+00;
  1.0000000E+00;  9.9999998E-03; -1.2000000E+00;159;  0.0000000E+00;  0.0000000E+00;  0.0000000E+00;  1.0000000E+01;  4.0000001E-01;  0.0000000E+00;0;  0.0000000E+00;  0.0000000E+00;  0.0000000E+00;  0.0000000E+00;  0.0000000E+00;  0.0000000E+00;0;  2.8536343E-03;  1.0000000E+02;  0.0000000E+00;  0.0000000E+00;  1.0000000E+02;  0.0000000E+00;  1.0000000E+02;  2.8825745E-03;  0.0000000E+00; -2.8940041E-05;  0.0000000E+00;
 -1.0000000E+00;  9.9999998E-03;  0.0000000E+00;10;  0.0000000E+00;  0.0000000E+00;  0.0000000E+00;  1.0000560E+01;  4.0000001E-01;  6.0283676E-02;0;  0.0000000E+00;  0.0000000E+00;  0.0000000E+00;  0.0000000E+00;  0.0000000E+00;  0.0000000E+00;0;  3.9097809E-05;  1.0000000E+02;  0.0000000E+00;  0.0000000E+00;  1.0000000E+02;  0.0000000E+00;  1.0000000E+02;  3.6806945E-05;  0.0000000E+00;  2.2908655E-06;  0.0000000E+00;
 -1.0000000E+00;  9.9999998E-03;  2.0000000E-01;11;  0.0000000E+00;  0.0000000E+00;  0.0000000E+00;  1.0000548E+01;  4.0000001E-01;  5.9001043E-02;0;  0.0000000E+00;  0.0000000E+00;  0.0000000E+00;  0.0000000E+00;  0.0000000E+00;  0.0000000E+00;0;  3.7055466E-05;  1.0000000E+02;  0.0000000E+00;  0.0000000E+00;  1.0000000E+02;  0.0000000E+00;  1.0000000E+02;  3.4995461E-05;  0.0000000E+00;  2.0600039E-06;  0.0000000E+00;
 -1.0000000E+00;  9.9999998E-03;  4.0000001E-01;12;  0.0000000E+00;  0.0000000E+00;  0.0000000E+00;  1.0000521E+01;  4.0000001E-01;  5.6050994E-02;0;  0.0000000E+00;  0.0000000E+00;  0.0000000E+00;  0.0000000E+00;  0.0000000E+00;  0.0000000E+00;0;  3.1512911E-05;  1.0000000E+02;  0.0000000E+00;  0.0000000E+00;  1.0000000E+02;  0.0000000E+00;  1.0000000E+02;  3.0098012E-05;  0.0000000E+00;  1.4149000E-06;  0.0000000E+00;
 -1.0000000E+00;  9.9999998E-03;  6.0000002E-01;13;  0.0000000E+00;  0.0000000E+00;  0.0000000E+00;  1.0000807E+01;  4.0000001E-01;  8.6834148E-02;0;  0.0000000E+00;  0.0000000E+00;  0.0000000E+00;  0.0000000E+00;  0.0000000E+00;  0.0000000E+00;0;  2.3927285E-05;  1.0000000E+02;  0.0000000E+00;  0.0000000E+00;  1.0000000E+02;  0.0000000E+00;  1.0000000E+02;  2.3424673E-05;  0.0000000E+00;  5.0261269E-07;  0.0000000E+00;
 -1.0000000E+00;  9.9999998E-03;  8.0000001E-01;14;  0.0000000E+00;  0.0000000E+00;  0.0000000E+00;  1.0001022E+01;  4.0000001E-01;  1.1004978E-01;0;  0.0000000E+00;  0.0000000E+00;  0.0000000E+00;  0.0000000E+00;  0.0000000E+00;  0.0000000E+00;0;  1.6058861E-05;  1.0000000E+02;  0.0000000E+00;  0.0000000E+00;  1.0000000E+02;  0.0000000E+00;  1.0000000E+02;  1.6489063E-05;  0.0000000E+00; -4.3020111E-07;  0.0000000E+00;
 -1.0000000E+00;  9.9999998E-03;  1.0000000E+00;15;  0.0000000E+00;  0.0000000E+00;  0.0000000E+00;  1.0000754E+01;  4.0000001E-01;  8.1190571E-02;0;  0.0000000E+00;  0.0000000E+00;  0.0000000E+00;  0.0000000E+00;  0.0000000E+00;  0.0000000E+00;0;  9.3353419E-06;  1.0000000E+02;  0.0000000E+00;  0.0000000E+00;  1.0000000E+02;  0.0000000E+00;  1.0000000E+02;  1.0481344E-05;  0.0000000E+00; -1.1460022E-06;  0.0000000E+00;
 -1.0000000E+00;  9.9999998E-03;  1.2000000E+00;16;  0.0000000E+00;  0.0000000E+00;  0.0000000E+00;  1.0000500E+01;  4.0000001E-01;  5.3742256E-02;0;  0.0000000E+00;  0.0000000E+00;  0.0000000E+00;  0.0000000E+00;  0.0000000E+00;  0.0000000E+00;0;  4.4756507E-06;  1.0000000E+02;  0.0000000E+00;  0.0000000E+00;  1.0000000E+02;  0.0000000E+00;  1.0000000E+02;  5.9942427E-06;  0.0000000E+00; -1.5185917E-06;  0.0000000E+00;
 -1.0000000E+00;  9.9999998E-03;  1.4000000E+00;17;  0.0000000E+00;  0.0000000E+00;  0.0000000E+00;  1.0000267E+01;  4.0000001E-01;  2.8730944E-02;0;  0.0000000E+00;  0.0000000E+00;  0.0000000E+00;  0.0000000E+00;  0.0000000E+00;  0.0000000E+00;0;  1.5308990E-06;  1.0000000E+02;  0.0000000E+00;  0.0000000E+00;  1.0000000E+02;  0.0000000E+00;  1.0000000E+02;  3.0598464E-06;  0.0000000E+00; -1.5289475E-06;  0.0000000E+00;
 -8.0000001E-01;  9.9999998E-03;  0.0000000E+00;31;  0.0000000E+00;  0.0000000E+00;  0.0000000E+00;  1.0001554E+01;  4.0000001E-01;  1.6712685E-01;0;  0.0000000E+00;  0.0000000E+00;  0.0000000E+00;  0.0000000E+00;  0.0000000E+00;  0.0000000E+00;0;  7.2003400E-05;  1.0000000E+02;  0.0000000E+00;  0.0000000E+00;  1.0000000E+02;  0.0000000E+00;  1.0000000E+02;  6.7960988E-05;  0.0000000E+00;  4.0424129E-06;  0.0000000E+00;
 -8.0000001E-01;  9.9999998E-03;  2.0000000E-01;32;  0.0000000E+00;  0.0000000E+00;  0.0000000E+00;  1.0001723E+01;  4.0000001E-01;  1.8546848E-01;0;  0.0000000E+00;  0.0000000E+00;  0.0000000E+00;  0.0000000E+00;  0.0000000E+00;  0.0000000E+00;0;  6.8276735E-05;  1.0000000E+02;  0.0000000E+00;  0.0000000E+00;  1.0000000E+02;  0.0000000E+00;  1.0000000E+02;  6.4718814E-05;  0.0000000E+00;  3.5579237E-06;  0.0000000E+00;
 -8.0000001E-01;  9.9999998E-03;  4.0000001E-01;33;  0.0000000E+00;  0.0000000E+00;  0.0000000E+00;  1.0002072E+01;  4.0000001E-01;  2.2292131E-01;0;  0.0000000E+00;  0.0000000E+00;  0.0000000E+00;  0.0000000E+00;  0.0000000E+00;  0.0000000E+00;0;  5.8219455E-05;  1.0000000E+02;  0.0000000E+00;  0.0000000E+00;  1.0000000E+02;  0.0000000E+00;  1.0000000E+02;  5.5916578E-05;  0.0000000E+00;  2.3028758E-06;  0.0000000E+00;
 -8.0000001E-01;  9.9999998E-03;  6.0000002E-01;34;  0.0000000E+00;  0.0000000E+00;  0.0000000E+00;  1.0001845E+01;  4.0000001E-01;  1.9855133E-01;0;  0.0000000E+00;  0.0000000E+00;  0.0000000E+00;  0.0000000E+00;  0.0000000E+00;  0.0000000E+00;0;  4.4623448E-05;  1.0000000E+02;  0.0000000E+00;  0.0000000E+00;  1.0000000E+02;  0.0000000E+00;  1.0000000E+02;  4.3908251E-05;  0.0000000E+00;  7.1519855E-07;  0.0000000E+00;
 -8.0000001E-01;  9.9999998E-03;  8.0000001E-01;35;  0.0000000E+00;  0.0000000E+00;  0.0000000E+00;  1.0001509E+01;  4.0000001E-01;  1.6238111E-01;0;  0.0000000E+00;  0.0000000E+00;  0.0000000E+00;  0.0000000E+00;  0.0000000E+00;  0.0000000E+00;0;  3.0703843E-05;  1.0000000E+02;  0.0000000E+00;  0.0000000E+00;  1.0000000E+02;  0.0000000E+00;  1.0000000E+02;  3.1458898E-05;  0.0000000E+00; -7.5505551E-07;  0.0000000E+00;
 -8.0000001E-01;  9.9999998E-03;  1.0000000E+00;36;  0.0000000E+00;  0.0000000E+00;  0.0000000E+00;  1.0001770E+01;  4.0000001E-01;  1.9047074E-01;0;  0.0000000E+00;  0.0000000E+00;  0.0000000E+00;  0.0000000E+00;  0.0000000E+00;  0.0000000E+00;0;  1.8815459E-05;  1.0000000E+02;  0.0000000E+00;  0.0000000E+00;  1.0000000E+02;  0.0000000E+00;  1.0000000E+02;  2.0628690E-05;  0.0000000E+00; -1.8132314E-06;  0.0000000E+00;
 -8.0000001E-01;  9.9999998E-03;  1.2000000E+00;37;  0.0000000E+00;  0.0000000E+00;  0.0000000E+00;  1.0001216E+01;  4.0000001E-01;  1.3082840E-01;0;  0.0000000E+00;  0.0000000E+00;  0.0000000E+00;  0.0000000E+00;  0.0000000E+00;  0.0000000E+00;0;  1.0019519E-05;  1.0000000E+02;  0.0000000E+00;  0.0000000E+00;  1.0000000E+02;  0.0000000E+00;  1.0000000E+02;  1.2384301E-05;  0.0000000E+00; -2.3647815E-06;  0.0000000E+00;
 -8.0000001E-01;  9.9999998E-03;  1.4000000E+00;38;  0.0000000E+00;  0.0000000E+00;  0.0000000E+00;  1.0000714E+01;  4.0000001E-01;  7.6829612E-02;0;  0.0000000E+00;  0.0000000E+00;  0.0000000E+00;  0.0000000E+00;  0.0000000E+00;  0.0000000E+00;0;  4.3564705E-06;  1.0000000E+02;  0.0000000E+00;  0.0000000E+00;  1.0000000E+02;  0.0000000E+00;  1.0000000E+02;  6.7924202E-06;  0.0000000E+00; -2.4359495E-06;  0.0000000E+00;
 -6.0000002E-01;  9.9999998E-03;  0.0000000E+00;52;  0.0000000E+00;  0.0000000E+00;  0.0000000E+00;  1.0003246E+01;  4.0000001E-01;  3.4926051E-01;0;  0.0000000E+00;  0.0000000E+00;  0.0000000E+00;  0.0000000E+00;  0.0000000E+00;  0.0000000E+00;0;  9.5048825E-05;  1.0000000E+02;  0.0000000E+00;  0.0000000E+00;  1.0000000E+02;  0.0000000E+00;  1.0000000E+02;  8.9749934E-05;  0.0000000E+00;  5.2988885E-06;  0.0000000E+00;
 -6.0000002E-01;  9.9999998E-03;  2.0000000E-01;53;  0.0000000E+00;  0.0000000E+00;  0.0000000E+00;  1.0003181E+01;  4.0000001E-01;  3.4233430E-01;0;  0.0000000E+00;  0.0000000E+00;  0.0000000E+00;  0.0000000E+00;  0.0000000E+00;  0.0000000E+00;0;  8.9956222E-05;  1.0000000E+02;  0.0000000E+00;  0.0000000E+00;  1.0000000E+02;  0.0000000E+00;  1.0000000E+02;  8.5373678E-05;  0.0000000E+00;  4.5825404E-06;  0.0000000E+00;
 -6.0000002E-01;  9.9999998E-03;  4.0000001E-01;54;  0.0000000E+00;  0.0000000E+00;  0.0000000E+00;  1.0002982E+01;  4.0000001E-01;  3.2091436E-01;0;  0.0000000E+00;  0.0000000E+00;  0.0000000E+00;  0.0000000E+00;  0.0000000E+00;  0.0000000E+00;0;  7.6627868E-05;  1.0000000E+02;  0.0000000E+00;  0.0000000E+00;  1.0000000E+02;  0.0000000E+00;  1.0000000E+02;  7.3844254E-05;  0.0000000E+00;  2.7836104E-06;  0.0000000E+00;
 -6.0000002E-01;  9.9999998E-03;  6.0000002E-01;55;  0.0000000E+00;  0.0000000E+00;  0.0000000E+00;  1.0003360E+01;  4.0000001E-01;  3.6144549E-01;0;  0.0000000E+00;  0.0000000E+00;  0.0000000E+00;  0.0000000E+00;  0.0000000E+00;  0.0000000E+00;0;  5.9218586E-05;  1.0000000E+02;  0.0000000E+00;  0.0000000E+00;  1.0000000E+02;  0.0000000E+00;  1.0000000E+02;  5.8575173E-05;  0.0000000E+00;  6.4341299E-07;  0.0000000E+00;
 -6.0000002E-01;  9.9999998E-03;  8.0000001E-01;56;  0.0000000E+00;  0.0000000E+00;  0.0000000E+00;  1.0002733E+01;  4.0000001E-01;  2.9410735E-01;0;  0.0000000E+00;  0.0000000E+00;  0.0000000E+00;  0.0000000E+00;  0.0000000E+00;  0.0000000E+00;0;  4.1864703E-05;  1.0000000E+02;  0.0000000E+00;  0.0000000E+00;  1.0000000E+02;  0.0000000E+00;  1.0000000E+02;  4.3039494E-05;  0.0000000E+00; -1.1747903E-06;  0.0000000E+00;
 -6.0000002E-01;  9.9999998E-03;  1.0000000E+00;57;  0.0000000E+00;  0.0000000E+00;  0.0000000E+00;  1.0002084E+01;  4.0000001E-01;  2.2420394E-01;0;  0.0000000E+00;  0.0000000E+00;  0.0000000E+00;  0.0000000E+00;  0.0000000E+00;  0.0000000E+00;0;  2.7103028E-05;  1.0000000E+02;  0.0000000E+00;  0.0000000E+00;  1.0000000E+02;  0.0000000E+00;  1.0000000E+02;  2.9431425E-05;  0.0000000E+00; -2.3283972E-06;  0.0000000E+00;
 -6.0000002E-01;  9.9999998E-03;  1.2000000E+00;58;  0.0000000E+00;  0.0000000E+00;  0.0000000E+00;  1.0001933E+01;  4.0000001E-01;  2.0804279E-01;0;  0.0000000E+00;  0.0000000E+00;  0.0000000E+00;  0.0000000E+00;  0.0000000E+00;  0.0000000E+00;0;  1.5854625E-05;  1.0000000E+02;  0.0000000E+00;  0.0000000E+00;  1.0000000E+02;  0.0000000E+00;  1.0000000E+02;  1.8653313E-05;  0.0000000E+00; -2.7986889E-06;  0.0000000E+00;
 -6.0000002E-01;  9.9999998E-03;  1.4000000E+00;59;  0.0000000E+00;  0.0000000E+00;  0.0000000E+00;  1.0001203E+01;  4.0000001E-01;  1.2941749E-01;0;  0.0000000E+00;  0.0000000E+00;  0.0000000E+00;  0.0000000E+00;  0.0000000E+00;  0.0000000E+00;0;  8.1187418E-06;  1.0000000E+02;  0.0000000E+00;  0.0000000E+00;  1.0000000E+02;  0.0000000E+00;  1.0000000E+02;  1.0857771E-05;  0.0000000E+00; -2.7390286E-06;  0.0000000E+00;
 -4.0000001E-01;  9.9999998E-03;  0.0000000E+00;73;  0.0000000E+00;  0.0000000E+00;  0.0000000E+00;  1.0004539E+01;  4.0000001E-01;  4.8829761E-01;0;  0.0000000E+00;  0.0000000E+00;  0.0000000E+00;  0.0000000E+00;  0.0000000E+00;  0.0000000E+00;0;  9.7164157E-05;  1.0000000E+02;  0.0000000E+00;  0.0000000E+00;  1.0000000E+02;  0.0000000E+00;  1.0000000E+02;  9.2401329E-05;  0.0000000E+00;  4.7628300E-06;  0.0000000E+00;
 -4.0000001E-01;  9.9999998E-03;  2.0000000E-01;74;  0.0000000E+00;  0.0000000E+00;  0.0000000E+00;  1.0004426E+01;  4.0000001E-01;  4.7624087E-01;0;  0.0000000E+00;  0.0000000E+00;  0.0000000E+00;  0.0000000E+00;  0.0000000E+00;  0.0000000E+00;0;  9.2586721E-05;  1.0000000E+02;  0.0000000E+00;  0.0000000E+00;  1.0000000E+02;  0.0000000E+00;  1.0000000E+02;  8.8510242E-05;  0.0000000E+00;  4.0764803E-06;  0.0000000E+00;
 -4.0000001E-01;  9.9999998E-03;  4.0000001E-01;75;  0.0000000E+00;  0.0000000E+00;  0.0000000E+00;  1.0004066E+01;  4.0000001E-01;  4.3750542E-01;0;  0.0000000E+00;  0.0000000E+00;  0.0000000E+00;  0.0000000E+00;  0.0000000E+00;  0.0000000E+00;0;  8.0809725E-05;  1.0000000E+02;  0.0000000E+00;  0.0000000E+00;  1.0000000E+02;  0.0000000E+00;  1.0000000E+02;  7.8565150E-05;  0.0000000E+00;  2.2445756E-06;  0.0000000E+00;
 -4.0000001E-01;  9.9999998E-03;  6.0000002E-01;76;  0.0000000E+00;  0.0000000E+00;  0.0000000E+00;  1.0003712E+01;  4.0000001E-01;  3.9941129E-01;0;  0.0000000E+00;  0.0000000E+00;  0.0000000E+00;  0.0000000E+00;  0.0000000E+00;  0.0000000E+00;0;  6.6024928E-05;  1.0000000E+02;  0.0000000E+00;  0.0000000E+00;  1.0000000E+02;  0.0000000E+00;  1.0000000E+02;  6.5991844E-05;  0.0000000E+00;  3.3081403E-08;  0.0000000E+00;
 -4.0000001E-01;  9.9999998E-03;  8.0000001E-01;77;  0.0000000E+00;  0.0000000E+00;  0.0000000E+00;  1.0003429E+01;  4.0000001E-01;  3.6901292E-01;0;  0.0000000E+00;  0.0000000E+00;  0.0000000E+00;  0.0000000E+00;  0.0000000E+00;  0.0000000E+00;0;  5.1437881E-05;  1.0000000E+02;  0.0000000E+00;  0.0000000E+00;  1.0000000E+02;  0.0000000E+00;  1.0000000E+02;  5.3120995E-05;  0.0000000E+00; -1.6831131E-06;  0.0000000E+00;
 -4.0000001E-01;  9.9999998E-03;  1.0000000E+00;78;  0.0000000E+00;  0.0000000E+00;  0.0000000E+00;  1.0002433E+01;  4.0000001E-01;  2.6178497E-01;0;  0.0000000E+00;  0.0000000E+00;  0.0000000E+00;  0.0000000E+00;  0.0000000E+00;  0.0000000E+00;0;  3.8177310E-05;  1.0000000E+02;  0.0000000E+00;  0.0000000E+00;  1.0000000E+02;  0.0000000E+00;  1.0000000E+02;  4.0629515E-05;  0.0000000E+00; -2.4522035E-06;  0.0000000E+00;
 -4.0000001E-01;  9.9999998E-03;  1.2000000E+00;79;  0.0000000E+00;  0.0000000E+00;  0.0000000E+00;  1.0001489E+01;  4.0000001E-01;  1.6020061E-01;0;  0.0000000E+00;  0.0000000E+00;  0.0000000E+00;  0.0000000E+00;  0.0000000E+00;  0.0000000E+00;0;  2.6393285E-05;  1.0000000E+02;  0.0000000E+00;  0.0000000E+00;  1.0000000E+02;  0.0000000E+00;  1.0000000E+02;  2.8724264E-05;  0.0000000E+00; -2.3309794E-06;  0.0000000E+00;
 -4.0000001E-01;  9.9999998E-03;  1.4000000E+00;80;  0.0000000E+00;  0.0000000E+00;  0.0000000E+00;  1.0001434E+01;  4.0000001E-01;  1.5430051E-01;0;  0.0000000E+00;  0.0000000E+00;  0.0000000E+00;  0.0000000E+00;  0.0000000E+00;  0.0000000E+00;0;  1.6436818E-05;  1.0000000E+02;  0.0000000E+00;  0.0000000E+00;  1.0000000E+02;  0.0000000E+00;  1.0000000E+02;  1.8154218E-05;  0.0000000E+00; -1.7173998E-06;  0.0000000E+00;
 -2.0000000E-01;  9.9999998E-03;  0.0000000E+00;94;  0.0000000E+00;  0.0000000E+00;  0.0000000E+00;  1.0004299E+01;  4.0000001E-01;  4.6251658E-01;0;  0.0000000E+00;  0.0000000E+00;  0.0000000E+00;  0.0000000E+00;  0.0000000E+00;  0.0000000E+00;0;  8.2986749E-05;  1.0000000E+02;  0.0000000E+00;  0.0000000E+00;  1.0000000E+02;  0.0000000E+00;  1.0000000E+02;  8.1517792E-05;  0.0000000E+00;  1.4689613E-06;  0.0000000E+00;
 -2.0000000E-01;  9.9999998E-03;  2.0000000E-01;95;  0.0000000E+00;  0.0000000E+00;  0.0000000E+00;  1.0004141E+01;  4.0000001E-01;  4.4558585E-01;0;  0.0000000E+00;  0.0000000E+00;  0.0000000E+00;  0.0000000E+00;  0.0000000E+00;  0.0000000E+00;0;  8.2202794E-05;  1.0000000E+02;  0.0000000E+00;  0.0000000E+00;  1.0000000E+02;  0.0000000E+00;  1.0000000E+02;  8.1067155E-05;  0.0000000E+00;  1.1356391E-06;  0.0000000E+00;
 -2.0000000E-01;  9.9999998E-03;  4.0000001E-01;96;  0.0000000E+00;  0.0000000E+00;  0.0000000E+00;  1.0003680E+01;  4.0000001E-01;  3.9594805E-01;0;  0.0000000E+00;  0.0000000E+00;  0.0000000E+00;  0.0000000E+00;  0.0000000E+00;  0.0000000E+00;0;  8.0035505E-05;  1.0000000E+02;  0.0000000E+00;  0.0000000E+00;  1.0000000E+02;  0.0000000E+00;  1.0000000E+02;  7.9949772E-05;  0.0000000E+00;  8.5735650E-08;  0.0000000E+00;
 -2.0000000E-01;  9.9999998E-03;  6.0000002E-01;97;  0.0000000E+00;  0.0000000E+00;  0.0000000E+00;  1.0003077E+01;  4.0000001E-01;  3.3104694E-01;0;  0.0000000E+00;  0.0000000E+00;  0.0000000E+00;  0.0000000E+00;  0.0000000E+00;  0.0000000E+00;0;  7.7209646E-05;  1.0000000E+02;  0.0000000E+00;  0.0000000E+00;  1.0000000E+02;  0.0000000E+00;  1.0000000E+02;  7.8583013E-05;  0.0000000E+00; -1.3733646E-06;  0.0000000E+00;
 -2.0000000E-01;  9.9999998E-03;  8.0000001E-01;98;  0.0000000E+00;  0.0000000E+00;  0.0000000E+00;  1.0002116E+01;  4.0000001E-01;  2.2766693E-01;0;  0.0000000E+00;  0.0000000E+00;  0.0000000E+00;  0.0000000E+00;  0.0000000E+00;  0.0000000E+00;0;  7.3574178E-05;  1.0000000E+02;  0.0000000E+00;  0.0000000E+00;  1.0000000E+02;  0.0000000E+00;  1.0000000E+02;  7.5819669E-05;  0.0000000E+00; -2.2454942E-06;  0.0000000E+00;
 -2.0000000E-01;  9.9999998E-03;  1.0000000E+00;99;  0.0000000E+00;  0.0000000E+00;  0.0000000E+00;  1.0001122E+01;  4.0000001E-01;  1.2069553E-01;0;  0.0000000E+00;  0.0000000E+00;  0.0000000E+00;  0.0000000E+00;  0.0000000E+00;  0.0000000E+00;0;  6.6708461E-05;  1.0000000E+02;  0.0000000E+00;  0.0000000E+00;  1.0000000E+02;  0.0000000E+00;  1.0000000E+02;  6.8600159E-05;  0.0000000E+00; -1.8916961E-06;  0.0000000E+00;
 -2.0000000E-01;  9.9999998E-03;  1.2000000E+00;100;  0.0000000E+00;  0.0000000E+00;  0.0000000E+00;  1.0000836E+01;  4.0000001E-01;  9.0040661E-02;0;  0.0000000E+00;  0.0000000E+00;  0.0000000E+00;  0.0000000E+00;  0.0000000E+00;  0.0000000E+00;0;  5.4981250E-05;  1.0000000E+02;  0.0000000E+00;  0.0000000E+00;  1.0000000E+02;  0.0000000E+00;  1.0000000E+02;  5.5457673E-05;  0.0000000E+00; -4.7642297E-07;  0.0000000E+00;
 -2.0000000E-01;  9.9999998E-03;  1.4000000E+00;101;  0.0000000E+00;  0.0000000E+00;  0.0000000E+00;  1.0000262E+01;  4.0000001E-01;  2.8217873E-02;0;  0.0000000E+00;  0.0000000E+00;  0.0000000E+00;  0.0000000E+00;  0.0000000E+00;  0.0000000E+00;0;  3.9959337E-05;  1.0000000E+02;  0.0000000E+00;  0.0000000E+00;  1.0000000E+02;  0.0000000E+00;  1.0000000E+02;  3.8773738E-05;  0.0000000E+00;  1.1855981E-06;  0.0000000E+00;
  0.0000000E+00;  9.9999998E-03;  1.2000000E+00;110;  0.0000000E+00;  0.0000000E+00;  0.0000000E+00;  1.0000000E+01;  4.0000001E-01;  0.0000000E+00;0;  0.0000000E+00;  0.0000000E+00;  0.0000000E+00;  0.0000000E+00;  0.0000000E+00;  0.0000000E+00;0;  1.2428004E-04;  1.0000000E+02;  0.0000000E+00;  0.0000000E+00;  1.0000000E+02;  0.0000000E+00;  1.0000000E+02;  1.2095433E-04;  0.0000000E+00;  3.3256961E-06;  0.0000000E+00;
  0.0000000E+00;  9.9999998E-03;  1.4000000E+00;111;  0.0000000E+00;  0.0000000E+00;  0.0000000E+00;  1.0000000E+01;  4.0000001E-01;  0.0000000E+00;0;  0.0000000E+00;  0.0000000E+00;  0.0000000E+00;  0.0000000E+00;  0.0000000E+00;  0.0000000E+00;0;  9.6048047E-05;  1.0000000E+02;  0.0000000E+00;  0.0000000E+00;  1.0000000E+02;  0.0000000E+00;  1.0000000E+02;  9.0011985E-05;  0.0000000E+00;  6.0360626E-06;  0.0000000E+00;
  2.0000000E-01;  9.9999998E-03;  1.2000000E+00;120;  0.0000000E+00;  0.0000000E+00;  0.0000000E+00;  1.0000000E+01;  4.0000001E-01;  0.0000000E+00;0;  0.0000000E+00;  0.0000000E+00;  0.0000000E+00;  0.0000000E+00;  0.0000000E+00;  0.0000000E+00;0;  2.7576368E-04;  1.0000000E+02;  0.0000000E+00;  0.0000000E+00;  1.0000000E+02;  0.0000000E+00;  1.0000000E+02;  2.6686475E-04;  0.0000000E+00;  8.8989418E-06;  0.0000000E+00;
  2.0000000E-01;  9.9999998E-03;  1.4000000E+00;121;  0.0000000E+00;  0.0000000E+00;  0.0000000E+00;  1.0000000E+01;  4.0000001E-01;  0.0000000E+00;0;  0.0000000E+00;  0.0000000E+00;  0.0000000E+00;  0.0000000E+00;  0.0000000E+00;  0.0000000E+00;0;  2.1387050E-04;  1.0000000E+02;  0.0000000E+00;  0.0000000E+00;  1.0000000E+02;  0.0000000E+00;  1.0000000E+02;  2.0238047E-04;  0.0000000E+00;  1.1490026E-05;  0.0000000E+00;
  4.0000001E-01;  9.9999998E-03;  1.2000000E+00;130;  0.0000000E+00;  0.0000000E+00;  0.0000000E+00;  1.0000000E+01;  4.0000001E-01;  0.0000000E+00;0;  0.0000000E+00;  0.0000000E+00;  0.0000000E+00;  0.0000000E+00;  0.0000000E+00;  0.0000000E+00;0;  5.8240828E-04;  1.0000000E+02;  0.0000000E+00;  0.0000000E+00;  1.0000000E+02;  0.0000000E+00;  1.0000000E+02;  5.6953559E-04;  0.0000000E+00;  1.2872659E-05;  0.0000000E+00;
  4.0000001E-01;  9.9999998E-03;  1.4000000E+00;131;  0.0000000E+00;  0.0000000E+00;  0.0000000E+00;  1.0000000E+01;  4.0000001E-01;  0.0000000E+00;0;  0.0000000E+00;  0.0000000E+00;  0.0000000E+00;  0.0000000E+00;  0.0000000E+00;  0.0000000E+00;0;  4.4105883E-04;  1.0000000E+02;  0.0000000E+00;  0.0000000E+00;  1.0000000E+02;  0.0000000E+00;  1.0000000E+02;  4.2722569E-04;  0.0000000E+00;  1.3833126E-05;  0.0000000E+00;
  6.0000002E-01;  9.9999998E-03;  1.2000000E+00;140;  0.0000000E+00;  0.0000000E+00;  0.0000000E+00;  1.0000000E+01;  4.0000001E-01;  0.0000000E+00;0;  0.0000000E+00;  0.0000000E+00;  0.0000000E+00;  0.0000000E+00;  0.0000000E+00;  0.0000000E+00;0;  1.1269075E-03;  1.0000000E+02;  0.0000000E+00;  0.0000000E+00;  1.0000000E+02;  0.0000000E+00;  1.0000000E+02;  1.1175598E-03;  0.0000000E+00;  9.3477338E-06;  0.0000000E+00;
  6.0000002E-01;  9.9999998E-03;  1.4000000E+00;141;  0.0000000E+00;  0.0000000E+00;  0.0000000E+00;  1.0000000E+01;  4.0000001E-01;  0.0000000E+00;0;  0.0000000E+00;  0.0000000E+00;  0.0000000E+00;  0.0000000E+00;  0.0000000E+00;  0.0000000E+00;0;  8.3374634E-04;  1.0000000E+02;  0.0000000E+00;  0.0000000E+00;  1.0000000E+02;  0.0000000E+00;  1.0000000E+02;  8.2554849E-04;  0.0000000E+00;  8.1978478E-06;  0.0000000E+00;
  8.0000001E-01;  9.9999998E-03;  1.2000000E+00;150;  0.0000000E+00;  0.0000000E+00;  0.0000000E+00;  1.0000000E+01;  4.0000001E-01;  0.0000000E+00;0;  0.0000000E+00;  0.0000000E+00;  0.0000000E+00;  0.0000000E+00;  0.0000000E+00;  0.0000000E+00;0;  1.9202748E-03;  1.0000000E+02;  0.0000000E+00;  0.0000000E+00;  1.0000000E+02;  0.0000000E+00;  1.0000000E+02;  1.9259164E-03;  0.0000000E+00; -5.6415788E-06;  0.0000000E+00;
  8.0000001E-01;  9.9999998E-03;  1.4000000E+00;151;  0.0000000E+00;  0.0000000E+00;  0.0000000E+00;  1.0000000E+01;  4.0000001E-01;  0.0000000E+00;0;  0.0000000E+00;  0.0000000E+00;  0.0000000E+00;  0.0000000E+00;  0.0000000E+00;  0.0000000E+00;0;  1.3947401E-03;  1.0000000E+02;  0.0000000E+00;  0.0000000E+00;  1.0000000E+02;  0.0000000E+00;  1.0000000E+02;  1.4025300E-03;  0.0000000E+00; -7.7898885E-06;  0.0000000E+00;
  1.0000000E+00;  9.9999998E-03;  1.2000000E+00;160;  0.0000000E+00;  0.0000000E+00;  0.0000000E+00;  1.0000000E+01;  4.0000001E-01;  0.0000000E+00;0;  0.0000000E+00;  0.0000000E+00;  0.0000000E+00;  0.0000000E+00;  0.0000000E+00;  0.0000000E+00;0;  2.8536152E-03;  1.0000000E+02;  0.0000000E+00;  0.0000000E+00;  1.0000000E+02;  0.0000000E+00;  1.0000000E+02;  2.8825568E-03;  0.0000000E+00; -2.8941467E-05;  0.0000000E+00;
  1.0000000E+00;  9.9999998E-03;  1.4000000E+00;161;  0.0000000E+00;  0.0000000E+00;  0.0000000E+00;  1.0000000E+01;  4.0000001E-01;  0.0000000E+00;0;  0.0000000E+00;  0.0000000E+00;  0.0000000E+00;  0.0000000E+00;  0.0000000E+00;  0.0000000E+00;0;  2.0337470E-03;  1.0000000E+02;  0.0000000E+00;  0.0000000E+00;  1.0000000E+02;  0.0000000E+00;  1.0000000E+02;  2.0652777E-03;  0.0000000E+00; -3.1530712E-05;  0.0000000E+00;
 -1.0000000E+00;  9.9999998E-03;  1.6000000E+00;18;  0.0000000E+00;  0.0000000E+00;  0.0000000E+00;  1.0000038E+01;  4.0000001E-01;  4.1044205E-03;0;  0.0000000E+00;  0.0000000E+00;  0.0000000E+00;  0.0000000E+00;  0.0000000E+00;  0.0000000E+00;0;  1.4193802E-07;  1.0000000E+02;  0.0000000E+00;  0.0000000E+00;  1.0000000E+02;  0.0000000E+00;  1.0000000E+02;  1.3711805E-06;  0.0000000E+00; -1.2292425E-06;  0.0000000E+00;
 -1.0000000E+00;  9.9999998E-03;  1.8000000E+00;19;  0.0000000E+00;  0.0000000E+00;  0.0000000E+00;  1.0000000E+01;  4.0000001E-01;  0.0000000E+00;0;  0.0000000E+00;  0.0000000E+00;  0.0000000E+00;  0.0000000E+00;  0.0000000E+00;  0.0000000E+00;0; -2.3003003E-07;  1.0000000E+02;  0.0000000E+00;  0.0000000E+00;  1.0000000E+02;  0.0000000E+00;  1.0000000E+02;  5.1214505E-07;  0.0000000E+00; -7.4217508E-07;  0.0000000E+00;
 -1.0000000E+00;  9.9999998E-03;  2.0000000E+00;20;  0.0000000E+00;  0.0000000E+00;  0.0000000E+00;  1.0000000E+01;  4.0000001E-01;  0.0000000E+00;0;  0.0000000E+00;  0.0000000E+00;  0.0000000E+00;  0.0000000E+00;  0.0000000E+00;  0.0000000E+00;0; -1.3751318E-07;  1.0000000E+02;  0.0000000E+00;  0.0000000E+00;  1.0000000E+02;  0.0000000E+00;  1.0000000E+02;  1.3705045E-07;  0.0000000E+00; -2.7456363E-07;  0.0000000E+00;
 -8.0000001E-01;  9.9999998E-03;  1.6000000E+00;39;  0.0000000E+00;  0.0000000E+00;  0.0000000E+00;  1.0000361E+01;  4.0000001E-01;  3.8863726E-02;0;  0.0000000E+00;  0.0000000E+00;  0.0000000E+00;  0.0000000E+00;  0.0000000E+00;  0.0000000E+00;0;  1.2990904E-06;  1.0000000E+02;  0.0000000E+00;  0.0000000E+00;  1.0000000E+02;  0.0000000E+00;  1.0000000E+02;  3.3866897E-06;  0.0000000E+00; -2.0875993E-06;  0.0000000E+00;
 -8.0000001E-01;  9.9999998E-03;  1.8000000E+00;40;  0.0000000E+00;  0.0000000E+00;  0.0000000E+00;  1.0000087E+01;  4.0000001E-01;  9.3632080E-03;0;  0.0000000E+00;  0.0000000E+00;  0.0000000E+00;  0.0000000E+00;  0.0000000E+00;  0.0000000E+00;0;  6.2149184E-08;  1.0000000E+02;  0.0000000E+00;  0.0000000E+00;  1.0000000E+02;  0.0000000E+00;  1.0000000E+02;  1.4674156E-06;  0.0000000E+00; -1.4052664E-06;  0.0000000E+00;
 -8.0000001E-01;  9.9999998E-03;  2.0000000E+00;41;  0.0000000E+00;  0.0000000E+00;  0.0000000E+00;  1.0000000E+01;  4.0000001E-01;  0.0000000E+00;0;  0.0000000E+00;  0.0000000E+00;  0.0000000E+00;  0.0000000E+00;  0.0000000E+00;  0.0000000E+00;0; -1.5657776E-07;  1.0000000E+02;  0.0000000E+00;  0.0000000E+00;  1.0000000E+02;  0.0000000E+00;  1.0000000E+02;  4.8262245E-07;  0.0000000E+00; -6.3920021E-07;  0.0000000E+00;
 -6.0000002E-01;  9.9999998E-03;  1.6000000E+00;60;  0.0000000E+00;  0.0000000E+00;  0.0000000E+00;  1.0000634E+01;  4.0000001E-01;  6.8235986E-02;0;  0.0000000E+00;  0.0000000E+00;  0.0000000E+00;  0.0000000E+00;  0.0000000E+00;  0.0000000E+00;0;  3.3851668E-06;  1.0000000E+02;  0.0000000E+00;  0.0000000E+00;  1.0000000E+02;  0.0000000E+00;  1.0000000E+02;  5.7026700E-06;  0.0000000E+00; -2.3175032E-06;  0.0000000E+00;
 -6.0000002E-01;  9.9999998E-03;  1.8000000E+00;61;  0.0000000E+00;  0.0000000E+00;  0.0000000E+00;  1.0000278E+01;  4.0000001E-01;  3.0013572E-02;0;  0.0000000E+00;  0.0000000E+00;  0.0000000E+00;  0.0000000E+00;  0.0000000E+00;  0.0000000E+00;0;  9.5588405E-07;  1.0000000E+02;  0.0000000E+00;  0.0000000E+00;  1.0000000E+02;  0.0000000E+00;  1.0000000E+02;  2.5973889E-06;  0.0000000E+00; -1.6415048E-06;  0.0000000E+00;
 -6.0000002E-01;  9.9999998E-03;  2.0000000E+00;62;  0.0000000E+00;  0.0000000E+00;  0.0000000E+00;  1.0000000E+01;  4.0000001E-01;  0.0000000E+00;0;  0.0000000E+00;  0.0000000E+00;  0.0000000E+00;  0.0000000E+00;  0.0000000E+00;  0.0000000E+00;0;  1.1799273E-07;  1.0000000E+02;  0.0000000E+00;  0.0000000E+00;  1.0000000E+02;  0.0000000E+00;  1.0000000E+02;  9.9774570E-07;  0.0000000E+00; -8.7975297E-07;  0.0000000E+00;
 -4.0000001E-01;  9.9999998E-03;  1.6000000E+00;81;  0.0000000E+00;  0.0000000E+00;  0.0000000E+00;  1.0000803E+01;  4.0000001E-01;  8.6449325E-02;0;  0.0000000E+00;  0.0000000E+00;  0.0000000E+00;  0.0000000E+00;  0.0000000E+00;  0.0000000E+00;0;  8.7986627E-06;  1.0000000E+02;  0.0000000E+00;  0.0000000E+00;  1.0000000E+02;  0.0000000E+00;  1.0000000E+02;  9.8852033E-06;  0.0000000E+00; -1.0865405E-06;  0.0000000E+00;
 -4.0000001E-01;  9.9999998E-03;  1.8000000E+00;82;  0.0000000E+00;  0.0000000E+00;  0.0000000E+00;  1.0000381E+01;  4.0000001E-01;  4.0915929E-02;0;  0.0000000E+00;  0.0000000E+00;  0.0000000E+00;  0.0000000E+00;  0.0000000E+00;  0.0000000E+00;0;  3.7887469E-06;  1.0000000E+02;  0.0000000E+00;  0.0000000E+00;  1.0000000E+02;  0.0000000E+00;  1.0000000E+02;  4.4858775E-06;  0.0000000E+00; -6.9713059E-07;  0.0000000E+00;
 -4.0000001E-01;  9.9999998E-03;  2.0000000E+00;83;  0.0000000E+00;  0.0000000E+00;  0.0000000E+00;  1.0000092E+01;  4.0000001E-01;  9.8762587E-03;0;  0.0000000E+00;  0.0000000E+00;  0.0000000E+00;  0.0000000E+00;  0.0000000E+00;  0.0000000E+00;0;  1.1778893E-06;  1.0000000E+02;  0.0000000E+00;  0.0000000E+00;  1.0000000E+02;  0.0000000E+00;  1.0000000E+02;  1.6625678E-06;  0.0000000E+00; -4.8467854E-07;  0.0000000E+00;
 -2.0000000E-01;  9.9999998E-03;  1.6000000E+00;102;  0.0000000E+00;  0.0000000E+00;  0.0000000E+00;  1.0000000E+01;  4.0000001E-01;  0.0000000E+00;0;  0.0000000E+00;  0.0000000E+00;  0.0000000E+00;  0.0000000E+00;  0.0000000E+00;  0.0000000E+00;0;  2.4904239E-05;  1.0000000E+02;  0.0000000E+00;  0.0000000E+00;  1.0000000E+02;  0.0000000E+00;  1.0000000E+02;  2.2747627E-05;  0.0000000E+00;  2.1566120E-06;  0.0000000E+00;
 -2.0000000E-01;  9.9999998E-03;  1.8000000E+00;103;  0.0000000E+00;  0.0000000E+00;  0.0000000E+00;  1.0000424E+01;  4.0000001E-01;  4.5661647E-02;0;  0.0000000E+00;  0.0000000E+00;  0.0000000E+00;  0.0000000E+00;  0.0000000E+00;  0.0000000E+00;0;  1.2727068E-05;  1.0000000E+02;  0.0000000E+00;  0.0000000E+00;  1.0000000E+02;  0.0000000E+00;  1.0000000E+02;  1.0736906E-05;  0.0000000E+00;  1.9901620E-06;  0.0000000E+00;
 -2.0000000E-01;  9.9999998E-03;  2.0000000E+00;104;  0.0000000E+00;  0.0000000E+00;  0.0000000E+00;  1.0000140E+01;  4.0000001E-01;  1.5135041E-02;0;  0.0000000E+00;  0.0000000E+00;  0.0000000E+00;  0.0000000E+00;  0.0000000E+00;  0.0000000E+00;0;  4.7908215E-06;  1.0000000E+02;  0.0000000E+00;  0.0000000E+00;  1.0000000E+02;  0.0000000E+00;  1.0000000E+02;  3.7781192E-06;  0.0000000E+00;  1.0127022E-06;  0.0000000E+00;
  0.0000000E+00;  9.9999998E-03;  1.6000000E+00;112;  0.0000000E+00;  0.0000000E+00;  0.0000000E+00;  1.0000000E+01;  4.0000001E-01;  0.0000000E+00;0;  0.0000000E+00;  0.0000000E+00;  0.0000000E+00;  0.0000000E+00;  0.0000000E+00;  0.0000000E+00;0;  6.3464140E-05;  1.0000000E+02;  0.0000000E+00;  0.0000000E+00;  1.0000000E+02;  0.0000000E+00;  1.0000000E+02;  5.6423498E-05;  0.0000000E+00;  7.0406445E-06;  0.0000000E+00;
  0.0000000E+00;  9.9999998E-03;  1.8000000E+00;113;  0.0000000E+00;  0.0000000E+00;  0.0000000E+00;  1.0000000E+01;  4.0000001E-01;  0.0000000E+00;0;  0.0000000E+00;  0.0000000E+00;  0.0000000E+00;  0.0000000E+00;  0.0000000E+00;  0.0000000E+00;0;  3.4878816E-05;  1.0000000E+02;  0.0000000E+00;  0.0000000E+00;  1.0000000E+02;  0.0000000E+00;  1.0000000E+02;  2.8873028E-05;  0.0000000E+00;  6.0057901E-06;  0.0000000E+00;
  0.0000000E+00;  9.9999998E-03;  2.0000000E+00;114;  0.0000000E+00;  0.0000000E+00;  0.0000000E+00;  1.0000150E+01;  4.0000001E-01;  1.6161133E-02;0;  0.0000000E+00;  0.0000000E+00;  0.0000000E+00;  0.0000000E+00;  0.0000000E+00;  0.0000000E+00;0;  1.4689460E-05;  1.0000000E+02;  0.0000000E+00;  0.0000000E+00;  1.0000000E+02;  0.0000000E+00;  1.0000000E+02;  1.1187725E-05;  0.0000000E+00;  3.5017345E-06;  0.0000000E+00;
  2.0000000E-01;  9.9999998E-03;  1.6000000E+00;122;  0.0000000E+00;  0.0000000E+00;  0.0000000E+00;  1.0000000E+01;  4.0000001E-01;  0.0000000E+00;0;  0.0000000E+00;  0.0000000E+00;  0.0000000E+00;  0.0000000E+00;  0.0000000E+00;  0.0000000E+00;0;  1.4320818E-04;  1.0000000E+02;  0.0000000E+00;  0.0000000E+00;  1.0000000E+02;  0.0000000E+00;  1.0000000E+02;  1.3156756E-04;  0.0000000E+00;  1.1640622E-05;  0.0000000E+00;
  2.0000000E-01;  9.9999998E-03;  1.8000000E+00;123;  0.0000000E+00;  0.0000000E+00;  0.0000000E+00;  1.0000000E+01;  4.0000001E-01;  0.0000000E+00;0;  0.0000000E+00;  0.0000000E+00;  0.0000000E+00;  0.0000000E+00;  0.0000000E+00;  0.0000000E+00;0;  8.1177066E-05;  1.0000000E+02;  0.0000000E+00;  0.0000000E+00;  1.0000000E+02;  0.0000000E+00;  1.0000000E+02;  7.1608025E-05;  0.0000000E+00;  9.5690411E-06;  0.0000000E+00;
  2.0000000E-01;  9.9999998E-03;  2.0000000E+00;124;  0.0000000E+00;  0.0000000E+00;  0.0000000E+00;  1.0000000E+01;  4.0000001E-01;  0.0000000E+00;0;  0.0000000E+00;  0.0000000E+00;  0.0000000E+00;  0.0000000E+00;  0.0000000E+00;  0.0000000E+00;0;  3.6603346E-05;  1.0000000E+02;  0.0000000E+00;  0.0000000E+00;  1.0000000E+02;  0.0000000E+00;  1.0000000E+02;  3.0733827E-05;  0.0000000E+00;  5.8695177E-06;  0.0000000E+00;
  4.0000001E-01;  9.9999998E-03;  1.6000000E+00;132;  0.0000000E+00;  0.0000000E+00;  0.0000000E+00;  1.0000000E+01;  4.0000001E-01;  0.0000000E+00;0;  0.0000000E+00;  0.0000000E+00;  0.0000000E+00;  0.0000000E+00;  0.0000000E+00;  0.0000000E+00;0;  2.9357761E-04;  1.0000000E+02;  0.0000000E+00;  0.0000000E+00;  1.0000000E+02;  0.0000000E+00;  1.0000000E+02;  2.8104935E-04;  0.0000000E+00;  1.2528273E-05;  0.0000000E+00;
  4.0000001E-01;  9.9999998E-03;  1.8000000E+00;133;  0.0000000E+00;  0.0000000E+00;  0.0000000E+00;  1.0000000E+01;  4.0000001E-01;  0.0000000E+00;0;  0.0000000E+00;  0.0000000E+00;  0.0000000E+00;  0.0000000E+00;  0.0000000E+00;  0.0000000E+00;0;  1.6876776E-04;  1.0000000E+02;  0.0000000E+00;  0.0000000E+00;  1.0000000E+02;  0.0000000E+00;  1.0000000E+02;  1.5882336E-04;  0.0000000E+00;  9.9443969E-06;  0.0000000E+00;
  4.0000001E-01;  9.9999998E-03;  2.0000000E+00;134;  0.0000000E+00;  0.0000000E+00;  0.0000000E+00;  1.0000000E+01;  4.0000001E-01;  0.0000000E+00;0;  0.0000000E+00;  0.0000000E+00;  0.0000000E+00;  0.0000000E+00;  0.0000000E+00;  0.0000000E+00;0;  7.9697878E-05;  1.0000000E+02;  0.0000000E+00;  0.0000000E+00;  1.0000000E+02;  0.0000000E+00;  1.0000000E+02;  7.3313247E-05;  0.0000000E+00;  6.3846292E-06;  0.0000000E+00;
  6.0000002E-01;  9.9999998E-03;  1.6000000E+00;142;  0.0000000E+00;  0.0000000E+00;  0.0000000E+00;  1.0000000E+01;  4.0000001E-01;  0.0000000E+00;0;  0.0000000E+00;  0.0000000E+00;  0.0000000E+00;  0.0000000E+00;  0.0000000E+00;  0.0000000E+00;0;  5.4669927E-04;  1.0000000E+02;  0.0000000E+00;  0.0000000E+00;  1.0000000E+02;  0.0000000E+00;  1.0000000E+02;  5.4043194E-04;  0.0000000E+00;  6.2673071E-06;  0.0000000E+00;
  6.0000002E-01;  9.9999998E-03;  1.8000000E+00;143;  0.0000000E+00;  0.0000000E+00;  0.0000000E+00;  1.0000000E+01;  4.0000001E-01;  0.0000000E+00;0;  0.0000000E+00;  0.0000000E+00;  0.0000000E+00;  0.0000000E+00;  0.0000000E+00;  0.0000000E+00;0;  3.1659423E-04;  1.0000000E+02;  0.0000000E+00;  0.0000000E+00;  1.0000000E+02;  0.0000000E+00;  1.0000000E+02;  3.1189228E-04;  0.0000000E+00;  4.7019425E-06;  0.0000000E+00;
  6.0000002E-01;  9.9999998E-03;  2.0000000E+00;144;  0.0000000E+00;  0.0000000E+00;  0.0000000E+00;  1.0000000E+01;  4.0000001E-01;  0.0000000E+00;0;  0.0000000E+00;  0.0000000E+00;  0.0000000E+00;  0.0000000E+00;  0.0000000E+00;  0.0000000E+00;0;  1.5564654E-04;  1.0000000E+02;  0.0000000E+00;  0.0000000E+00;  1.0000000E+02;  0.0000000E+00;  1.0000000E+02;  1.5221060E-04;  0.0000000E+00;  3.4359371E-06;  0.0000000E+00;
  8.0000001E-01;  9.9999998E-03;  1.6000000E+00;152;  0.0000000E+00;  0.0000000E+00;  0.0000000E+00;  1.0000000E+01;  4.0000001E-01;  0.0000000E+00;0;  0.0000000E+00;  0.0000000E+00;  0.0000000E+00;  0.0000000E+00;  0.0000000E+00;  0.0000000E+00;0;  8.9838973E-04;  1.0000000E+02;  0.0000000E+00;  0.0000000E+00;  1.0000000E+02;  0.0000000E+00;  1.0000000E+02;  9.0669555E-04;  0.0000000E+00; -8.3058130E-06;  0.0000000E+00;
  8.0000001E-01;  9.9999998E-03;  1.8000000E+00;153;  0.0000000E+00;  0.0000000E+00;  0.0000000E+00;  1.0000000E+01;  4.0000001E-01;  0.0000000E+00;0;  0.0000000E+00;  0.0000000E+00;  0.0000000E+00;  0.0000000E+00;  0.0000000E+00;  0.0000000E+00;0;  5.2136282E-04;  1.0000000E+02;  0.0000000E+00;  0.0000000E+00;  1.0000000E+02;  0.0000000E+00;  1.0000000E+02;  5.2854809E-04;  0.0000000E+00; -7.1852714E-06;  0.0000000E+00;
  8.0000001E-01;  9.9999998E-03;  2.0000000E+00;154;  0.0000000E+00;  0.0000000E+00;  0.0000000E+00;  1.0000000E+01;  4.0000001E-01;  0.0000000E+00;0;  0.0000000E+00;  0.0000000E+00;  0.0000000E+00;  0.0000000E+00;  0.0000000E+00;  0.0000000E+00;0;  2.6794212E-04;  1.0000000E+02;  0.0000000E+00;  0.0000000E+00;  1.0000000E+02;  0.0000000E+00;  1.0000000E+02;  2.7227867E-04;  0.0000000E+00; -4.3365503E-06;  0.0000000E+00;
  1.0000000E+00;  9.9999998E-03;  1.6000000E+00;162;  0.0000000E+00;  0.0000000E+00;  0.0000000E+00;  1.0000000E+01;  4.0000001E-01;  0.0000000E+00;0;  0.0000000E+00;  0.0000000E+00;  0.0000000E+00;  0.0000000E+00;  0.0000000E+00;  0.0000000E+00;0;  1.2791472E-03;  1.0000000E+02;  0.0000000E+00;  0.0000000E+00;  1.0000000E+02;  0.0000000E+00;  1.0000000E+02;  1.3083874E-03;  0.0000000E+00; -2.9240153E-05;  0.0000000E+00;
  1.0000000E+00;  9.9999998E-03;  1.8000000E+00;163;  0.0000000E+00;  0.0000000E+00;  0.0000000E+00;  1.0000000E+01;  4.0000001E-01;  0.0000000E+00;0;  0.0000000E+00;  0.0000000E+00;  0.0000000E+00;  0.0000000E+00;  0.0000000E+00;  0.0000000E+00;0;  7.3315133E-04;  1.0000000E+02;  0.0000000E+00;  0.0000000E+00;  1.0000000E+02;  0.0000000E+00;  1.0000000E+02;  7.5819221E-04;  0.0000000E+00; -2.5040858E-05;  0.0000000E+00;
  1.0000000E+00;  9.9999998E-03;  2.0000000E+00;164;  0.0000000E+00;  0.0000000E+00;  0.0000000E+00;  1.0000000E+01;  4.0000001E-01;  0.0000000E+00;0;  0.0000000E+00;  0.0000000E+00;  0.0000000E+00;  0.0000000E+00;  0.0000000E+00;  0.0000000E+00;0;  3.8986857E-04;  1.0000000E+02;  0.0000000E+00;  0.0000000E+00;  1.0000000E+02;  0.0000000E+00;  1.0000000E+02;  4.0831126E-04;  0.0000000E+00; -1.8442692E-05;  0.0000000E+00;
 -4.9598096E-04;  9.9999998E-03; -1.0001404E+00;165;  1.8509631E-05;  0.0000000E+00; -5.0400409E-05;  9.9987860E+00;  4.0005782E-01; -1.3063581E-01;3;  5.5633220E-03;  0.0000000E+00; -8.8853631E-03;  0.0000000E+00;  0.0000000E+00;  0.0000000E+00;0;  1.4064857E-04;  9.9943741E+01;  0.0000000E+00; -7.8172001E-05;  1.0000000E+02;  0.0000000E+00;  9.9998260E+01;  1.3818266E-04;  0.0000000E+00;  2.4659166E-06;  0.0000000E+00;
 -4.3258566E-04;  9.9999998E-03; -8.0014420E-01;166;  6.0594964E-05;  0.0000000E+00; -6.6895926E-05;  9.9987917E+00;  4.0003657E-01; -1.2999450E-01;3;  6.2090950E-03;  0.0000000E+00; -1.4683232E-02;  0.0000000E+00;  0.0000000E+00;  0.0000000E+00;0;  1.3543779E-04;  9.9951347E+01;  0.0000000E+00; -5.6266428E-05;  1.0000000E+02;  0.0000000E+00;  1.0000000E+02;  1.3723491E-04;  0.0000000E+00; -1.7971106E-06;  0.0000000E+00;
 -3.3480537E-04;  9.9999998E-03; -6.0011077E-01;167;  1.0421931E-04;  0.0000000E+00; -6.3448715E-05;  9.9988050E+00;  4.0000257E-01; -1.2858361E-01;3;  6.0222414E-03;  0.0000000E+00; -9.7623533E-03;  0.0000000E+00;  0.0000000E+00;  0.0000000E+00;0;  1.1972496E-04;  9.9966217E+01;  0.0000000E+00; -1.7900871E-05;  1.0000000E+02;  0.0000000E+00;  9.9998749E+01;  1.2325853E-04;  0.0000000E+00; -3.5335752E-06;  0.0000000E+00;
 -1.9782002E-04;  9.9999998E-03; -4.0004012E-01;168;  1.6413281E-04;  0.0000000E+00; -3.3623463E-05;  9.9987965E+00;  3.9997143E-01; -1.2948145E-01;3;  7.7370438E-03;  0.0000000E+00; -2.8723411E-03;  0.0000000E+00;  0.0000000E+00;  0.0000000E+00;0;  1.0070340E-04;  9.9983467E+01;  0.0000000E+00; -2.1330089E-07;  1.0000000E+02;  0.0000000E+00;  1.0000729E+02;  1.0474133E-04;  0.0000000E+00; -4.0379277E-06;  0.0000000E+00;
 -1.0877910E-04;  9.9999998E-03; -2.0001473E-01;169;  2.0520572E-04;  0.0000000E+00; -1.2430330E-05;  9.9989271E+00;  3.9994588E-01; -1.1543666E-01;3;  9.1095772E-03;  0.0000000E+00; -3.4910947E-04;  0.0000000E+00;  0.0000000E+00;  0.0000000E+00;0;  8.5748143E-05;  9.9996368E+01;  0.0000000E+00;  1.0622990E-06;  1.0000000E+02;  0.0000000E+00;  1.0000815E+02;  9.0215603E-05;  0.0000000E+00; -4.4674598E-06;  0.0000000E+00;
  1.9937232E-01;  9.9999998E-03; -9.9989295E-01;176;  3.1347681E-05;  0.0000000E+00;  6.0677162E-06;  9.9978285E+00;  4.0037912E-01; -2.3363052E-01;3;  9.5692724E-03;  0.0000000E+00; -1.8869672E-02;  0.0000000E+00;  0.0000000E+00;  0.0000000E+00;0;  3.1081637E-04;  9.9766235E+01;  0.0000000E+00; -1.4649260E-04;  1.0000000E+02;  0.0000000E+00;  1.0000108E+02;  3.0765618E-04;  0.0000000E+00;  3.1601726E-06;  0.0000000E+00;
  1.9937272E-01;  9.9999998E-03; -7.9996109E-01;177;  2.3386678E-05;  0.0000000E+00; -1.8501183E-05;  9.9977226E+00;  4.0040186E-01; -2.4504590E-01;3;  1.2979741E-02;  0.0000000E+00; -2.2986285E-02;  0.0000000E+00;  0.0000000E+00;  0.0000000E+00;0;  3.1200238E-04;  9.9746178E+01;  0.0000000E+00; -2.7119243E-04;  1.0000000E+02;  0.0000000E+00;  9.9999870E+01;  3.1398397E-04;  0.0000000E+00; -1.9815807E-06;  0.0000000E+00;
  1.9941682E-01;  9.9999998E-03; -5.9998453E-01;178;  4.2233041E-05;  0.0000000E+00; -2.2291175E-05;  9.9976807E+00;  4.0040064E-01; -2.4953510E-01;3;  1.8565964E-02;  0.0000000E+00; -1.8971497E-02;  0.0000000E+00;  0.0000000E+00;  0.0000000E+00;0;  2.8973413E-04;  9.9746895E+01;  0.0000000E+00; -1.8111161E-04;  1.0000000E+02;  0.0000000E+00;  1.0000382E+02;  2.9621509E-04;  0.0000000E+00; -6.4809574E-06;  0.0000000E+00;
  1.9953609E-01;  9.9999998E-03; -3.9997229E-01;179;  9.8374381E-05;  0.0000000E+00; -3.7450127E-06;  9.9979029E+00;  4.0037265E-01; -2.2561410E-01;3;  2.2063291E-02;  0.0000000E+00; -1.1328660E-02;  0.0000000E+00;  0.0000000E+00;  0.0000000E+00;0;  2.5843648E-04;  9.9760674E+01;  0.0000000E+00; -6.3848187E-05;  1.0000000E+02;  0.0000000E+00;  1.0001025E+02;  2.6791921E-04;  0.0000000E+00; -9.4827274E-06;  0.0000000E+00;
  1.9962242E-01;  9.9999998E-03; -1.9998376E-01;180;  1.3923179E-04;  0.0000000E+00;  1.0691783E-06;  9.9980183E+00;  4.0034130E-01; -2.1323675E-01;3;  2.5198560E-02;  0.0000000E+00; -4.8805661E-03;  0.0000000E+00;  0.0000000E+00;  0.0000000E+00;0;  2.3216182E-04;  9.9776207E+01;  0.0000000E+00; -9.4514189E-06;  1.0000000E+02;  0.0000000E+00;  1.0000989E+02;  2.4349328E-04;  0.0000000E+00; -1.1331462E-05;  0.0000000E+00;
  3.9947045E-01;  9.9999998E-03; -9.9966180E-01;187;  8.5869367E-05;  0.0000000E+00;  1.1494730E-04;  9.9963217E+00;  4.0102759E-01; -3.9575291E-01;3; -2.0793043E-02;  0.0000000E+00; -1.3247937E-01;  0.0000000E+00;  0.0000000E+00;  0.0000000E+00;0;  6.7761017E-04;  9.9411278E+01;  0.0000000E+00;  1.4286973E-03;  1.0000000E+02;  0.0000000E+00;  1.0000108E+02;  6.8250438E-04;  0.0000000E+00; -4.8942456E-06;  0.0000000E+00;
  3.9926055E-01;  9.9999998E-03; -7.9974788E-01;188; -6.1930573E-06;  0.0000000E+00;  6.9643153E-05;  9.9960756E+00;  4.0114379E-01; -4.2223907E-01;3; -1.8487230E-02;  0.0000000E+00; -1.0605641E-01;  0.0000000E+00;  0.0000000E+00;  0.0000000E+00;0;  7.0927088E-04;  9.9348114E+01;  0.0000000E+00; -1.1434119E-04;  1.0000000E+02;  0.0000000E+00;  9.9999763E+01;  7.1470084E-04;  0.0000000E+00; -5.4299635E-06;  0.0000000E+00;
  3.9923844E-01;  9.9999998E-03; -5.9985089E-01;189; -2.6452260E-06;  0.0000000E+00;  3.4983226E-05;  9.9959698E+00;  4.0117621E-01; -4.3365440E-01;3; -1.6075037E-02;  0.0000000E+00; -7.3408119E-02;  0.0000000E+00;  0.0000000E+00;  0.0000000E+00;0;  7.0253247E-04;  9.9326340E+01;  0.0000000E+00; -5.5054651E-04;  1.0000000E+02;  0.0000000E+00;  1.0001071E+02;  7.1201439E-04;  0.0000000E+00; -9.4819188E-06;  0.0000000E+00;
  3.9932328E-01;  9.9999998E-03; -3.9991093E-01;190;  4.9238115E-05;  0.0000000E+00;  2.1201024E-05;  9.9961052E+00;  4.0115905E-01; -4.1903251E-01;3; -1.6162645E-02;  0.0000000E+00; -4.2736258E-02;  0.0000000E+00;  0.0000000E+00;  0.0000000E+00;0;  6.7533622E-04;  9.9332733E+01;  0.0000000E+00; -3.2114814E-04;  1.0000000E+02;  0.0000000E+00;  1.0000997E+02;  6.8830920E-04;  0.0000000E+00; -1.2972971E-05;  0.0000000E+00;
  3.9941061E-01;  9.9999998E-03; -1.9995275E-01;191;  9.7923134E-05;  0.0000000E+00;  1.2927903E-05;  9.9962025E+00;  4.0113100E-01; -4.0857914E-01;3; -1.6540417E-02;  0.0000000E+00; -1.8577203E-02;  0.0000000E+00;  0.0000000E+00;  0.0000000E+00;0;  6.4961932E-04;  9.9347229E+01;  0.0000000E+00; -7.2097035E-05;  1.0000000E+02;  0.0000000E+00;  1.0000982E+02;  6.6459668E-04;  0.0000000E+00; -1.4977379E-05;  0.0000000E+00;
  5.9956974E-01;  9.9999998E-03; -9.9947429E-01;198;  5.3367719E-05;  0.0000000E+00;  2.1042881E-04;  9.9944849E+00;  4.0211201E-01; -5.9339935E-01;3;  5.1013883E-02;  0.0000000E+00; -1.9388020E-01;  0.0000000E+00;  0.0000000E+00;  0.0000000E+00;0;  1.3233566E-03;  9.8824509E+01;  0.0000000E+00;  1.1882782E-02;  1.0000000E+02;  0.0000000E+00;  1.0001733E+02;  1.3543677E-03;  0.0000000E+00; -3.1011019E-05;  0.0000000E+00;
  5.9911692E-01;  9.9999998E-03; -7.9958373E-01;199; -9.1783710E-05;  0.0000000E+00;  1.5760511E-04;  9.9940567E+00;  4.0233362E-01; -6.3944507E-01;3;  2.6242496E-02;  0.0000000E+00; -1.4474456E-01;  0.0000000E+00;  0.0000000E+00;  0.0000000E+00;0;  1.4230972E-03;  9.8714325E+01;  0.0000000E+00;  3.8092218E-03;  1.0000000E+02;  0.0000000E+00;  1.0001061E+02;  1.4411128E-03;  0.0000000E+00; -1.8015679E-05;  0.0000000E+00;
  5.9909850E-01;  9.9999998E-03; -5.9976017E-01;200; -6.2926323E-05;  0.0000000E+00;  8.3750761E-05;  9.9938593E+00;  4.0242332E-01; -6.6067225E-01;3;  9.6480083E-03;  0.0000000E+00; -8.9890108E-02;  0.0000000E+00;  0.0000000E+00;  0.0000000E+00;0;  1.4695912E-03;  9.8668205E+01;  0.0000000E+00; -2.7768602E-04;  1.0000000E+02;  0.0000000E+00;  1.0000781E+02;  1.4810470E-03;  0.0000000E+00; -1.1455824E-05;  0.0000000E+00;
  5.9919375E-01;  9.9999998E-03; -3.9987585E-01;201;  7.8383900E-06;  0.0000000E+00;  3.8332761E-05;  9.9938154E+00;  4.0242723E-01; -6.6541791E-01;3;  2.2415991E-03;  0.0000000E+00; -4.7820058E-02;  0.0000000E+00;  0.0000000E+00;  0.0000000E+00;0;  1.4726380E-03;  9.8668472E+01;  0.0000000E+00; -7.3091913E-04;  1.0000000E+02;  0.0000000E+00;  1.0000563E+02;  1.4827446E-03;  0.0000000E+00; -1.0106633E-05;  0.0000000E+00;
  5.9929436E-01;  9.9999998E-03; -1.9993944E-01;202;  7.4845128E-05;  0.0000000E+00;  1.9202587E-05;  9.9938011E+00;  4.0239862E-01; -6.6695708E-01;3; -2.9511538E-03;  0.0000000E+00; -1.9710889E-02;  0.0000000E+00;  0.0000000E+00;  0.0000000E+00;0;  1.4656999E-03;  9.8683334E+01;  0.0000000E+00; -2.1870615E-04;  1.0000000E+02;  0.0000000E+00;  1.0000317E+02;  1.4757485E-03;  0.0000000E+00; -1.0048647E-05;  0.0000000E+00;
  8.0174160E-01;  9.9999998E-03; -1.0000273E+00;209;  8.8180939E-04;  0.0000000E+00; -4.7133868E-05;  9.9916210E+00;  4.0400040E-01; -9.0152729E-01;3;  2.1935804E-01;  0.0000000E+00; -1.1722715E-01;  0.0000000E+00;  0.0000000E+00;  0.0000000E+00;0;  2.6839681E-03;  9.7863068E+01;  0.0000000E+00;  3.4666814E-02;  1.0000000E+02;  0.0000000E+00;  1.0000056E+02;  2.6708345E-03;  0.0000000E+00;  1.3133420E-05;  0.0000000E+00;
  7.9915130E-01;  9.9999998E-03; -7.9978627E-01;210; -1.8064184E-04;  0.0000000E+00;  9.0743270E-05;  9.9921112E+00;  4.0401554E-01; -8.4874940E-01;3;  1.1121977E-01;  0.0000000E+00; -1.2736024E-01;  0.0000000E+00;  0.0000000E+00;  0.0000000E+00;0;  2.4933347E-03;  9.7855797E+01;  0.0000000E+00;  1.8895300E-02;  1.0000000E+02;  0.0000000E+00;  1.0000793E+02;  2.5106161E-03;  0.0000000E+00; -1.7281294E-05;  0.0000000E+00;
  7.9902041E-01;  9.9999998E-03; -5.9984201E-01;211; -1.5505328E-04;  0.0000000E+00;  6.9455280E-05;  9.9917498E+00;  4.0414247E-01; -8.8767576E-01;3;  3.6026761E-02;  0.0000000E+00; -8.5572280E-02;  0.0000000E+00;  0.0000000E+00;  0.0000000E+00;0;  2.6057935E-03;  9.7798187E+01;  0.0000000E+00;  3.3713791E-03;  1.0000000E+02;  0.0000000E+00;  9.9997978E+01;  2.6114411E-03;  0.0000000E+00; -5.6474710E-06;  0.0000000E+00;
  7.9912317E-01;  9.9999998E-03; -3.9993632E-01;212; -3.4305533E-05;  0.0000000E+00;  2.1887143E-05;  9.9915752E+00;  4.0414599E-01; -9.0640146E-01;3;  1.1224043E-02;  0.0000000E+00; -4.2796280E-02;  0.0000000E+00;  0.0000000E+00;  0.0000000E+00;0;  2.6597055E-03;  9.7799980E+01;  0.0000000E+00; -6.3489337E-04;  1.0000000E+02;  0.0000000E+00;  9.9994041E+01;  2.6565089E-03;  0.0000000E+00;  3.1965153E-06;  0.0000000E+00;
  7.9925358E-01;  9.9999998E-03; -1.9996956E-01;213;  5.6977387E-05;  0.0000000E+00;  8.9158120E-06;  9.9914970E+00;  4.0410382E-01; -9.1486651E-01;3;  1.1173441E-03;  0.0000000E+00; -1.7039936E-02;  0.0000000E+00;  0.0000000E+00;  0.0000000E+00;0;  2.6842956E-03;  9.7819687E+01;  0.0000000E+00; -3.5718823E-04;  1.0000000E+02;  0.0000000E+00;  9.9989700E+01;  2.6782649E-03;  0.0000000E+00;  6.0306766E-06;  0.0000000E+00;
  1.0112618E+00;  9.9999998E-03; -1.0006405E+00;220;  2.8490194E-03;  0.0000000E+00; -1.5256158E-04;  9.9879675E+00;  4.0775418E-01; -1.2945100E+00;3;  3.1956114E-02;  0.0000000E+00;  2.8737087E-02;  0.0000000E+00;  0.0000000E+00;  0.0000000E+00;0;  4.9694348E-03;  9.6056839E+01;  0.0000000E+00;  5.9135659E-03;  1.0000000E+02;  0.0000000E+00;  9.9944107E+01;  4.9051349E-03;  0.0000000E+00;  6.4299777E-05;  0.0000000E+00;
  1.0027634E+00;  9.9999998E-03; -8.0067879E-01;221;  9.5603638E-04;  0.0000000E+00; -2.2160314E-04;  9.9896669E+00;  4.0650237E-01; -1.1116903E+00;3;  1.4304709E-01;  0.0000000E+00;  5.5577073E-02;  0.0000000E+00;  0.0000000E+00;  0.0000000E+00;0;  4.2385869E-03;  9.6682442E+01;  0.0000000E+00;  3.2945435E-02;  1.0000000E+02;  0.0000000E+00;  9.9939156E+01;  4.1488628E-03;  0.0000000E+00;  8.9723966E-05;  0.0000000E+00;
  1.0009481E+00;  9.9999998E-03; -6.0011834E-01;222; -2.0681584E-04;  0.0000000E+00; -4.4108183E-06;  9.9901485E+00;  4.0634957E-01; -1.0598770E+00;3;  5.3136654E-02;  0.0000000E+00; -4.9589325E-02;  0.0000000E+00;  0.0000000E+00;  0.0000000E+00;0;  4.0375399E-03;  9.6729401E+01;  0.0000000E+00;  9.5377453E-03;  1.0000000E+02;  0.0000000E+00;  9.9976547E+01;  4.0181517E-03;  0.0000000E+00;  1.9388104E-05;  0.0000000E+00;
  1.0011412E+00;  9.9999998E-03; -4.0018234E-01;223; -7.1544790E-05;  0.0000000E+00; -2.5755149E-05;  9.9898958E+00;  4.0629125E-01; -1.0870665E+00;3;  1.4397947E-02;  0.0000000E+00; -2.9233078E-02;  0.0000000E+00;  0.0000000E+00;  0.0000000E+00;0;  4.1396054E-03;  9.6756187E+01;  0.0000000E+00; -3.1535223E-04;  1.0000000E+02;  0.0000000E+00;  9.9974518E+01;  4.1112388E-03;  0.0000000E+00;  2.8366752E-05;  0.0000000E+00;
  1.0006942E+00;  9.9999998E-03; -2.0011568E-01;224;  3.9582268E-05;  0.0000000E+00; -2.6154714E-05;  9.9897766E+00;  4.0618768E-01; -1.0998919E+00;3;  2.4696756E-03;  0.0000000E+00; -1.2554768E-02;  0.0000000E+00;  0.0000000E+00;  0.0000000E+00;0;  4.1873083E-03;  9.6800255E+01;  0.0000000E+00; -4.4846826E-04;  1.0000000E+02;  0.0000000E+00;  9.9976395E+01;  4.1560875E-03;  0.0000000E+00;  3.1220927E-05;  0.0000000E+00;
  1.2153728E+00;  9.9999998E-03; -1.0005343E+00;231;  3.8394372E-03;  0.0000000E+00; -1.2713981E-04;  9.9873791E+00;  4.1048777E-01; -1.3576515E+00;3; -2.3580051E-03;  0.0000000E+00;  7.2356805E-02;  0.0000000E+00;  0.0000000E+00;  0.0000000E+00;0;  6.6535305E-03;  9.4783073E+01;  0.0000000E+00; -1.3140546E-03;  1.0000000E+02;  0.0000000E+00;  9.9929283E+01;  6.5806964E-03;  0.0000000E+00;  7.2834075E-05;  0.0000000E+00;
  1.2103643E+00;  9.9999998E-03; -8.0051702E-01;232;  2.5598188E-03;  0.0000000E+00; -1.8227051E-04;  9.9883604E+00;  4.0954059E-01; -1.2521169E+00;3;  7.8724019E-02;  0.0000000E+00;  7.9456210E-02;  0.0000000E+00;  0.0000000E+00;  0.0000000E+00;0;  6.1102584E-03;  9.5249199E+01;  0.0000000E+00;  1.5616842E-02;  1.0000000E+02;  0.0000000E+00;  9.9920639E+01;  5.9939609E-03;  0.0000000E+00;  1.1629751E-04;  0.0000000E+00;
  1.2034589E+00;  9.9999998E-03; -6.0002393E-01;233; -3.8038383E-05;  0.0000000E+00; -2.9589248E-05;  9.9893494E+00;  4.0885627E-01; -1.1457496E+00;3;  6.3548930E-02;  0.0000000E+00; -1.9009491E-02;  0.0000000E+00;  0.0000000E+00;  0.0000000E+00;0;  5.5867718E-03;  9.5543404E+01;  0.0000000E+00;  1.6361328E-02;  1.0000000E+02;  0.0000000E+00;  9.9963844E+01;  5.5438965E-03;  0.0000000E+00;  4.2875312E-05;  0.0000000E+00;
  1.2051125E+00;  9.9999998E-03; -4.0022922E-01;234; -4.4338300E-05;  0.0000000E+00; -1.1980867E-05;  9.9891405E+00;  4.0883359E-01; -1.1681899E+00;3;  1.4337644E-02;  0.0000000E+00; -1.5593562E-02;  0.0000000E+00;  0.0000000E+00;  0.0000000E+00;0;  5.7130354E-03;  9.5559143E+01;  0.0000000E+00; -1.4150331E-03;  1.0000000E+02;  0.0000000E+00;  9.9953339E+01;  5.6661479E-03;  0.0000000E+00;  4.6887413E-05;  0.0000000E+00;
  1.2089562E+00;  9.9999998E-03; -2.0026508E-01;235;  1.4740774E-04;  0.0000000E+00; -5.8581223E-05;  9.9890070E+00;  4.0871176E-01; -1.1825491E+00;3;  1.0790428E-03;  0.0000000E+00; -8.0202138E-03;  0.0000000E+00;  0.0000000E+00;  0.0000000E+00;0;  5.8078878E-03;  9.5609116E+01;  0.0000000E+00; -1.4910910E-03;  1.0000000E+02;  0.0000000E+00;  9.9958733E+01;  5.7498058E-03;  0.0000000E+00;  5.8082049E-05;  0.0000000E+00;
  1.4194763E+00;  9.9999998E-03; -1.0004193E+00;242;  4.9054418E-03;  0.0000000E+00; -1.0398150E-04;  9.9879951E+00;  4.1287363E-01; -1.2910931E+00;3;  3.1504033E-03;  0.0000000E+00;  6.1898999E-02;  0.0000000E+00;  0.0000000E+00;  0.0000000E+00;0;  8.0044530E-03;  9.3707367E+01;  0.0000000E+00; -2.4337973E-03;  1.0000000E+02;  0.0000000E+00;  9.9923965E+01;  7.9263197E-03;  0.0000000E+00;  7.8133722E-05;  0.0000000E+00;
  1.4154679E+00;  9.9999998E-03; -8.0026901E-01;243;  3.9963094E-03;  0.0000000E+00; -9.3174349E-05;  9.9884386E+00;  4.1235858E-01; -1.2434095E+00;3;  4.4805892E-02;  0.0000000E+00;  4.4046208E-02;  0.0000000E+00;  0.0000000E+00;  0.0000000E+00;0;  7.6785400E-03;  9.3952118E+01;  0.0000000E+00;  6.8446174E-03;  1.0000000E+02;  0.0000000E+00;  9.9920769E+01;  7.5897519E-03;  0.0000000E+00;  8.8788263E-05;  0.0000000E+00;
  1.4108919E+00;  9.9999998E-03; -6.0001940E-01;244;  1.6212448E-03;  0.0000000E+00;  4.5882163E-05;  9.9890585E+00;  4.1200313E-01; -1.1767516E+00;3;  3.2706317E-02;  0.0000000E+00; -6.3153184E-03;  0.0000000E+00;  0.0000000E+00;  0.0000000E+00;0;  7.2446465E-03;  9.4107796E+01;  0.0000000E+00;  3.2743996E-03;  1.0000000E+02;  0.0000000E+00;  9.9940506E+01;  7.2254604E-03;  0.0000000E+00;  1.9185980E-05;  0.0000000E+00;
  1.4129194E+00;  9.9999998E-03; -4.0030453E-01;245;  1.4104127E-03;  0.0000000E+00;  8.5626467E-05;  9.9890213E+00;  4.1196373E-01; -1.1807220E+00;3;  6.7841844E-03;  0.0000000E+00; -6.6166897E-03;  0.0000000E+00;  0.0000000E+00;  0.0000000E+00;0;  7.2768717E-03;  9.4137672E+01;  0.0000000E+00; -6.4783702E-03;  1.0000000E+02;  0.0000000E+00;  9.9928864E+01;  7.2415336E-03;  0.0000000E+00;  3.5338304E-05;  0.0000000E+00;
  1.4161383E+00;  9.9999998E-03; -2.0040756E-01;246;  5.7132063E-03;  0.0000000E+00; -6.8864705E-05;  9.9890079E+00;  4.1176242E-01; -1.1821895E+00;3;  9.4093994E-04;  0.0000000E+00; -5.5168839E-03;  0.0000000E+00;  0.0000000E+00;  0.0000000E+00;0;  7.3513640E-03;  9.4210175E+01;  0.0000000E+00; -2.3081244E-03;  1.0000000E+02;  0.0000000E+00;  9.9943054E+01;  7.2757294E-03;  0.0000000E+00;  7.5634678E-05;  0.0000000E+00;
  1.6248239E+00;  9.9999998E-03; -1.0004203E+00;253;  6.1622546E-03;  0.0000000E+00; -8.5141764E-05;  9.9888849E+00;  4.1556877E-01; -1.1947067E+00;3;  8.5265748E-03;  0.0000000E+00;  3.0337192E-02;  0.0000000E+00;  0.0000000E+00;  0.0000000E+00;0;  9.2830556E-03;  9.2528191E+01;  0.0000000E+00; -2.6620196E-03;  1.0000000E+02;  0.0000000E+00;  9.9909058E+01;  9.1998214E-03;  0.0000000E+00;  8.3233987E-05;  0.0000000E+00;
  1.6213119E+00;  9.9999998E-03; -8.0014461E-01;254;  5.3176256E-03;  0.0000000E+00; -6.0981019E-05;  9.9889822E+00;  4.1563264E-01; -1.1842808E+00;3;  2.0579766E-02;  0.0000000E+00;  1.2672669E-02;  0.0000000E+00;  0.0000000E+00;  0.0000000E+00;0;  9.1660731E-03;  9.2500954E+01;  0.0000000E+00;  4.8994320E-04;  1.0000000E+02;  0.0000000E+00;  9.9905426E+01;  9.0757767E-03;  0.0000000E+00;  9.0296431E-05;  0.0000000E+00;
  1.6185924E+00;  9.9999998E-03; -6.0001165E-01;255;  4.9043098E-03;  0.0000000E+00; -8.1152262E-05;  9.9890165E+00;  4.1575521E-01; -1.1805775E+00;3;  8.1384331E-03;  0.0000000E+00; -1.2708408E-03;  0.0000000E+00;  0.0000000E+00;  0.0000000E+00;0;  9.1015268E-03;  9.2452644E+01;  0.0000000E+00; -5.8998200E-03;  1.0000000E+02;  0.0000000E+00;  9.9896439E+01;  8.9904480E-03;  0.0000000E+00;  1.1107892E-04;  0.0000000E+00;
  1.6186234E+00;  9.9999998E-03; -4.0019742E-01;256;  6.7451955E-03;  0.0000000E+00; -1.5140769E-04;  9.9890919E+00;  4.1583365E-01; -1.1725049E+00;3;  3.1527532E-03;  0.0000000E+00; -3.8733296E-03;  0.0000000E+00;  0.0000000E+00;  0.0000000E+00;0;  9.0502547E-03;  9.2418159E+01;  0.0000000E+00; -5.7733995E-03;  1.0000000E+02;  0.0000000E+00;  9.9895264E+01;  8.9341346E-03;  0.0000000E+00;  1.1612050E-04;  0.0000000E+00;
  1.6171535E+00;  9.9999998E-03; -2.0039082E-01;257;  6.7088515E-03;  0.0000000E+00; -2.8688801E-04;  9.9892788E+00;  4.1576633E-01; -1.1523943E+00;3;  1.7598969E-03;  0.0000000E+00; -3.3876232E-03;  0.0000000E+00;  0.0000000E+00;  0.0000000E+00;0;  8.8487715E-03;  9.2432625E+01;  0.0000000E+00; -1.2725362E-03;  1.0000000E+02;  0.0000000E+00;  9.9919495E+01;  8.7408014E-03;  0.0000000E+00;  1.0797037E-04;  0.0000000E+00;
  1.8323175E+00;  9.9999998E-03; -1.0006227E+00;264;  7.8313891E-03;  0.0000000E+00; -7.4600248E-05;  9.9895220E+00;  4.1898945E-01; -1.1247538E+00;3;  7.4260654E-03;  0.0000000E+00;  5.1592076E-03;  0.0000000E+00;  0.0000000E+00;  0.0000000E+00;0;  1.0821112E-02;  9.1070709E+01;  0.0000000E+00; -4.3778522E-03;  1.0000000E+02;  0.0000000E+00;  9.9865479E+01;  1.0727182E-02;  0.0000000E+00;  9.3930161E-05;  0.0000000E+00;
  1.8296585E+00;  9.9999998E-03; -8.0014461E-01;265;  7.4595725E-03;  0.0000000E+00; -2.5430440E-05;  9.9893360E+00;  4.1971028E-01; -1.1447443E+00;3;  7.9007875E-03;  0.0000000E+00; -2.9580835E-03;  0.0000000E+00;  0.0000000E+00;  0.0000000E+00;0;  1.0974769E-02;  9.0760269E+01;  0.0000000E+00; -4.5383484E-03;  1.0000000E+02;  0.0000000E+00;  9.9858818E+01;  1.0877862E-02;  0.0000000E+00;  9.6907890E-05;  0.0000000E+00;
  1.8256006E+00;  9.9999998E-03; -5.9978479E-01;266;  7.3095495E-03;  0.0000000E+00; -1.9896353E-05;  9.9892359E+00;  4.2031923E-01; -1.1555358E+00;3;  2.9937883E-03;  0.0000000E+00; -4.3302984E-03;  0.0000000E+00;  0.0000000E+00;  0.0000000E+00;0;  1.1030916E-02;  9.0506134E+01;  0.0000000E+00; -2.6449536E-03;  1.0000000E+02;  0.0000000E+00;  9.9846268E+01;  1.0916922E-02;  0.0000000E+00;  1.1399407E-04;  0.0000000E+00;
  1.8209181E+00;  9.9999998E-03; -3.9971495E-01;267;  7.0262142E-03;  0.0000000E+00; -1.5684185E-04;  9.9892015E+00;  4.2074803E-01; -1.1592952E+00;3;  1.3788480E-03;  0.0000000E+00; -3.3649912E-03;  0.0000000E+00;  0.0000000E+00;  0.0000000E+00;0;  1.0986981E-02;  9.0319542E+01;  0.0000000E+00; -1.0152959E-03;  1.0000000E+02;  0.0000000E+00;  9.9847801E+01;  1.0843727E-02;  0.0000000E+00;  1.4325458E-04;  0.0000000E+00;
  1.8181951E+00;  9.9999998E-03; -1.9990864E-01;268;  6.6792117E-03;  0.0000000E+00; -2.2132350E-04;  9.9892874E+00;  4.2100698E-01; -1.1501080E+00;3;  1.1251166E-03;  0.0000000E+00; -1.7341963E-03;  0.0000000E+00;  0.0000000E+00;  0.0000000E+00;0;  1.0857949E-02;  9.0195541E+01;  0.0000000E+00; -2.1346573E-04;  1.0000000E+02;  0.0000000E+00;  9.9866646E+01;  1.0755364E-02;  0.0000000E+00;  1.0258554E-04;  0.0000000E+00;
  2.0438571E+00;  9.9999998E-03; -1.0012161E+00;275;  1.0435815E-02;  0.0000000E+00; -1.0856506E-04;  9.9899397E+00;  4.2317298E-01; -1.0766630E+00;3;  4.0260097E-03;  0.0000000E+00; -2.4284553E-03;  0.0000000E+00;  0.0000000E+00;  0.0000000E+00;0;  1.2774867E-02;  8.9384621E+01;  0.0000000E+00; -1.0273389E-02;  1.0000000E+02;  0.0000000E+00;  9.9760071E+01;  1.2623727E-02;  0.0000000E+00;  1.5113990E-04;  0.0000000E+00;
  2.0448384E+00;  9.9999998E-03; -8.0041635E-01;276;  9.7485334E-03;  0.0000000E+00; -1.9001422E-05;  9.9895477E+00;  4.2450860E-01; -1.1186147E+00;3;  1.5742437E-03;  0.0000000E+00; -3.9618490E-03;  0.0000000E+00;  0.0000000E+00;  0.0000000E+00;0;  1.3278338E-02;  8.8824852E+01;  0.0000000E+00; -1.1245579E-02;  1.0000000E+02;  0.0000000E+00;  9.9744308E+01;  1.3118037E-02;  0.0000000E+00;  1.6030145E-04;  0.0000000E+00;
  2.0395749E+00;  9.9999998E-03; -5.9960306E-01;277;  8.1761545E-03;  0.0000000E+00;  2.3005667E-05;  9.9891872E+00;  4.2567828E-01; -1.1573328E+00;3;  7.6242787E-04;  0.0000000E+00; -3.0895218E-03;  0.0000000E+00;  0.0000000E+00;  0.0000000E+00;0;  1.3635234E-02;  8.8341942E+01;  0.0000000E+00; -2.6340426E-03;  1.0000000E+02;  0.0000000E+00;  9.9733734E+01;  1.3459615E-02;  0.0000000E+00;  1.7561842E-04;  0.0000000E+00;
  2.0272593E+00;  9.9999998E-03; -3.9902386E-01;278;  7.1909628E-03;  0.0000000E+00; -5.1663144E-05;  9.9889565E+00;  4.2654818E-01; -1.1823119E+00;3;  5.2668789E-04;  0.0000000E+00; -1.7249805E-03;  0.0000000E+00;  0.0000000E+00;  0.0000000E+00;0;  1.3758739E-02;  8.7975594E+01;  0.0000000E+00; -1.3613258E-04;  1.0000000E+02;  0.0000000E+00;  9.9735474E+01;  1.3587462E-02;  0.0000000E+00;  1.7127681E-04;  0.0000000E+00;
  2.0228105E+00;  9.9999998E-03; -1.9934803E-01;279;  6.6224085E-03;  0.0000000E+00;  6.0743187E-05;  9.9888725E+00;  4.2724651E-01; -1.1914116E+00;3;  6.1362964E-04;  0.0000000E+00; -4.9374008E-04;  0.0000000E+00;  0.0000000E+00;  0.0000000E+00;0;  1.3800247E-02;  8.7695206E+01;  0.0000000E+00; -7.3868090E-05;  1.0000000E+02;  0.0000000E+00;  9.9725479E+01;  1.3704395E-02;  0.0000000E+00;  9.5852120E-05;  0.0000000E+00;
  2.2634585E+00;  9.9999998E-03; -1.0025109E+00;286;  1.7097153E-02;  0.0000000E+00; -2.2326171E-04;  9.9904165E+00;  4.2774439E-01; -1.0184675E+00;3;  1.2655258E-03;  0.0000000E+00; -1.1826367E-03;  0.0000000E+00;  0.0000000E+00;  0.0000000E+00;0;  1.4882328E-02;  8.7690620E+01;  0.0000000E+00; -1.1027914E-02;  1.0000000E+02;  0.0000000E+00;  9.9529724E+01;  1.4617983E-02;  0.0000000E+00;  2.6434520E-04;  0.0000000E+00;
  2.2635438E+00;  9.9999998E-03; -8.0121577E-01;287;  1.6800813E-02;  0.0000000E+00; -5.4687203E-05;  9.9897823E+00;  4.2933518E-01; -1.0858628E+00;3; -2.4292355E-03;  0.0000000E+00; -1.0957594E-03;  0.0000000E+00;  0.0000000E+00;  0.0000000E+00;0;  1.5830411E-02;  8.7050880E+01;  0.0000000E+00; -2.8664549E-03;  1.0000000E+02;  0.0000000E+00;  9.9507736E+01;  1.5540938E-02;  0.0000000E+00;  2.8947290E-04;  0.0000000E+00;
  2.2590854E+00;  9.9999998E-03; -5.9976965E-01;288;  1.4581408E-02;  0.0000000E+00;  1.1355629E-04;  9.9891310E+00;  4.3104663E-01; -1.1553348E+00;3; -4.9698181E-03;  0.0000000E+00; -5.1750353E-04;  0.0000000E+00;  0.0000000E+00;  0.0000000E+00;0;  1.6770761E-02;  8.6362137E+01;  0.0000000E+00;  2.3075858E-04;  1.0000000E+02;  0.0000000E+00;  9.9492081E+01;  1.6485963E-02;  0.0000000E+00;  2.8479868E-04;  0.0000000E+00;
  2.2469888E+00;  9.9999998E-03; -3.9860275E-01;289;  8.0968654E-03;  0.0000000E+00;  3.1897728E-04;  9.9885969E+00;  4.3266267E-01; -1.2127564E+00;3; -8.6399075E-04;  0.0000000E+00; -3.5197983E-04;  0.0000000E+00;  0.0000000E+00;  0.0000000E+00;0;  1.7406505E-02;  8.5734703E+01;  0.0000000E+00; -5.8045145E-04;  1.0000000E+02;  0.0000000E+00;  9.9467056E+01;  1.7192351E-02;  0.0000000E+00;  2.1415310E-04;  0.0000000E+00;
  2.2432477E+00;  9.9999998E-03; -1.9914418E-01;290;  6.9727404E-03;  0.0000000E+00;  2.1823005E-04;  9.9882231E+00;  4.3387038E-01; -1.2527059E+00;3; -3.5808524E-04;  0.0000000E+00; -1.1934756E-04;  0.0000000E+00;  0.0000000E+00;  0.0000000E+00;0;  1.7916787E-02;  8.5291946E+01;  0.0000000E+00; -1.6988868E-04;  1.0000000E+02;  0.0000000E+00;  9.9417320E+01;  1.7700106E-02;  0.0000000E+00;  2.1668164E-04;  0.0000000E+00;
  2.4638851E+00;  9.9999998E-03; -1.0048342E+00;297;  1.7068600E-02;  0.0000000E+00; -4.5422913E-04;  9.9906473E+00;  4.3305656E-01; -9.8098350E-01;3;  3.4787942E-04;  0.0000000E+00;  2.0614144E-04;  0.0000000E+00;  0.0000000E+00;  0.0000000E+00;0;  1.7200574E-02;  8.5933685E+01;  0.0000000E+00;  1.1989587E-03;  1.0000000E+02;  0.0000000E+00;  9.9095589E+01;  1.6759435E-02;  0.0000000E+00;  4.4113962E-04;  0.0000000E+00;
  2.4664114E+00;  9.9999998E-03; -8.0293536E-01;298;  1.7231649E-02;  0.0000000E+00; -1.5529600E-04;  9.9900017E+00;  4.3459702E-01; -1.0484568E+00;3; -1.1896839E-04;  0.0000000E+00;  3.6230627E-05;  0.0000000E+00;  0.0000000E+00;  0.0000000E+00;0;  1.8460112E-02;  8.5335091E+01;  0.0000000E+00;  2.4852864E-04;  1.0000000E+02;  0.0000000E+00;  9.9067749E+01;  1.7981261E-02;  0.0000000E+00;  4.7885120E-04;  0.0000000E+00;
  2.4713883E+00;  9.9999998E-03; -6.0078442E-01;299;  1.6668925E-02;  0.0000000E+00;  1.3711404E-04;  9.9892216E+00;  4.3642089E-01; -1.1297719E+00;3; -2.1630498E-03;  0.0000000E+00;  9.7478609E-05;  0.0000000E+00;  0.0000000E+00;  0.0000000E+00;0;  1.9982295E-02;  8.4641418E+01;  0.0000000E+00;  1.1804722E-04;  1.0000000E+02;  0.0000000E+00;  9.9032677E+01;  1.9437442E-02;  0.0000000E+00;  5.4485409E-04;  0.0000000E+00;
  2.4791546E+00;  9.9999998E-03; -3.9899197E-01;300;  1.5138836E-02;  0.0000000E+00;  4.4986853E-04;  9.9884996E+00;  4.3827420E-01; -1.2045780E+00;3; -3.2527607E-03;  0.0000000E+00;  4.3623262E-05;  0.0000000E+00;  0.0000000E+00;  0.0000000E+00;0;  2.1457661E-02;  8.3976082E+01;  0.0000000E+00;  7.0989227E-05;  1.0000000E+02;  0.0000000E+00;  9.8963562E+01;  2.0904504E-02;  0.0000000E+00;  5.5315677E-04;  0.0000000E+00;
  2.4838047E+00;  9.9999998E-03; -1.9927427E-01;301;  1.3896374E-02;  0.0000000E+00;  3.0969942E-04;  9.9879580E+00;  4.3967873E-01; -1.2607850E+00;3; -4.6899179E-03;  0.0000000E+00;  3.2187440E-05;  0.0000000E+00;  0.0000000E+00;  0.0000000E+00;0;  2.2553356E-02;  8.3499763E+01;  0.0000000E+00;  3.7578888E-05;  1.0000000E+02;  0.0000000E+00;  9.8877007E+01;  2.1946933E-02;  0.0000000E+00;  6.0642330E-04;  0.0000000E+00;
  2.6677282E+00;  9.9999998E-03; -1.0086330E+00;308;  1.7013557E-02;  0.0000000E+00; -9.7054197E-04;  9.9904394E+00;  4.4041416E-01; -9.7922730E-01;3;  1.9780327E-04;  0.0000000E+00;  4.4254007E-04;  0.0000000E+00;  0.0000000E+00;  0.0000000E+00;0;  2.0674510E-02;  8.3718155E+01;  0.0000000E+00;  2.9353115E-03;  1.0000000E+02;  0.0000000E+00;  9.8341484E+01;  1.9783778E-02;  0.0000000E+00;  8.9073268E-04;  0.0000000E+00;
  2.6736472E+00;  9.9999998E-03; -8.0607051E-01;309;  1.7188786E-02;  0.0000000E+00; -5.1469117E-04;  9.9899111E+00;  4.4140756E-01; -1.0324186E+00;3; -1.4408739E-04;  0.0000000E+00;  2.4327096E-04;  0.0000000E+00;  0.0000000E+00;  0.0000000E+00;0;  2.1919614E-02;  8.3360046E+01;  0.0000000E+00;  2.2584831E-03;  1.0000000E+02;  0.0000000E+00;  9.8310524E+01;  2.0961694E-02;  0.0000000E+00;  9.5791998E-04;  0.0000000E+00;
  2.6850305E+00;  9.9999998E-03; -6.0321552E-01;310;  1.8975995E-02;  0.0000000E+00; -4.1962253E-06;  9.9893188E+00;  4.4256923E-01; -1.0911921E+00;3; -2.1913187E-03;  0.0000000E+00;  4.3521693E-04;  0.0000000E+00;  0.0000000E+00;  0.0000000E+00;0;  2.3442337E-02;  8.2942513E+01;  0.0000000E+00;  1.3825629E-03;  1.0000000E+02;  0.0000000E+00;  9.8276482E+01;  2.2384388E-02;  0.0000000E+00;  1.0579487E-03;  0.0000000E+00;
  2.7007785E+00;  9.9999998E-03; -4.0042233E-01;311;  2.4056500E-02;  0.0000000E+00;  3.9815390E-04;  9.9887877E+00;  4.4370037E-01; -1.1426897E+00;3; -3.3486574E-03;  0.0000000E+00;  2.1386004E-05;  0.0000000E+00;  0.0000000E+00;  0.0000000E+00;0;  2.4903275E-02;  8.2556274E+01;  0.0000000E+00;  1.8224680E-04;  1.0000000E+02;  0.0000000E+00;  9.8219788E+01;  2.3702005E-02;  0.0000000E+00;  1.2012705E-03;  0.0000000E+00;
  2.7120211E+00;  9.9999998E-03; -1.9957025E-01;312;  2.6680851E-02;  0.0000000E+00;  2.5156300E-04;  9.9884081E+00;  4.4462752E-01; -1.1793057E+00;3; -4.8658908E-03;  0.0000000E+00;  6.6331559E-06;  0.0000000E+00;  0.0000000E+00;  0.0000000E+00;0;  2.5962319E-02;  8.2287064E+01;  0.0000000E+00;  2.7730928E-05;  1.0000000E+02;  0.0000000E+00;  9.8123703E+01;  2.4625508E-02;  0.0000000E+00;  1.3368102E-03;  0.0000000E+00;
  2.8825140E+00;  9.9999998E-03; -1.0140913E+00;319;  1.6953724E-02;  0.0000000E+00; -1.9827238E-03;  9.9897442E+00;  4.5035812E-01; -1.0124803E+00;3;  2.0042836E-04;  0.0000000E+00;  9.1622380E-04;  0.0000000E+00;  0.0000000E+00;  0.0000000E+00;0;  2.5905944E-02;  8.0976616E+01;  0.0000000E+00; -2.4070686E-03;  1.0000000E+02;  0.0000000E+00;  9.7216370E+01;  2.4022926E-02;  0.0000000E+00;  1.8830189E-03;  0.0000000E+00;
  2.8903553E+00;  9.9999998E-03; -8.1075454E-01;320;  2.0057917E-02;  0.0000000E+00; -1.3361104E-03;  9.9895515E+00;  4.5033160E-01; -1.0300174E+00;3; -1.8014265E-03;  0.0000000E+00;  7.2894915E-04;  0.0000000E+00;  0.0000000E+00;  0.0000000E+00;0;  2.6575275E-02;  8.0987236E+01;  0.0000000E+00; -8.8967377E-04;  1.0000000E+02;  0.0000000E+00;  9.7213776E+01;  2.4615116E-02;  0.0000000E+00;  1.9601593E-03;  0.0000000E+00;
  2.9027500E+00;  9.9999998E-03; -6.0724503E-01;321;  2.5106547E-02;  0.0000000E+00; -6.0584513E-04;  9.9893227E+00;  4.5031628E-01; -1.0501080E+00;3; -2.5163731E-03;  0.0000000E+00;  4.2658325E-04;  0.0000000E+00;  0.0000000E+00;  0.0000000E+00;0;  2.7413549E-02;  8.0981583E+01;  0.0000000E+00;  2.6392401E-04;  1.0000000E+02;  0.0000000E+00;  9.7218346E+01;  2.5352554E-02;  0.0000000E+00;  2.0609952E-03;  0.0000000E+00;
  2.9155662E+00;  9.9999998E-03; -4.0349704E-01;322;  3.0894611E-02;  0.0000000E+00;  9.7866810E-05;  9.9891224E+00;  4.5031819E-01; -1.0671986E+00;3; -1.2404975E-03;  0.0000000E+00;  5.8323244E-04;  0.0000000E+00;  0.0000000E+00;  0.0000000E+00;0;  2.8191900E-02;  8.0973419E+01;  0.0000000E+00;  1.3608174E-04;  1.0000000E+02;  0.0000000E+00;  9.7225037E+01;  2.5997499E-02;  0.0000000E+00;  2.1944002E-03;  0.0000000E+00;
  2.9264367E+00;  9.9999998E-03; -2.0060068E-01;323;  3.4564123E-02;  0.0000000E+00;  1.9658451E-04;  9.9889650E+00;  4.5041245E-01; -1.0803961E+00;3; -1.1752379E-03;  0.0000000E+00;  3.2616546E-05;  0.0000000E+00;  0.0000000E+00;  0.0000000E+00;0;  2.8812515E-02;  8.0971825E+01;  0.0000000E+00;  2.5380314E-05;  1.0000000E+02;  0.0000000E+00;  9.7184563E+01;  2.6439467E-02;  0.0000000E+00;  2.3730469E-03;  0.0000000E+00;
  3.1155748E+00;  9.9999998E-03; -1.0207125E+00;330;  2.4549564E-02;  0.0000000E+00; -3.7159915E-03;  9.9887686E+00;  4.6218303E-01; -1.0622339E+00;3; -3.8654844E-03;  0.0000000E+00;  1.1794189E-03;  0.0000000E+00;  0.0000000E+00;  0.0000000E+00;0;  3.3098966E-02;  7.7965446E+01;  0.0000000E+00; -5.4758186E-03;  1.0000000E+02;  0.0000000E+00;  9.5854790E+01;  2.9375972E-02;  0.0000000E+00;  3.7229937E-03;  0.0000000E+00;
  3.1163905E+00;  9.9999998E-03; -8.1643319E-01;331;  2.4531910E-02;  0.0000000E+00; -2.8641087E-03;  9.9888792E+00;  4.6109679E-01; -1.0516615E+00;3; -2.9095185E-03;  0.0000000E+00;  7.2062283E-04;  0.0000000E+00;  0.0000000E+00;  0.0000000E+00;0;  3.2816920E-02;  7.8280930E+01;  0.0000000E+00; -5.1832674E-03;  1.0000000E+02;  0.0000000E+00;  9.5919312E+01;  2.9036878E-02;  0.0000000E+00;  3.7800439E-03;  0.0000000E+00;
  3.1207767E+00;  9.9999998E-03; -6.1227065E-01;332;  2.9472483E-02;  0.0000000E+00; -1.8180085E-03;  9.9890509E+00;  4.5994234E-01; -1.0346730E+00;3;  5.4533785E-04;  0.0000000E+00;  6.5191137E-04;  0.0000000E+00;  0.0000000E+00;  0.0000000E+00;0;  3.2396205E-02;  7.8622574E+01;  0.0000000E+00; -1.9645772E-03;  1.0000000E+02;  0.0000000E+00;  9.5983688E+01;  2.8758656E-02;  0.0000000E+00;  3.6375499E-03;  0.0000000E+00;
  3.1289694E+00;  9.9999998E-03; -4.0801749E-01;333;  3.4019921E-02;  0.0000000E+00; -6.7112735E-04;  9.9891768E+00;  4.5891452E-01; -1.0213516E+00;3;  5.5702671E-04;  0.0000000E+00;  7.8571355E-04;  0.0000000E+00;  0.0000000E+00;  0.0000000E+00;0;  3.2185972E-02;  7.8922981E+01;  0.0000000E+00; -3.1745434E-04;  1.0000000E+02;  0.0000000E+00;  9.6050018E+01;  2.8600981E-02;  0.0000000E+00;  3.5849905E-03;  0.0000000E+00;
  3.1365490E+00;  9.9999998E-03; -2.0301127E-01;334;  3.7706386E-02;  0.0000000E+00;  3.1721105E-05;  9.9892197E+00;  4.5817548E-01; -1.0160460E+00;3;  1.4840277E-03;  0.0000000E+00; -1.2838209E-06;  0.0000000E+00;  0.0000000E+00;  0.0000000E+00;0;  3.2210447E-02;  7.9133606E+01;  0.0000000E+00; -2.2912856E-05;  1.0000000E+02;  0.0000000E+00;  9.6104500E+01;  2.8510734E-02;  0.0000000E+00;  3.6997108E-03;  0.0000000E+00;
  3.3540330E+00;  9.9999998E-03; -1.0272541E+00;341;  3.5946876E-02;  0.0000000E+00; -5.8258274E-03;  9.9879675E+00;  4.7387281E-01; -1.1020684E+00;3; -3.4062397E-03;  0.0000000E+00;  1.1538473E-03;  0.0000000E+00;  0.0000000E+00;  0.0000000E+00;0;  4.0772147E-02;  7.5158180E+01;  0.0000000E+00;  8.2863914E-04;  1.0000000E+02;  0.0000000E+00;  9.4575447E+01;  3.4817748E-02;  0.0000000E+00;  5.9544006E-03;  0.0000000E+00;
  3.3517005E+00;  9.9999998E-03; -8.2206029E-01;342;  3.4778282E-02;  0.0000000E+00; -4.6354258E-03;  9.9882479E+00;  4.7236064E-01; -1.0766627E+00;3; -3.6141742E-03;  0.0000000E+00;  1.1698075E-03;  0.0000000E+00;  0.0000000E+00;  0.0000000E+00;0;  3.9770447E-02;  7.5564278E+01;  0.0000000E+00; -6.5052119E-04;  1.0000000E+02;  0.0000000E+00;  9.4674545E+01;  3.3958841E-02;  0.0000000E+00;  5.8116037E-03;  0.0000000E+00;
  3.3510513E+00;  9.9999998E-03; -6.1710626E-01;343;  3.4871038E-02;  0.0000000E+00; -3.5172431E-03;  9.9885654E+00;  4.7067967E-01; -1.0476266E+00;3; -3.6958791E-03;  0.0000000E+00;  7.0959015E-04;  0.0000000E+00;  0.0000000E+00;  0.0000000E+00;0;  3.8680106E-02;  7.6019608E+01;  0.0000000E+00; -5.7977997E-04;  1.0000000E+02;  0.0000000E+00;  9.4785454E+01;  3.3017248E-02;  0.0000000E+00;  5.6628580E-03;  0.0000000E+00;
  3.3530135E+00;  9.9999998E-03; -4.1221356E-01;344;  3.6813550E-02;  0.0000000E+00; -2.3062215E-03;  9.9888716E+00;  4.6913323E-01; -1.0193554E+00;3; -2.6303206E-03;  0.0000000E+00;  1.8596174E-03;  0.0000000E+00;  0.0000000E+00;  0.0000000E+00;0;  3.7683979E-02;  7.6444283E+01;  0.0000000E+00;  3.3271557E-05;  1.0000000E+02;  0.0000000E+00;  9.4885513E+01;  3.2204077E-02;  0.0000000E+00;  5.4799039E-03;  0.0000000E+00;
  3.3560128E+00;  9.9999998E-03; -2.0674676E-01;345;  3.9560694E-02;  0.0000000E+00; -9.5765304E-04;  9.9890766E+00;  4.6800876E-01; -1.0002724E+00;3; -1.1365827E-03;  0.0000000E+00;  1.7537846E-04;  0.0000000E+00;  0.0000000E+00;  0.0000000E+00;0;  3.7050370E-02;  7.6750816E+01;  0.0000000E+00;  7.8060286E-05;  1.0000000E+02;  0.0000000E+00;  9.4965042E+01;  3.1671491E-02;  0.0000000E+00;  5.3788782E-03;  0.0000000E+00;
  3.6516416E+00;  9.9999998E-03; -1.0327539E+00;352;  4.7262829E-02;  0.0000000E+00; -8.2899593E-03;  9.9875555E+00;  2.4183105E-01; -1.1176521E+00;3; -1.7202282E-03;  0.0000000E+00;  5.9892116E-03;  0.0000000E+00;  0.0000000E+00;  0.0000000E+00;1;  4.8754521E-02;  2.9157941E+02;  0.0000000E+00; -4.0140677E-02;  1.0000000E+02;  0.0000000E+00;  9.3597458E+01;  4.0282883E-02;  0.0000000E+00;  8.4716398E-03;  0.0000000E+00;
  3.6481657E+00;  9.9999998E-03; -8.2667863E-01;353;  4.5469392E-02;  0.0000000E+00; -6.6045080E-03;  9.9878979E+00;  2.4120516E-01; -1.0870707E+00;3; -9.6419803E-04;  0.0000000E+00; -4.7701001E-03;  0.0000000E+00;  0.0000000E+00;  0.0000000E+00;1;  4.7540747E-02;  2.9282544E+02;  0.0000000E+00; -4.5958992E-02;  1.0000000E+02;  0.0000000E+00;  9.3689476E+01;  3.9564580E-02;  0.0000000E+00;  7.9761688E-03;  0.0000000E+00;
  3.6462898E+00;  9.9999998E-03; -6.2093729E-01;354;  4.5103166E-02;  0.0000000E+00; -5.0378600E-03;  9.9881468E+00;  2.4049684E-01; -1.0647691E+00;3; -2.6994962E-03;  0.0000000E+00; -1.3643488E-03;  0.0000000E+00;  0.0000000E+00;  0.0000000E+00;1;  4.6409573E-02;  2.9427267E+02;  0.0000000E+00; -3.3205416E-02;  1.0000000E+02;  0.0000000E+00;  9.3781960E+01;  3.8723886E-02;  0.0000000E+00;  7.6856874E-03;  0.0000000E+00;
  3.5871544E+00;  9.9999998E-03; -4.1527084E-01;355;  4.5544576E-02;  0.0000000E+00; -3.6543040E-03;  9.9884272E+00;  4.7962984E-01; -1.0422879E+00;3; -2.6417840E-03;  0.0000000E+00;  6.5426319E-04;  0.0000000E+00;  0.0000000E+00;  0.0000000E+00;0;  4.4078648E-02;  7.3921379E+01;  0.0000000E+00;  1.6412559E-03;  1.0000000E+02;  0.0000000E+00;  9.3871307E+01;  3.6789481E-02;  0.0000000E+00;  7.2891656E-03;  0.0000000E+00;
  3.5862515E+00;  9.9999998E-03; -2.0922709E-01;356;  4.6006754E-02;  0.0000000E+00; -2.0444987E-03;  9.9886408E+00;  4.7860223E-01; -1.0231144E+00;3; -2.1599266E-03;  0.0000000E+00; -8.9553556E-05;  0.0000000E+00;  0.0000000E+00;  0.0000000E+00;0;  4.3249138E-02;  7.4185913E+01;  0.0000000E+00;  4.1574085E-04;  1.0000000E+02;  0.0000000E+00;  9.3940887E+01;  3.6124174E-02;  0.0000000E+00;  7.1249646E-03;  0.0000000E+00;
  3.8903036E+00;  9.9999998E-03; -1.0368421E+00;363;  5.8256917E-02;  0.0000000E+00; -9.4157010E-03;  9.9878378E+00;  2.4545701E-01; -1.0856701E+00;3;  1.9264856E-04;  0.0000000E+00;  2.0449022E-03;  0.0000000E+00;  0.0000000E+00;  0.0000000E+00;1;  5.2395970E-02;  2.8501419E+02;  0.0000000E+00; -1.7238483E-02;  1.0000000E+02;  0.0000000E+00;  9.2948677E+01;  4.3160249E-02;  0.0000000E+00;  9.2357220E-03;  0.0000000E+00;
  3.8879468E+00;  9.9999998E-03; -8.3004212E-01;364;  5.7017881E-02;  0.0000000E+00; -7.6900693E-03;  9.9879322E+00;  2.4518429E-01; -1.0772507E+00;3; -7.0334913E-04;  0.0000000E+00; -2.3705715E-03;  0.0000000E+00;  0.0000000E+00;  0.0000000E+00;1;  5.2038148E-02;  2.8553418E+02;  0.0000000E+00; -3.8653202E-02;  1.0000000E+02;  0.0000000E+00;  9.2987717E+01;  4.2925317E-02;  0.0000000E+00;  9.1128303E-03;  0.0000000E+00;
  3.8863223E+00;  9.9999998E-03; -6.2342906E-01;365;  5.6862276E-02;  0.0000000E+00; -6.2443754E-03;  9.9879780E+00;  2.4485201E-01; -1.0732349E+00;3; -9.8542974E-04;  0.0000000E+00;  3.1579475E-04;  0.0000000E+00;  0.0000000E+00;  0.0000000E+00;1;  5.1770963E-02;  2.8618045E+02;  0.0000000E+00; -3.1868763E-02;  1.0000000E+02;  0.0000000E+00;  9.3030807E+01;  4.2594910E-02;  0.0000000E+00;  9.1760531E-03;  0.0000000E+00;
  3.8844161E+00;  9.9999998E-03; -4.1669801E-01;366;  5.6579605E-02;  0.0000000E+00; -4.3402845E-03;  9.9881096E+00;  2.4449992E-01; -1.0615083E+00;3; -1.1825553E-03;  0.0000000E+00; -9.4570809E-05;  0.0000000E+00;  0.0000000E+00;  0.0000000E+00;1;  5.1166002E-02;  2.8686392E+02;  0.0000000E+00; -1.5057771E-02;  1.0000000E+02;  0.0000000E+00;  9.3078697E+01;  4.2227600E-02;  0.0000000E+00;  8.9384010E-03;  0.0000000E+00;
  3.8814068E+00;  9.9999998E-03; -2.0939516E-01;367;  5.5505656E-02;  0.0000000E+00; -2.5303606E-03;  9.9881830E+00;  2.4420694E-01; -1.0550150E+00;3; -1.6917033E-03;  0.0000000E+00;  1.0456496E-04;  0.0000000E+00;  0.0000000E+00;  0.0000000E+00;1;  5.0785523E-02;  2.8743307E+02;  0.0000000E+00; -3.4006413E-03;  1.0000000E+02;  0.0000000E+00;  9.3117599E+01;  4.1895323E-02;  0.0000000E+00;  8.8902004E-03;  0.0000000E+00;
  4.1272588E+00;  9.9999998E-03; -1.0398083E+00;374;  6.7967713E-02;  0.0000000E+00; -1.0285190E-02;  9.9881382E+00;  2.4820128E-01; -1.0562568E+00;3;  7.3858921E-04;  0.0000000E+00; -1.4643684E-03;  0.0000000E+00;  0.0000000E+00;  0.0000000E+00;1;  5.5033155E-02;  2.8008044E+02;  0.0000000E+00; -5.6690876E-03;  1.0000000E+02;  0.0000000E+00;  9.2509949E+01;  4.5160446E-02;  0.0000000E+00;  9.8727094E-03;  0.0000000E+00;
  4.1269636E+00;  9.9999998E-03; -8.3236110E-01;375;  6.8121158E-02;  0.0000000E+00; -8.3850902E-03;  9.9881048E+00;  2.4819721E-01; -1.0592310E+00;3;  4.1860700E-04;  0.0000000E+00;  3.4513423E-04;  0.0000000E+00;  0.0000000E+00;  0.0000000E+00;1;  5.5108670E-02;  2.8008997E+02;  0.0000000E+00; -1.5473906E-02;  1.0000000E+02;  0.0000000E+00;  9.2510033E+01;  4.5281868E-02;  0.0000000E+00;  9.8268017E-03;  0.0000000E+00;
  4.1266036E+00;  9.9999998E-03; -6.2486571E-01;376;  6.8480015E-02;  0.0000000E+00; -6.5857004E-03;  9.9880733E+00;  2.4817491E-01; -1.0620464E+00;3;  2.8084978E-04;  0.0000000E+00;  1.3733774E-05;  0.0000000E+00;  0.0000000E+00;  0.0000000E+00;1;  5.5282470E-02;  2.8012466E+02;  0.0000000E+00; -1.2256954E-02;  1.0000000E+02;  0.0000000E+00;  9.2513924E+01;  4.5400731E-02;  0.0000000E+00;  9.8817395E-03;  0.0000000E+00;
  4.1255198E+00;  9.9999998E-03; -4.1691363E-01;377;  6.8374686E-02;  0.0000000E+00; -4.6590050E-03;  9.9880495E+00;  2.4813218E-01; -1.0641767E+00;3;  1.3301114E-05;  0.0000000E+00; -3.8333380E-04;  0.0000000E+00;  0.0000000E+00;  0.0000000E+00;1;  5.5379342E-02;  2.8019232E+02;  0.0000000E+00; -5.1227864E-03;  1.0000000E+02;  0.0000000E+00;  9.2523026E+01;  4.5501005E-02;  0.0000000E+00;  9.8783374E-03;  0.0000000E+00;
  4.1229811E+00;  9.9999998E-03; -2.0764565E-01;378;  6.7310177E-02;  0.0000000E+00; -2.2799175E-03;  9.9880352E+00;  2.4808002E-01; -1.0654678E+00;3; -6.1988953E-04;  0.0000000E+00;  1.8796555E-04;  0.0000000E+00;  0.0000000E+00;  0.0000000E+00;1;  5.5404570E-02;  2.8027441E+02;  0.0000000E+00; -9.8145811E-04;  1.0000000E+02;  0.0000000E+00;  9.2534790E+01;  4.5559417E-02;  0.0000000E+00;  9.8451525E-03;  0.0000000E+00;
  4.0109510E+00;  9.9999998E-03; -1.0395845E+00;549;  6.7827262E-02;  0.0000000E+00; -9.8166587E-03;  9.9880629E+00;  2.4800384E-01; -1.0639316E+00;3;  6.0829642E-04;  0.0000000E+00; -1.0361353E-04; -4.3160208E+08; -4.3160208E+08; -4.3160208E+08;1;  5.3520016E-02;  2.8042651E+02;  0.0000000E+00; -3.7429319E-03;  1.0000000E+02;  0.0000000E+00;  9.2541985E+01;  4.4088531E-02;  0.0000000E+00;  9.4314869E-03;  0.0000000E+00;
  4.0106201E+00;  9.9999998E-03; -8.3217472E-01;550;  6.7813158E-02;  0.0000000E+00; -8.1123179E-03;  9.9880457E+00;  2.4798091E-01; -1.0654758E+00;3; -2.6495876E-05;  0.0000000E+00; -1.5941693E-03; -4.3160208E+08; -4.3160208E+08; -4.3160208E+08;1;  5.3656809E-02;  2.8046655E+02;  0.0000000E+00; -1.0116421E-02;  1.0000000E+02;  0.0000000E+00;  9.2546059E+01;  4.4113550E-02;  0.0000000E+00;  9.5432568E-03;  0.0000000E+00;
  4.0102396E+00;  9.9999998E-03; -6.2475276E-01;553;  6.8140537E-02;  0.0000000E+00; -6.4634946E-03;  9.9880314E+00;  2.4794151E-01; -1.0667548E+00;3; -2.0569324E-04;  0.0000000E+00; -5.9898890E-04; -4.3160208E+08; -4.3160208E+08; -4.3160208E+08;1;  5.3683508E-02;  2.8053976E+02;  0.0000000E+00; -8.7327790E-03;  1.0000000E+02;  0.0000000E+00;  9.2551201E+01;  4.4098027E-02;  0.0000000E+00;  9.5854811E-03;  0.0000000E+00;
  4.0091453E+00;  9.9999998E-03; -4.1699022E-01;555;  6.8012625E-02;  0.0000000E+00; -4.6716374E-03;  9.9880524E+00;  2.4788406E-01; -1.0649071E+00;3; -4.9050397E-04;  0.0000000E+00;  7.2886806E-04; -4.3160208E+08; -4.3160208E+08; -4.3160208E+08;1;  5.3561043E-02;  2.8065073E+02;  0.0000000E+00; -3.9492552E-03;  1.0000000E+02;  0.0000000E+00;  9.2557243E+01;  4.4044837E-02;  0.0000000E+00;  9.5162047E-03;  0.0000000E+00;
  4.0066004E+00;  9.9999998E-03; -2.0779736E-01;557;  6.6906109E-02;  0.0000000E+00; -2.7646155E-03;  9.9880724E+00;  2.4780513E-01; -1.0631279E+00;3; -1.1446378E-03;  0.0000000E+00; -4.3386701E-04; -4.3160208E+08; -4.3160208E+08; -4.3160208E+08;1;  5.3439260E-02;  2.8077286E+02;  0.0000000E+00; -8.1717526E-04;  1.0000000E+02;  0.0000000E+00;  9.2576004E+01;  4.3964755E-02;  0.0000000E+00;  9.4745038E-03;  0.0000000E+00;
  3.7739363E+00;  9.9999998E-03; -1.0365920E+00;566;  5.7925291E-02;  0.0000000E+00; -8.7978076E-03;  9.9878111E+00;  2.4526373E-01; -1.0905885E+00;3; -6.1510713E-04;  0.0000000E+00; -2.6563129E-03; -4.3160208E+08; -4.3160208E+08; -4.3160208E+08;1;  5.0405167E-02;  2.8534534E+02;  0.0000000E+00; -1.2208020E-02;  1.0000000E+02;  0.0000000E+00;  9.2986870E+01;  4.1730542E-02;  0.0000000E+00;  8.6746253E-03;  0.0000000E+00;
  3.7715671E+00;  9.9999998E-03; -8.2985258E-01;568;  5.6581445E-02;  0.0000000E+00; -7.2714207E-03;  9.9878616E+00;  2.4498743E-01; -1.0861191E+00;3; -2.0822508E-03;  0.0000000E+00;  2.3373992E-03; -4.3160208E+08; -4.3160208E+08; -4.3160208E+08;1;  5.0029732E-02;  2.8588806E+02;  0.0000000E+00; -3.1492397E-02;  1.0000000E+02;  0.0000000E+00;  9.3020683E+01;  4.1339032E-02;  0.0000000E+00;  8.6906999E-03;  0.0000000E+00;
  3.7699625E+00;  9.9999998E-03; -6.2327904E-01;572;  5.6508500E-02;  0.0000000E+00; -5.6693740E-03;  9.9880428E+00;  2.4464321E-01; -1.0699488E+00;3; -2.0116949E-03;  0.0000000E+00; -1.1720529E-03; -4.3160208E+08; -4.3160208E+08; -4.3160208E+08;1;  4.9298741E-02;  2.8655609E+02;  0.0000000E+00; -2.7642360E-02;  1.0000000E+02;  0.0000000E+00;  9.3068604E+01;  4.0824447E-02;  0.0000000E+00;  8.4742932E-03;  0.0000000E+00;
  3.7680771E+00;  9.9999998E-03; -4.1670349E-01;574;  5.6342304E-02;  0.0000000E+00; -4.2896210E-03;  9.9881735E+00;  2.4429360E-01; -1.0583184E+00;3; -1.8724232E-03;  0.0000000E+00;  9.8762510E-04; -4.3160208E+08; -4.3160208E+08; -4.3160208E+08;1;  4.8685186E-02;  2.8725546E+02;  0.0000000E+00; -1.3669943E-02;  1.0000000E+02;  0.0000000E+00;  9.3110825E+01;  4.0269811E-02;  0.0000000E+00;  8.4153758E-03;  0.0000000E+00;
  3.7650867E+00;  9.9999998E-03; -2.0942907E-01;576;  5.5365454E-02;  0.0000000E+00; -2.7297193E-03;  9.9883051E+00;  2.4399294E-01; -1.0466099E+00;3; -2.1188392E-03;  0.0000000E+00; -3.7926747E-04; -4.3160208E+08; -4.3160208E+08; -4.3160208E+08;1;  4.8084840E-02;  2.8783453E+02;  0.0000000E+00; -3.1776235E-03;  1.0000000E+02;  0.0000000E+00;  9.3154259E+01;  3.9779641E-02;  0.0000000E+00;  8.3051994E-03;  0.0000000E+00;
  3.5352316E+00;  9.9999998E-03; -1.0326009E+00;582;  4.6934463E-02;  0.0000000E+00; -7.2241044E-03;  9.9877853E+00;  2.4173079E-01; -1.1031244E+00;3; -4.5743790E-03;  0.0000000E+00; -3.9295750E-03; -4.3160208E+08; -4.3160208E+08; -4.3160208E+08;1;  4.5532960E-02;  2.9176004E+02;  0.0000000E+00; -3.7019312E-02;  1.0000000E+02;  0.0000000E+00;  9.3621361E+01;  3.8280278E-02;  0.0000000E+00;  7.2526834E-03;  0.0000000E+00;
  3.5317631E+00;  9.9999998E-03; -8.2662004E-01;584;  4.5220293E-02;  0.0000000E+00; -5.7967855E-03;  9.9879494E+00;  2.4114718E-01; -1.0885398E+00;3; -3.7699009E-03;  0.0000000E+00;  5.6964057E-03; -4.3160208E+08; -4.3160208E+08; -4.3160208E+08;1;  4.4562679E-02;  2.9295255E+02;  0.0000000E+00; -4.3657165E-02;  1.0000000E+02;  0.0000000E+00;  9.3694832E+01;  3.7484292E-02;  0.0000000E+00;  7.0783882E-03;  0.0000000E+00;
  3.5299008E+00;  9.9999998E-03; -6.2091672E-01;586;  4.5071110E-02;  0.0000000E+00; -4.9351780E-03;  9.9881735E+00;  2.4047062E-01; -1.0684123E+00;3; -3.4475885E-03;  0.0000000E+00;  2.1693767E-03; -4.3160208E+08; -4.3160208E+08; -4.3160208E+08;1;  4.3841530E-02;  2.9432892E+02;  0.0000000E+00; -3.2655064E-02;  1.0000000E+02;  0.0000000E+00;  9.3784958E+01;  3.6560267E-02;  0.0000000E+00;  7.2812624E-03;  0.0000000E+00;
  4.2459388E+00;  9.9999998E-03; -1.0419550E+00;544;  7.7126950E-02;  0.0000000E+00; -1.0590242E-02;  9.9882460E+00;  2.5054640E-01; -1.0460254E+00;3;  5.8323261E-04;  0.0000000E+00; -1.1723780E-03; -4.3160208E+08; -4.3160208E+08; -4.3160208E+08;1;  5.6045994E-02;  2.7587888E+02;  0.0000000E+00;  9.1176125E-04;  1.0000000E+02;  0.0000000E+00;  9.2169785E+01;  4.5976169E-02;  0.0000000E+00;  1.0069823E-02;  0.0000000E+00;
  4.2473693E+00;  9.9999998E-03; -8.3406830E-01;545;  7.7966571E-02;  0.0000000E+00; -8.6429017E-03;  9.9881887E+00;  2.5060570E-01; -1.0511116E+00;3;  4.7522818E-04;  0.0000000E+00;  2.9866591E-05; -4.3160208E+08; -4.3160208E+08; -4.3160208E+08;1;  5.6293748E-02;  2.7576971E+02;  0.0000000E+00; -1.7523598E-03;  1.0000000E+02;  0.0000000E+00;  9.2161873E+01;  4.6208825E-02;  0.0000000E+00;  1.0084924E-02;  0.0000000E+00;
  4.2488556E+00;  9.9999998E-03; -6.2600684E-01;538;  7.8872710E-02;  0.0000000E+00; -6.7708585E-03;  9.9881191E+00;  2.5068012E-01; -1.0573115E+00;3;  4.2721845E-04;  0.0000000E+00;  2.0518345E-04; -4.3160208E+08; -4.3160208E+08; -4.3160208E+08;1;  5.6654889E-02;  2.7562662E+02;  0.0000000E+00; -1.9745345E-03;  1.0000000E+02;  0.0000000E+00;  9.2153091E+01;  4.6465706E-02;  0.0000000E+00;  1.0189184E-02;  0.0000000E+00;
  4.2502365E+00;  9.9999998E-03; -4.1719973E-01;539;  7.9587348E-02;  0.0000000E+00; -4.8429188E-03;  9.9880581E+00;  2.5074986E-01; -1.0627162E+00;3;  2.4949689E-04;  0.0000000E+00; -3.1423118E-04; -4.3160208E+08; -4.3160208E+08; -4.3160208E+08;1;  5.6975190E-02;  2.7548532E+02;  0.0000000E+00; -9.2015805E-04;  1.0000000E+02;  0.0000000E+00;  9.2148376E+01;  4.6720486E-02;  0.0000000E+00;  1.0254703E-02;  0.0000000E+00;
  4.2506585E+00;  9.9999998E-03; -2.0616883E-01;389;  7.9698063E-02;  0.0000000E+00; -2.0405680E-03;  9.9880295E+00;  2.5079194E-01; -1.0652606E+00;3; -1.8697217E-04;  0.0000000E+00; -1.4560140E-04;  0.0000000E+00;  0.0000000E+00;  0.0000000E+00;1;  5.7114162E-02;  2.7537805E+02;  0.0000000E+00;  4.1290219E-05;  1.0000000E+02;  0.0000000E+00;  9.2153091E+01;  4.6923365E-02;  0.0000000E+00;  1.0190796E-02;  0.0000000E+00;
  4.3622179E+00;  9.9999998E-03; -1.0421450E+00;385;  7.7198714E-02;  0.0000000E+00; -1.0813721E-02;  9.9882679E+00;  2.5075927E-01; -1.0436792E+00;3;  3.7864159E-04;  0.0000000E+00; -1.4505478E-03;  0.0000000E+00;  0.0000000E+00;  0.0000000E+00;1;  5.7141721E-02;  2.7550427E+02;  0.0000000E+00; -5.2453820E-03;  1.0000000E+02;  0.0000000E+00;  9.2138618E+01;  4.6912145E-02;  0.0000000E+00;  1.0229577E-02;  0.0000000E+00;
  4.3636703E+00;  9.9999998E-03; -8.3421457E-01;386;  7.8078710E-02;  0.0000000E+00; -8.8390969E-03;  9.9882116E+00;  2.5081378E-01; -1.0487127E+00;3;  3.2690869E-04;  0.0000000E+00; -1.0749317E-03;  0.0000000E+00;  0.0000000E+00;  0.0000000E+00;1;  5.7425730E-02;  2.7540387E+02;  0.0000000E+00; -5.1874192E-03;  1.0000000E+02;  0.0000000E+00;  9.2131958E+01;  4.7129095E-02;  0.0000000E+00;  1.0296635E-02;  0.0000000E+00;
  4.3651776E+00;  9.9999998E-03; -6.2609392E-01;387;  7.9036728E-02;  0.0000000E+00; -6.8985145E-03;  9.9881392E+00;  2.5088599E-01; -1.0551248E+00;3;  3.1911922E-04;  0.0000000E+00; -1.7562463E-04;  0.0000000E+00;  0.0000000E+00;  0.0000000E+00;1;  5.7795506E-02;  2.7526505E+02;  0.0000000E+00; -2.8411995E-03;  1.0000000E+02;  0.0000000E+00;  9.2123505E+01;  4.7381207E-02;  0.0000000E+00;  1.0414300E-02;  0.0000000E+00;
  4.3666182E+00;  9.9999998E-03; -4.1716158E-01;388;  7.9869218E-02;  0.0000000E+00; -4.8667584E-03;  9.9880743E+00;  2.5095308E-01; -1.0609007E+00;3;  2.2219450E-04;  0.0000000E+00; -7.3730713E-04;  0.0000000E+00;  0.0000000E+00;  0.0000000E+00;1;  5.8132347E-02;  2.7512469E+02;  0.0000000E+00; -8.1152742E-04;  1.0000000E+02;  0.0000000E+00;  9.2120590E+01;  4.7642417E-02;  0.0000000E+00;  1.0489929E-02;  0.0000000E+00;
  4.4946542E+00;  9.9999998E-03; -2.0688465E-01;400;  9.2838772E-02;  0.0000000E+00; -1.3116068E-03;  9.9880629E+00;  2.5307706E-01; -1.0616479E+00;3;  2.0192396E-04;  0.0000000E+00;  3.9948622E-04;  0.0000000E+00;  0.0000000E+00;  0.0000000E+00;1;  5.9162296E-02;  2.7136664E+02;  0.0000000E+00;  1.3199569E-04;  1.0000000E+02;  0.0000000E+00;  9.1835991E+01;  4.8603784E-02;  0.0000000E+00;  1.0558512E-02;  0.0000000E+00;
  4.5987520E+00;  9.9999998E-03; -8.3587557E-01;397;  8.7701477E-02;  0.0000000E+00; -9.1667101E-03;  9.9881258E+00;  2.5326341E-01; -1.0559497E+00;3; -1.0256509E-04;  0.0000000E+00; -2.0965970E-04;  0.0000000E+00;  0.0000000E+00;  0.0000000E+00;1;  5.9342690E-02;  2.7108618E+02;  0.0000000E+00;  4.4730594E-03;  1.0000000E+02;  0.0000000E+00;  9.1796288E+01;  4.8687097E-02;  0.0000000E+00;  1.0655591E-02;  0.0000000E+00;
  4.6021724E+00;  9.9999998E-03; -6.2761372E-01;398;  8.9046925E-02;  0.0000000E+00; -7.1331379E-03;  9.9881020E+00;  2.5321296E-01; -1.0580664E+00;3; -1.8975747E-04;  0.0000000E+00;  2.6474430E-05;  0.0000000E+00;  0.0000000E+00;  0.0000000E+00;1;  5.9470139E-02;  2.7116794E+02;  0.0000000E+00;  1.2884515E-03;  1.0000000E+02;  0.0000000E+00;  9.1803528E+01;  4.8751503E-02;  0.0000000E+00;  1.0718638E-02;  0.0000000E+00;
  4.4901366E+00;  9.9999998E-03; -4.1837603E-01;399;  9.0654820E-02;  0.0000000E+00; -5.0630588E-03;  9.9880648E+00;  2.5306529E-01; -1.0614959E+00;3;  3.5309495E-05;  0.0000000E+00; -1.3252109E-03;  0.0000000E+00;  0.0000000E+00;  0.0000000E+00;1;  5.9141852E-02;  2.7140030E+02;  0.0000000E+00;  3.6328871E-05;  1.0000000E+02;  0.0000000E+00;  9.1832718E+01;  4.8425645E-02;  0.0000000E+00;  1.0716207E-02;  0.0000000E+00;
  4.5964994E+00;  9.9999998E-03; -1.0439951E+00;396;  8.7340549E-02;  0.0000000E+00; -1.1222569E-02;  9.9881353E+00;  2.5332645E-01; -1.0551039E+00;3;  8.8900927E-04;  0.0000000E+00; -1.5454349E-03;  0.0000000E+00;  0.0000000E+00;  0.0000000E+00;1;  5.9299551E-02;  2.7097440E+02;  0.0000000E+00;  1.2089635E-02;  1.0000000E+02;  0.0000000E+00;  9.1788406E+01;  4.8647426E-02;  0.0000000E+00;  1.0652124E-02;  0.0000000E+00;
  4.8371429E+00;  9.9999998E-03; -1.0449857E+00;407;  9.8946266E-02;  0.0000000E+00; -1.1341318E-02;  9.9878588E+00;  2.5518006E-01; -1.0795346E+00;3;  1.4053052E-03;  0.0000000E+00; -1.4073048E-03;  0.0000000E+00;  0.0000000E+00;  0.0000000E+00;1;  6.0651626E-02;  2.6775815E+02;  0.0000000E+00;  3.3908308E-02;  1.0000000E+02;  0.0000000E+00;  9.1542244E+01;  4.9775161E-02;  0.0000000E+00;  1.0876467E-02;  0.0000000E+00;
  4.8381138E+00;  9.9999998E-03; -8.3697397E-01;408;  9.8584101E-02;  0.0000000E+00; -9.3133338E-03;  9.9879103E+00;  2.5495502E-01; -1.0749235E+00;3; -7.2656687E-05;  0.0000000E+00; -5.2028736E-05;  0.0000000E+00;  0.0000000E+00;  0.0000000E+00;1;  6.0372353E-02;  2.6815289E+02;  0.0000000E+00;  1.1273431E-02;  1.0000000E+02;  0.0000000E+00;  9.1570618E+01;  4.9533874E-02;  0.0000000E+00;  1.0838481E-02;  0.0000000E+00;
  4.8411312E+00;  9.9999998E-03; -6.2907040E-01;409;  9.9866591E-02;  0.0000000E+00; -7.2679315E-03;  9.9879770E+00;  2.5468856E-01; -1.0689868E+00;3; -1.2461979E-04;  0.0000000E+00; -3.0323540E-04;  0.0000000E+00;  0.0000000E+00;  0.0000000E+00;1;  6.0025893E-02;  2.6861417E+02;  0.0000000E+00;  5.7415739E-03;  1.0000000E+02;  0.0000000E+00;  9.1604607E+01;  4.9255364E-02;  0.0000000E+00;  1.0770531E-02;  0.0000000E+00;
  4.8460865E+00;  9.9999998E-03; -4.2073956E-01;410;  1.0231730E-01;  0.0000000E+00; -5.1814835E-03;  9.9880371E+00;  2.5443745E-01; -1.0636321E+00;3;  3.8478355E-04;  0.0000000E+00;  1.3661172E-04;  0.0000000E+00;  0.0000000E+00;  0.0000000E+00;1;  5.9703555E-02;  2.6905600E+02;  0.0000000E+00;  3.5084009E-03;  1.0000000E+02;  0.0000000E+00;  9.1636040E+01;  4.8933286E-02;  0.0000000E+00;  1.0770270E-02;  0.0000000E+00;
  4.8524809E+00;  9.9999998E-03; -2.1111013E-01;411;  1.0600583E-01;  0.0000000E+00; -2.3600040E-03;  9.9881001E+00;  2.5426471E-01; -1.0580652E+00;3;  1.6524965E-03;  0.0000000E+00;  8.9843408E-04;  0.0000000E+00;  0.0000000E+00;  0.0000000E+00;1;  5.9358902E-02;  2.6938104E+02;  0.0000000E+00;  8.7707397E-04;  1.0000000E+02;  0.0000000E+00;  9.1651031E+01;  4.8650496E-02;  0.0000000E+00;  1.0708405E-02;  0.0000000E+00;
  5.0999808E+00;  9.9999998E-03; -1.0443000E+00;418;  1.1497478E-01;  0.0000000E+00; -1.0945332E-02;  9.9876633E+00;  2.5485519E-01; -1.0968506E+00;3;  3.8800304E-04;  0.0000000E+00; -7.9484883E-04;  0.0000000E+00;  0.0000000E+00;  0.0000000E+00;1;  5.9452679E-02;  2.6831982E+02;  0.0000000E+00; -2.1512148E-03;  1.0000000E+02;  0.0000000E+00;  9.1581863E+01;  4.8801128E-02;  0.0000000E+00;  1.0651551E-02;  0.0000000E+00;
  5.0959535E+00;  9.9999998E-03; -8.3658838E-01;419;  1.1490330E-01;  0.0000000E+00; -9.0501178E-03;  9.9877443E+00;  2.5454021E-01; -1.0896442E+00;3;  1.1442368E-03;  0.0000000E+00;  6.1214878E-04;  0.0000000E+00;  0.0000000E+00;  0.0000000E+00;1;  5.9077870E-02;  2.6887323E+02;  0.0000000E+00; -7.6937722E-05;  1.0000000E+02;  0.0000000E+00;  9.1620857E+01;  4.8450433E-02;  0.0000000E+00;  1.0627438E-02;  0.0000000E+00;
  5.0914707E+00;  9.9999998E-03; -6.2927073E-01;420;  1.1435319E-01;  0.0000000E+00; -7.1215359E-03;  9.9878931E+00;  2.5415075E-01; -1.0763966E+00;3;  1.3288454E-03;  0.0000000E+00; -9.2392357E-04;  0.0000000E+00;  0.0000000E+00;  0.0000000E+00;1;  5.8444787E-02;  2.6955713E+02;  0.0000000E+00; -1.0692094E-02;  1.0000000E+02;  0.0000000E+00;  9.1670845E+01;  4.7983415E-02;  0.0000000E+00;  1.0461370E-02;  0.0000000E+00;
  5.0897379E+00;  9.9999998E-03; -4.2212617E-01;421;  1.1424881E-01;  0.0000000E+00; -5.2527837E-03;  9.9880285E+00;  2.5376114E-01; -1.0643673E+00;3;  1.3215728E-03;  0.0000000E+00;  3.2967135E-05;  0.0000000E+00;  0.0000000E+00;  0.0000000E+00;1;  5.7779130E-02;  2.7025473E+02;  0.0000000E+00; -3.8080821E-03;  1.0000000E+02;  0.0000000E+00;  9.1716911E+01;  4.7384899E-02;  0.0000000E+00;  1.0394230E-02;  0.0000000E+00;
  5.0895853E+00;  9.9999998E-03; -2.1540746E-01;422;  1.1508696E-01;  0.0000000E+00; -3.6882360E-03;  9.9881449E+00;  2.5346294E-01; -1.0540338E+00;3;  1.8426548E-03;  0.0000000E+00;  1.0616089E-03;  0.0000000E+00;  0.0000000E+00;  0.0000000E+00;1;  5.7220768E-02;  2.7083331E+02;  0.0000000E+00; -3.2401156E-05;  1.0000000E+02;  0.0000000E+00;  9.1738586E+01;  4.6818886E-02;  0.0000000E+00;  1.0401882E-02;  0.0000000E+00;
  5.3792033E+00;  9.9999998E-03; -1.0415579E+00;429;  1.3695474E-01;  0.0000000E+00; -9.7913928E-03;  9.9876947E+00;  2.5174341E-01; -1.0940179E+00;3;  4.9662488E-03;  0.0000000E+00;  7.0364488E-04;  0.0000000E+00;  0.0000000E+00;  0.0000000E+00;1;  5.4317273E-02;  2.7378864E+02;  0.0000000E+00; -2.6010883E-01;  1.0000000E+02;  0.0000000E+00;  9.1986557E+01;  4.4670954E-02;  0.0000000E+00;  9.6463179E-03;  0.0000000E+00;
  5.3685222E+00;  9.9999998E-03; -8.3387369E-01;430;  1.3042514E-01;  0.0000000E+00; -7.9674218E-03;  9.9879417E+00;  2.5103489E-01; -1.0720268E+00;3;  2.5675318E-03;  0.0000000E+00;  6.3344452E-04;  0.0000000E+00;  0.0000000E+00;  0.0000000E+00;1;  5.3462893E-02;  2.7506287E+02;  0.0000000E+00;  1.8797368E-01;  1.0000000E+02;  0.0000000E+00;  9.2081039E+01;  4.3883108E-02;  0.0000000E+00;  9.5797842E-03;  0.0000000E+00;
  5.3590646E+00;  9.9999998E-03; -6.2692976E-01;431;  1.3460203E-01;  0.0000000E+00; -6.1627985E-03;  9.9880695E+00;  2.5053260E-01; -1.0606869E+00;3;  5.8877002E-03;  0.0000000E+00;  7.2002935E-04;  0.0000000E+00;  0.0000000E+00;  0.0000000E+00;1;  5.3093113E-02;  2.7597876E+02;  0.0000000E+00; -1.3635627E-05;  1.0000000E+02;  0.0000000E+00;  9.2145782E+01;  4.3627378E-02;  0.0000000E+00;  9.4657354E-03;  0.0000000E+00;
  5.3494601E+00;  9.9999998E-03; -4.2026109E-01;432;  1.3177451E-01;  0.0000000E+00; -4.4414955E-03;  9.9882603E+00;  2.5007877E-01; -1.0437300E+00;3;  4.0252488E-03;  0.0000000E+00;  2.2245185E-05;  0.0000000E+00;  0.0000000E+00;  0.0000000E+00;1;  5.2447841E-02;  2.7680469E+02;  0.0000000E+00; -6.3473321E-02;  1.0000000E+02;  0.0000000E+00;  9.2207077E+01;  4.3038987E-02;  0.0000000E+00;  9.4088558E-03;  0.0000000E+00;
  5.3360753E+00;  9.9999998E-03; -2.1429875E-01;433;  1.2553662E-01;  0.0000000E+00; -2.7250180E-03;  9.9883833E+00;  2.4981605E-01; -1.0328144E+00;3;  1.3031241E-03;  0.0000000E+00;  1.4658849E-03;  0.0000000E+00;  0.0000000E+00;  0.0000000E+00;1;  5.2164234E-02;  2.7730923E+02;  0.0000000E+00; -2.9244505E-02;  1.0000000E+02;  0.0000000E+00;  9.2234932E+01;  4.2765740E-02;  0.0000000E+00;  9.3984921E-03;  0.0000000E+00;
  5.5836010E+00;  9.9999998E-03; -1.0369052E+00;440;  1.3688453E-01;  0.0000000E+00; -8.4720924E-03;  9.9883099E+00;  2.4510257E-01; -1.0393240E+00;3;  4.8357602E-03;  0.0000000E+00;  2.9134550E-03;  0.0000000E+00;  0.0000000E+00;  0.0000000E+00;1;  4.6534166E-02;  2.8609137E+02;  0.0000000E+00; -2.3553994E-01;  1.0000000E+02;  0.0000000E+00;  9.2874931E+01;  3.8203951E-02;  0.0000000E+00;  8.3302129E-03;  0.0000000E+00;
  5.6033678E+00;  9.9999998E-03; -8.2980120E-01;441;  1.4367814E-01;  0.0000000E+00; -6.6404282E-03;  9.9880962E+00;  2.4546549E-01; -1.0582947E+00;3;  1.1077958E-02;  0.0000000E+00;  7.5635421E-03;  0.0000000E+00;  0.0000000E+00;  0.0000000E+00;1;  4.6692908E-02;  2.8540332E+02;  0.0000000E+00;  1.1268535E-01;  1.0000000E+02;  0.0000000E+00;  9.2819305E+01;  3.8397610E-02;  0.0000000E+00;  8.2952967E-03;  0.0000000E+00;
  5.6057034E+00;  9.9999998E-03; -6.2276858E-01;442;  1.4981377E-01;  0.0000000E+00; -5.0910511E-03;  9.9881582E+00;  2.4485339E-01; -1.0527835E+00;3;  7.9714023E-03;  0.0000000E+00;  1.8155952E-03;  0.0000000E+00;  0.0000000E+00;  0.0000000E+00;1;  4.6543218E-02;  2.8652426E+02;  0.0000000E+00; -1.0215255E-01;  1.0000000E+02;  0.0000000E+00;  9.2919273E+01;  3.8166080E-02;  0.0000000E+00;  8.3771395E-03;  0.0000000E+00;
  5.6204953E+00;  9.9999998E-03; -4.1636541E-01;443;  1.5025105E-01;  0.0000000E+00; -2.6978939E-03;  9.9886036E+00;  2.4427468E-01; -1.0131986E+00;3;  5.4458566E-03;  0.0000000E+00;  1.4918607E-03;  0.0000000E+00;  0.0000000E+00;  0.0000000E+00;1;  4.4337302E-02;  2.8765073E+02;  0.0000000E+00; -1.8633127E-02;  1.0000000E+02;  0.0000000E+00;  9.3002678E+01;  3.6514781E-02;  0.0000000E+00;  7.8225220E-03;  0.0000000E+00;
  5.6089849E+00;  9.9999998E-03; -2.0885406E-01;444;  1.4380500E-01;  0.0000000E+00; -1.0141903E-03;  9.9888773E+00;  2.4353227E-01; -9.8887563E-01;3;  7.0671638E-04;  0.0000000E+00;  9.2746492E-04;  0.0000000E+00;  0.0000000E+00;  0.0000000E+00;1;  4.3591261E-02;  2.8907199E+02;  0.0000000E+00; -6.5865062E-02;  1.0000000E+02;  0.0000000E+00;  9.3114769E+01;  3.5737302E-02;  0.0000000E+00;  7.8539597E-03;  0.0000000E+00;
  5.7521834E+00;  9.9999998E-03; -1.0314019E+00;451;  1.4461176E-01;  0.0000000E+00; -7.4396101E-03;  9.9883394E+00;  4.7579873E-01; -1.0366720E+00;3;  4.7640358E-03;  0.0000000E+00;  3.1651747E-03;  0.0000000E+00;  0.0000000E+00;  0.0000000E+00;0;  4.1230883E-02;  7.5101326E+01;  0.0000000E+00; -1.1911641E-02;  1.0000000E+02;  0.0000000E+00;  9.3885818E+01;  3.3827998E-02;  0.0000000E+00;  7.4028862E-03;  0.0000000E+00;
  5.7734556E+00;  9.9999998E-03; -8.2524437E-01;452;  1.4876653E-01;  0.0000000E+00; -5.8199535E-03;  9.9881172E+00;  4.7878176E-01; -1.0564376E+00;3;  5.4204063E-03;  0.0000000E+00;  1.5775621E-03;  0.0000000E+00;  0.0000000E+00;  0.0000000E+00;0;  4.1322771E-02;  7.4332001E+01;  0.0000000E+00;  1.6903785E-03;  1.0000000E+02;  0.0000000E+00;  9.3676422E+01;  3.3796784E-02;  0.0000000E+00;  7.5259870E-03;  0.0000000E+00;
  5.7748322E+00;  9.9999998E-03; -6.1816609E-01;453;  1.5134948E-01;  0.0000000E+00; -4.2038453E-03;  9.9882355E+00;  4.7687918E-01; -1.0459453E+00;3;  5.5913036E-03;  0.0000000E+00;  7.6993287E-04;  0.0000000E+00;  0.0000000E+00;  0.0000000E+00;0;  4.0918894E-02;  7.4808990E+01;  0.0000000E+00;  2.6236333E-02;  1.0000000E+02;  0.0000000E+00;  9.3823814E+01;  3.3477325E-02;  0.0000000E+00;  7.4415696E-03;  0.0000000E+00;
  5.7811637E+00;  9.9999998E-03; -4.1216448E-01;454;  1.5305261E-01;  0.0000000E+00; -2.6073875E-03;  9.9885139E+00;  4.7577709E-01; -1.0211453E+00;3;  6.5737888E-03;  0.0000000E+00;  1.0836145E-03;  0.0000000E+00;  0.0000000E+00;  0.0000000E+00;0;  3.9701063E-02;  7.5101059E+01;  0.0000000E+00;  3.3753701E-02;  1.0000000E+02;  0.0000000E+00;  9.3899269E+01;  3.2508627E-02;  0.0000000E+00;  7.1924361E-03;  0.0000000E+00;
  5.7780237E+00;  9.9999998E-03; -2.0623155E-01;455;  1.4793287E-01;  0.0000000E+00; -5.0439860E-04;  9.9890690E+00;  4.7401243E-01; -9.7181028E-01;3;  2.3647351E-03;  0.0000000E+00;  3.0200533E-03;  0.0000000E+00;  0.0000000E+00;  0.0000000E+00;0;  3.7883036E-02;  7.5573174E+01;  0.0000000E+00;  1.7993443E-02;  1.0000000E+02;  0.0000000E+00;  9.4017593E+01;  3.0997425E-02;  0.0000000E+00;  6.8856101E-03;  0.0000000E+00;
  4.9831371E+00;  9.9999998E-03; -1.0445951E+00;494;  1.1388633E-01;  0.0000000E+00; -1.1209535E-02;  9.9876699E+00;  2.5520280E-01; -1.0962361E+00;3; -3.6640986E-04;  0.0000000E+00; -1.1282013E-03; -4.3160208E+08; -4.3160208E+08; -4.3160208E+08;1;  6.0669877E-02;  2.6771823E+02;  0.0000000E+00;  4.9382262E-04;  1.0000000E+02;  0.0000000E+00;  9.1537582E+01;  4.9822286E-02;  0.0000000E+00;  1.0847593E-02;  0.0000000E+00;
  4.7205610E+00;  9.9999998E-03; -1.0450429E+00;496;  9.8232165E-02;  0.0000000E+00; -1.1350228E-02;  9.9879580E+00;  2.5514454E-01; -1.0707437E+00;3;  6.1690208E-04;  0.0000000E+00; -1.5734478E-03; -4.3160208E+08; -4.3160208E+08; -4.3160208E+08;1;  6.0388282E-02;  2.6782263E+02;  0.0000000E+00;  5.1568490E-02;  1.0000000E+02;  0.0000000E+00;  9.1547462E+01;  4.9555849E-02;  0.0000000E+00;  1.0832434E-02;  0.0000000E+00;
  4.7215490E+00;  9.9999998E-03; -8.3698344E-01;498;  9.8023444E-02;  0.0000000E+00; -9.3038427E-03;  9.9879847E+00;  2.5494298E-01; -1.0683581E+00;3; -2.7560352E-04;  0.0000000E+00; -2.4477884E-04; -4.3160208E+08; -4.3160208E+08; -4.3160208E+08;1;  6.0238574E-02;  2.6817380E+02;  0.0000000E+00;  1.7683484E-02;  1.0000000E+02;  0.0000000E+00;  9.1573212E+01;  4.9424671E-02;  0.0000000E+00;  1.0813903E-02;  0.0000000E+00;
  4.9790711E+00;  9.9999998E-03; -8.3682680E-01;500;  1.1366738E-01;  0.0000000E+00; -9.2341807E-03;  9.9877548E+00;  2.5487673E-01; -1.0887119E+00;3;  1.1500080E-04;  0.0000000E+00;  5.3863553E-04; -4.3160208E+08; -4.3160208E+08; -4.3160208E+08;1;  6.0264144E-02;  2.6828830E+02;  0.0000000E+00; -7.0943236E-03;  1.0000000E+02;  0.0000000E+00;  9.1577835E+01;  4.9477819E-02;  0.0000000E+00;  1.0786325E-02;  0.0000000E+00;
  4.7245598E+00;  9.9999998E-03; -6.2901300E-01;502;  9.9290051E-02;  0.0000000E+00; -7.2423918E-03;  9.9880142E+00;  2.5470921E-01; -1.0657593E+00;3; -3.2107061E-04;  0.0000000E+00; -7.1700389E-04; -4.3160208E+08; -4.3160208E+08; -4.3160208E+08;1;  6.0088012E-02;  2.6857361E+02;  0.0000000E+00;  7.5259139E-03;  1.0000000E+02;  0.0000000E+00;  9.1604187E+01;  4.9296461E-02;  0.0000000E+00;  1.0791551E-02;  0.0000000E+00;
  4.9746861E+00;  9.9999998E-03; -6.2941837E-01;504;  1.1327770E-01;  0.0000000E+00; -7.3609543E-03;  9.9878654E+00;  2.5447506E-01; -1.0788560E+00;3;  3.6487286E-04;  0.0000000E+00; -4.4490883E-04; -4.3160208E+08; -4.3160208E+08; -4.3160208E+08;1;  5.9771929E-02;  2.6898981E+02;  0.0000000E+00; -1.7098440E-02;  1.0000000E+02;  0.0000000E+00;  9.1629303E+01;  4.9025137E-02;  0.0000000E+00;  1.0746791E-02;  0.0000000E+00;
  4.7295179E+00;  9.9999998E-03; -4.2050344E-01;506;  1.0166922E-01;  0.0000000E+00; -5.3097266E-03;  9.9880228E+00;  2.5449306E-01; -1.0649612E+00;3; -3.3469405E-05;  0.0000000E+00; -1.1882265E-03; -4.3160208E+08; -4.3160208E+08; -4.3160208E+08;1;  6.0045887E-02;  2.6893808E+02;  0.0000000E+00;  4.1455240E-03;  1.0000000E+02;  0.0000000E+00;  9.1636215E+01;  4.9161714E-02;  0.0000000E+00;  1.0884174E-02;  0.0000000E+00;
  4.7359476E+00;  9.9999998E-03; -2.1059135E-01;508;  1.0538971E-01;  0.0000000E+00; -1.4556085E-03;  9.9880819E+00;  2.5436121E-01; -1.0597104E+00;3;  1.1056107E-03;  0.0000000E+00;  9.9107285E-04; -4.3160208E+08; -4.3160208E+08; -4.3160208E+08;1;  5.9743810E-02;  2.6918701E+02;  0.0000000E+00;  1.0513589E-03;  1.0000000E+02;  0.0000000E+00;  9.1646988E+01;  4.9062043E-02;  0.0000000E+00;  1.0681766E-02;  0.0000000E+00;
  4.9732652E+00;  9.9999998E-03; -4.2206660E-01;511;  1.1373870E-01;  0.0000000E+00; -5.4719313E-03;  9.9879827E+00;  2.5408477E-01; -1.0684694E+00;3;  7.8302051E-04;  0.0000000E+00; -6.3919707E-04; -4.3160208E+08; -4.3160208E+08; -4.3160208E+08;1;  5.9190530E-02;  2.6967719E+02;  0.0000000E+00; -6.4418814E-03;  1.0000000E+02;  0.0000000E+00;  9.1678879E+01;  4.8494801E-02;  0.0000000E+00;  1.0695729E-02;  0.0000000E+00;
  4.9733710E+00;  9.9999998E-03; -2.1500850E-01;513;  1.1509543E-01;  0.0000000E+00; -2.8823365E-03;  9.9881001E+00;  2.5380275E-01; -1.0580295E+00;3;  1.9149083E-03;  0.0000000E+00;  1.4758236E-03; -4.3160208E+08; -4.3160208E+08; -4.3160208E+08;1;  5.8605123E-02;  2.7022937E+02;  0.0000000E+00; -5.7553657E-04;  1.0000000E+02;  0.0000000E+00;  9.1696983E+01;  4.8022412E-02;  0.0000000E+00;  1.0582712E-02;  0.0000000E+00;
  4.4799776E+00;  9.9999998E-03; -1.0438856E+00;516;  8.6735174E-02;  0.0000000E+00; -1.1058969E-02;  9.9882145E+00;  2.5312936E-01; -1.0482063E+00;3;  3.1690495E-04;  0.0000000E+00; -1.5689525E-03; -4.3160208E+08; -4.3160208E+08; -4.3160208E+08;1;  5.8329523E-02;  2.7132196E+02;  0.0000000E+00;  2.9512428E-02;  1.0000000E+02;  0.0000000E+00;  9.1815620E+01;  4.7865771E-02;  0.0000000E+00;  1.0463752E-02;  0.0000000E+00;
  4.4823451E+00;  9.9999998E-03; -8.3576894E-01;518;  8.7445311E-02;  0.0000000E+00; -9.0271337E-03;  9.9881773E+00;  2.5309294E-01; -1.0514891E+00;3;  6.4304520E-05;  0.0000000E+00; -7.4208115E-04; -4.3160208E+08; -4.3160208E+08; -4.3160208E+08;1;  5.8518715E-02;  2.7138266E+02;  0.0000000E+00;  1.1515817E-02;  1.0000000E+02;  0.0000000E+00;  9.1820503E+01;  4.8026029E-02;  0.0000000E+00;  1.0492684E-02;  0.0000000E+00;
  4.4857559E+00;  9.9999998E-03; -6.2751210E-01;520;  8.8793375E-02;  0.0000000E+00; -6.9834567E-03;  9.9881277E+00;  2.5307530E-01; -1.0558836E+00;3;  5.7943838E-05;  0.0000000E+00; -2.1783031E-04; -4.3160208E+08; -4.3160208E+08; -4.3160208E+08;1;  5.8780283E-02;  2.7140781E+02;  0.0000000E+00;  2.7422733E-03;  1.0000000E+02;  0.0000000E+00;  9.1823822E+01;  4.8219182E-02;  0.0000000E+00;  1.0561103E-02;  0.0000000E+00;
  4.6066279E+00;  9.9999998E-03; -4.1849330E-01;523;  9.1084354E-02;  0.0000000E+00; -5.0585708E-03;  9.9880743E+00;  2.5317544E-01; -1.0605000E+00;3; -5.4031130E-05;  0.0000000E+00; -6.1602308E-04; -4.3160208E+08; -4.3160208E+08; -4.3160208E+08;1;  5.9621118E-02;  2.7122006E+02;  0.0000000E+00; -6.6788234E-05;  1.0000000E+02;  0.0000000E+00;  9.1813812E+01;  4.8821006E-02;  0.0000000E+00;  1.0800111E-02;  0.0000000E+00;
  4.6113048E+00;  9.9999998E-03; -2.0705421E-01;525;  9.3634367E-02;  0.0000000E+00; -1.5604569E-03;  9.9880886E+00;  2.5316325E-01; -1.0592233E+00;3;  5.1373400E-04;  0.0000000E+00;  6.2917249E-04; -4.3160208E+08; -4.3160208E+08; -4.3160208E+08;1;  5.9565619E-02;  2.7123615E+02;  0.0000000E+00;  1.2795330E-04;  1.0000000E+02;  0.0000000E+00;  9.1817909E+01;  4.8881635E-02;  0.0000000E+00;  1.0683984E-02;  0.0000000E+00;
  5.2624855E+00;  9.9999998E-03; -1.0419135E+00;527;  1.3551176E-01;  0.0000000E+00; -1.0401392E-02;  9.9875698E+00;  2.5240403E-01; -1.1051003E+00;3;  2.5416769E-03;  0.0000000E+00;  1.5798221E-04; -4.3160208E+08; -4.3160208E+08; -4.3160208E+08;1;  5.7315886E-02;  2.7260883E+02;  0.0000000E+00; -2.6872855E-01;  1.0000000E+02;  0.0000000E+00;  9.1899742E+01;  4.7066540E-02;  0.0000000E+00;  1.0249346E-02;  0.0000000E+00;
  5.2515001E+00;  9.9999998E-03; -8.3446229E-01;529;  1.2816291E-01;  0.0000000E+00; -8.5983612E-03;  9.9877605E+00;  2.5169390E-01; -1.0881436E+00;3; -8.3764899E-04;  0.0000000E+00;  1.4911571E-03; -4.3160208E+08; -4.3160208E+08; -4.3160208E+08;1;  5.6614779E-02;  2.7387994E+02;  0.0000000E+00;  1.6216299E-01;  1.0000000E+02;  0.0000000E+00;  9.1992134E+01;  4.6384793E-02;  0.0000000E+00;  1.0229986E-02;  0.0000000E+00;
  5.2418785E+00;  9.9999998E-03; -6.2735385E-01;531;  1.3221329E-01;  0.0000000E+00; -6.7609381E-03;  9.9879217E+00;  2.5112095E-01; -1.0738364E+00;3;  2.7495087E-03;  0.0000000E+00;  4.4407316E-05; -4.3160208E+08; -4.3160208E+08; -4.3160208E+08;1;  5.6041390E-02;  2.7491266E+02;  0.0000000E+00; -1.2730679E-02;  1.0000000E+02;  0.0000000E+00;  9.2067146E+01;  4.5996893E-02;  0.0000000E+00;  1.0044497E-02;  0.0000000E+00;
  5.2326784E+00;  9.9999998E-03; -4.2077887E-01;533;  1.3037595E-01;  0.0000000E+00; -5.0841644E-03;  9.9881029E+00;  2.5065380E-01; -1.0577275E+00;3;  1.8305406E-03;  0.0000000E+00;  1.4927940E-03; -4.3160208E+08; -4.3160208E+08; -4.3160208E+08;1;  5.5352114E-02;  2.7578799E+02;  0.0000000E+00; -7.1550913E-02;  1.0000000E+02;  0.0000000E+00;  9.2120125E+01;  4.5373082E-02;  0.0000000E+00;  9.9790310E-03;  0.0000000E+00;
  4.3671350E+00;  9.9999998E-03; -2.0605768E-01;536;  8.0229737E-02;  0.0000000E+00; -1.7212940E-03;  9.9880457E+00;  2.5100169E-01; -1.0634445E+00;3;  1.5164400E-05;  0.0000000E+00;  3.1560124E-04; -4.3160208E+08; -4.3160208E+08; -4.3160208E+08;1;  5.8267362E-02;  2.7501459E+02;  0.0000000E+00;  1.4820794E-04;  1.0000000E+02;  0.0000000E+00;  9.2121811E+01;  4.7855955E-02;  0.0000000E+00;  1.0411410E-02;  0.0000000E+00;
  5.2198224E+00;  9.9999998E-03; -2.1484561E-01;540;  1.2550575E-01;  0.0000000E+00; -3.9201784E-03;  9.9882345E+00;  2.5034791E-01; -1.0460173E+00;3;  1.0891862E-03;  0.0000000E+00;  3.9995724E-04; -4.3160208E+08; -4.3160208E+08; -4.3160208E+08;1;  5.4949019E-02;  2.7636444E+02;  0.0000000E+00; -3.2101266E-02;  1.0000000E+02;  0.0000000E+00;  9.2154587E+01;  4.4939511E-02;  0.0000000E+00;  1.0009510E-02;  0.0000000E+00;
  5.4856849E+00;  9.9999998E-03; -8.3016515E-01;560;  1.3779913E-01;  0.0000000E+00; -7.3507628E-03;  9.9880476E+00;  2.4592856E-01; -1.0626428E+00;3;  1.3967943E-03;  0.0000000E+00;  8.1787747E-04; -4.3160208E+08; -4.3160208E+08; -4.3160208E+08;1;  5.0233189E-02;  2.8449338E+02;  0.0000000E+00;  1.0386560E-01;  1.0000000E+02;  0.0000000E+00;  9.2765091E+01;  4.1222550E-02;  0.0000000E+00;  9.0106390E-03;  0.0000000E+00;
  5.4673886E+00;  9.9999998E-03; -1.0371341E+00;562;  1.3693422E-01;  0.0000000E+00; -9.2725866E-03;  9.9878483E+00;  2.4563903E-01; -1.0803427E+00;3;  5.0178301E-03;  0.0000000E+00;  3.9982577E-03; -4.3160208E+08; -4.3160208E+08; -4.3160208E+08;1;  5.1459465E-02;  2.8503836E+02;  0.0000000E+00; -2.3086099E-01;  1.0000000E+02;  0.0000000E+00;  9.2802902E+01;  4.2265795E-02;  0.0000000E+00;  9.1936691E-03;  0.0000000E+00;
  5.4882178E+00;  9.9999998E-03; -6.2294608E-01;564;  1.4433633E-01;  0.0000000E+00; -6.8760235E-03;  9.9879074E+00;  2.4520680E-01; -1.0750958E+00;3;  1.3400479E-03;  0.0000000E+00;  4.6210410E-03; -4.3160208E+08; -4.3160208E+08; -4.3160208E+08;1;  5.0729424E-02;  2.8582068E+02;  0.0000000E+00; -1.0173398E-01;  1.0000000E+02;  0.0000000E+00;  9.2874985E+01;  4.0808346E-02;  0.0000000E+00;  9.9210786E-03;  0.0000000E+00;
  5.5041671E+00;  9.9999998E-03; -4.1662994E-01;570;  1.4973691E-01;  0.0000000E+00; -3.9636083E-03;  9.9884281E+00;  2.4462098E-01; -1.0287806E+00;3;  3.7194234E-03;  0.0000000E+00; -7.6776778E-05; -4.3160208E+08; -4.3160208E+08; -4.3160208E+08;1;  4.8171133E-02;  2.8698355E+02;  0.0000000E+00; -2.3259385E-02;  1.0000000E+02;  0.0000000E+00;  9.2952057E+01;  3.9435554E-02;  0.0000000E+00;  8.7355766E-03;  0.0000000E+00;
  5.4925494E+00;  9.9999998E-03; -2.0943208E-01;578;  1.4312735E-01;  0.0000000E+00; -3.2812585E-03;  9.9886408E+00;  2.4384770E-01; -1.0099158E+00;3;  4.5302857E-04;  0.0000000E+00; -2.0811619E-04; -4.3160208E+08; -4.3160208E+08; -4.3160208E+08;1;  4.7572743E-02;  2.8847836E+02;  0.0000000E+00; -6.7624934E-02;  1.0000000E+02;  0.0000000E+00;  9.3060936E+01;  3.8808525E-02;  0.0000000E+00;  8.7642176E-03;  0.0000000E+00;
  5.9725637E+00;  9.9999998E-03; -1.0252960E+00;462;  1.5017161E-01;  0.0000000E+00; -5.9710508E-03;  9.9883022E+00;  4.6047741E-01; -1.0400091E+00;3;  1.0312360E-02;  0.0000000E+00;  6.3294037E-03;  0.0000000E+00;  0.0000000E+00;  0.0000000E+00;0;  3.3375986E-02;  7.9227509E+01;  0.0000000E+00; -2.5550330E-02;  1.0000000E+02;  0.0000000E+00;  9.5016365E+01;  2.7360352E-02;  0.0000000E+00;  6.0156360E-03;  0.0000000E+00;
  5.9790597E+00;  9.9999998E-03; -8.1899524E-01;463;  1.5050980E-01;  0.0000000E+00; -4.2946814E-03;  9.9888067E+00;  4.6035615E-01; -9.9512529E-01;3;  9.1468003E-03;  0.0000000E+00;  4.6598110E-03;  0.0000000E+00;  0.0000000E+00;  0.0000000E+00;0;  3.1726662E-02;  7.9274284E+01;  0.0000000E+00; -8.2581583E-03;  1.0000000E+02;  0.0000000E+00;  9.5020462E+01;  2.5943467E-02;  0.0000000E+00;  5.7831937E-03;  0.0000000E+00;
  5.9864135E+00;  9.9999998E-03; -2.0098488E-01;466;  1.5356869E-01;  0.0000000E+00; -4.1057158E-04;  9.9887905E+00;  4.5927748E-01; -9.9655604E-01;3;  5.0539528E-03;  0.0000000E+00; -9.3897339E-04;  0.0000000E+00;  0.0000000E+00;  0.0000000E+00;0;  3.1577665E-02;  7.9585571E+01;  0.0000000E+00;  3.6952112E-02;  1.0000000E+02;  0.0000000E+00;  9.5093117E+01;  2.5788171E-02;  0.0000000E+00;  5.7894941E-03;  0.0000000E+00;
  5.9869509E+00;  9.9999998E-03; -6.1323869E-01;464;  1.5354793E-01;  0.0000000E+00; -3.1530061E-03;  9.9882202E+00;  4.6169972E-01; -1.0472689E+00;3;  7.2589768E-03;  0.0000000E+00;  5.1468564E-04;  0.0000000E+00;  0.0000000E+00;  0.0000000E+00;0;  3.3163901E-02;  7.8889893E+01;  0.0000000E+00;  4.5170799E-02;  1.0000000E+02;  0.0000000E+00;  9.4917519E+01;  2.6992047E-02;  0.0000000E+00;  6.1718556E-03;  0.0000000E+00;
  5.9871821E+00;  9.9999998E-03; -4.0713212E-01;465;  1.5395702E-01;  0.0000000E+00; -1.9227000E-03;  9.9884586E+00;  4.6040547E-01; -1.0260723E+00;3;  6.5953592E-03;  0.0000000E+00; -7.0615578E-04;  0.0000000E+00;  0.0000000E+00;  0.0000000E+00;0;  3.2514568E-02;  7.9258972E+01;  0.0000000E+00;  7.8042254E-02;  1.0000000E+02;  0.0000000E+00;  9.5011353E+01;  2.6437202E-02;  0.0000000E+00;  6.0773669E-03;  0.0000000E+00;
  6.1892633E+00;  9.9999998E-03; -4.0111440E-01;475;  1.5363117E-01;  0.0000000E+00; -3.1505214E-04;  9.9891624E+00;  4.4213060E-01; -9.6348894E-01;3;  7.2004111E-03;  0.0000000E+00;  1.1799661E-03;  0.0000000E+00;  0.0000000E+00;  0.0000000E+00;0;  2.2771686E-02;  8.4691940E+01;  0.0000000E+00;  6.1359037E-02;  1.0000000E+02;  0.0000000E+00;  9.6433144E+01;  1.8496517E-02;  0.0000000E+00;  4.2751692E-03;  0.0000000E+00;
  6.1886325E+00;  9.9999998E-03; -6.0707265E-01;474;  1.5305515E-01;  0.0000000E+00; -1.6774799E-03;  9.9893255E+00;  4.4231936E-01; -9.4902235E-01;3;  7.8012217E-03;  0.0000000E+00;  2.0317063E-03;  0.0000000E+00;  0.0000000E+00;  0.0000000E+00;0;  2.2454266E-02;  8.4622841E+01;  0.0000000E+00; -4.2360753E-02;  1.0000000E+02;  0.0000000E+00;  9.6431396E+01;  1.8152930E-02;  0.0000000E+00;  4.3013352E-03;  0.0000000E+00;
  6.1935248E+00;  9.9999998E-03; -8.1425780E-01;473;  1.5511151E-01;  0.0000000E+00; -3.3965383E-03;  9.9874239E+00;  4.4739407E-01; -1.1180648E+00;3;  9.8108761E-03;  0.0000000E+00;  3.2984137E-03;  0.0000000E+00;  0.0000000E+00;  0.0000000E+00;0;  2.6221078E-02;  8.3031136E+01;  0.0000000E+00; -5.0521765E-02;  1.0000000E+02;  0.0000000E+00;  9.6029488E+01;  2.1382676E-02;  0.0000000E+00;  4.8384024E-03;  0.0000000E+00;
  6.1985083E+00;  9.9999998E-03; -1.9946751E-01;476;  1.5545805E-01;  0.0000000E+00;  1.8998244E-04;  9.9881868E+00;  4.4632518E-01; -1.0502359E+00;3;  5.9344014E-03;  0.0000000E+00;  5.8710575E-05;  0.0000000E+00;  0.0000000E+00;  0.0000000E+00;0;  2.4340367E-02;  8.3410454E+01;  0.0000000E+00;  2.7347542E-02;  1.0000000E+02;  0.0000000E+00;  9.6065834E+01;  1.9776607E-02;  0.0000000E+00;  4.5637595E-03;  0.0000000E+00;
  6.3990555E+00;  9.9999998E-03; -3.9936128E-01;483;  1.5546073E-01;  0.0000000E+00;  2.6780076E-04;  9.9878492E+00;  4.2974076E-01; -1.0802817E+00;3;  8.1774527E-03;  0.0000000E+00;  1.1153258E-03;  0.0000000E+00;  0.0000000E+00;  0.0000000E+00;0;  1.5594078E-02;  8.8720825E+01;  0.0000000E+00; -1.1381111E-01;  1.0000000E+02;  0.0000000E+00;  9.7416260E+01;  1.2632099E-02;  0.0000000E+00;  2.9619790E-03;  0.0000000E+00;
  6.4058104E+00;  9.9999998E-03; -6.0604727E-01;482;  1.5745036E-01;  0.0000000E+00; -1.7615182E-03;  9.9837017E+00;  4.3619227E-01; -1.4489956E+00;3; -3.6688922E-03;  0.0000000E+00; -9.9281464E-03;  0.0000000E+00;  0.0000000E+00;  0.0000000E+00;0;  2.0122003E-02;  8.6496109E+01;  0.0000000E+00; -9.0103798E-02;  1.0000000E+02;  0.0000000E+00;  9.6912445E+01;  1.6028609E-02;  0.0000000E+00;  4.0933946E-03;  0.0000000E+00;
  6.4057922E+00;  9.9999998E-03; -1.9792879E-01;484;  1.5693557E-01;  0.0000000E+00;  6.8318710E-04;  9.9859104E+00;  4.3402463E-01; -1.2526096E+00;3;  7.9612918E-03;  0.0000000E+00;  6.5281428E-04;  0.0000000E+00;  0.0000000E+00;  0.0000000E+00;0;  1.7726136E-02;  8.7310387E+01;  0.0000000E+00; -1.7239410E-02;  1.0000000E+02;  0.0000000E+00;  9.7011276E+01;  1.4313023E-02;  0.0000000E+00;  3.4131135E-03;  0.0000000E+00;
  6.6098223E+00;  9.9999998E-03; -4.0076303E-01;489;  1.5946226E-01;  0.0000000E+00; -6.1875209E-04;  9.9645033E+00;  4.2376816E-01; -3.1558466E+00;3;  2.4132706E-02;  0.0000000E+00;  7.9103783E-03;  0.0000000E+00;  0.0000000E+00;  0.0000000E+00;0;  1.6091704E-02;  9.0537102E+01;  0.0000000E+00; -1.5614428E-01;  1.0000000E+02;  0.0000000E+00;  9.7733612E+01;  1.2921908E-02;  0.0000000E+00;  3.1697960E-03;  0.0000000E+00;
  6.6083107E+00;  9.9999998E-03; -1.9634615E-01;490;  1.5809700E-01;  0.0000000E+00;  7.9748087E-04;  9.9710674E+00;  4.2150050E-01; -2.5722530E+00;3;  1.0835979E-02;  0.0000000E+00; -3.3771875E-04;  0.0000000E+00;  0.0000000E+00;  0.0000000E+00;0;  1.2638209E-02;  9.1468208E+01;  0.0000000E+00; -1.1084350E-01;  1.0000000E+02;  0.0000000E+00;  9.7906158E+01;  1.0113069E-02;  0.0000000E+00;  2.5251405E-03;  0.0000000E+00;
 -7.5161537E-05;  9.9999998E-03;  3.8895104E-10;170;  2.1997686E-04;  0.0000000E+00; -1.5634650E-09;  9.9989843E+00;  3.9993447E-01; -1.0928003E-01;3;  9.7998660E-03;  0.0000000E+00; -6.6177954E-08;  0.0000000E+00;  0.0000000E+00;  0.0000000E+00;0;  8.0051752E-05;  1.0000179E+02;  0.0000000E+00;  4.0633179E-16;  1.0000000E+02;  0.0000000E+00;  1.0000816E+02;  8.4738269E-05;  0.0000000E+00; -4.6865198E-06;  0.0000000E+00;
 -1.0877954E-04;  9.9999998E-03;  2.0001474E-01;171;  2.0520478E-04;  0.0000000E+00;  1.2427497E-05;  9.9989271E+00;  3.9994588E-01; -1.1543666E-01;3;  9.1096135E-03;  0.0000000E+00;  3.4895432E-04;  0.0000000E+00;  0.0000000E+00;  0.0000000E+00;0;  8.5747568E-05;  9.9996368E+01;  0.0000000E+00;  1.0623677E-06;  1.0000000E+02;  0.0000000E+00;  1.0000815E+02;  9.0214467E-05;  0.0000000E+00; -4.4668977E-06;  0.0000000E+00;
 -1.9782112E-04;  9.9999998E-03;  4.0004012E-01;172;  1.6413064E-04;  0.0000000E+00;  3.3621844E-05;  9.9987965E+00;  3.9997143E-01; -1.2948145E-01;3;  7.7371155E-03;  0.0000000E+00;  2.8721413E-03;  0.0000000E+00;  0.0000000E+00;  0.0000000E+00;0;  1.0070211E-04;  9.9983467E+01;  0.0000000E+00; -2.1320247E-07;  1.0000000E+02;  0.0000000E+00;  1.0000729E+02;  1.0473906E-04;  0.0000000E+00; -4.0369587E-06;  0.0000000E+00;
 -3.3480790E-04;  9.9999998E-03;  6.0011077E-01;173;  1.0421575E-04;  0.0000000E+00;  6.3448773E-05;  9.9988050E+00;  4.0000257E-01; -1.2858361E-01;3;  6.0223620E-03;  0.0000000E+00;  9.7622424E-03;  0.0000000E+00;  0.0000000E+00;  0.0000000E+00;0;  1.1972304E-04;  9.9966217E+01;  0.0000000E+00; -1.7900677E-05;  1.0000000E+02;  0.0000000E+00;  9.9998749E+01;  1.2325549E-04;  0.0000000E+00; -3.5324447E-06;  0.0000000E+00;
 -4.3258816E-04;  9.9999998E-03;  8.0014420E-01;174;  6.0591959E-05;  0.0000000E+00;  6.6895867E-05;  9.9987917E+00;  4.0003657E-01; -1.2999450E-01;3;  6.2091579E-03;  0.0000000E+00;  1.4683225E-02;  0.0000000E+00;  0.0000000E+00;  0.0000000E+00;0;  1.3543549E-04;  9.9951347E+01;  0.0000000E+00; -5.6266450E-05;  1.0000000E+02;  0.0000000E+00;  1.0000000E+02;  1.3723155E-04;  0.0000000E+00; -1.7960501E-06;  0.0000000E+00;
 -4.9598370E-04;  9.9999998E-03;  1.0001404E+00;175;  1.8507777E-05;  0.0000000E+00;  5.0400307E-05;  9.9987860E+00;  4.0005782E-01; -1.3063581E-01;3;  5.5633653E-03;  0.0000000E+00;  8.8854320E-03;  0.0000000E+00;  0.0000000E+00;  0.0000000E+00;0;  1.4064621E-04;  9.9943741E+01;  0.0000000E+00; -7.8171921E-05;  1.0000000E+02;  0.0000000E+00;  9.9998260E+01;  1.3817938E-04;  0.0000000E+00;  2.4668225E-06;  0.0000000E+00;
  1.9965449E-01;  9.9999998E-03;  8.9949367E-11;181;  1.5465607E-04;  0.0000000E+00; -1.6251761E-09;  9.9980526E+00;  4.0032756E-01; -2.0951714E-01;3;  2.6503529E-02;  0.0000000E+00; -5.6297211E-09;  0.0000000E+00;  0.0000000E+00;  0.0000000E+00;0;  2.2205830E-04;  9.9782837E+01;  0.0000000E+00; -4.5254689E-16;  1.0000000E+02;  0.0000000E+00;  1.0001083E+02;  2.3406243E-04;  0.0000000E+00; -1.2004140E-05;  0.0000000E+00;
  1.9962242E-01;  9.9999998E-03;  1.9998376E-01;182;  1.3923080E-04;  0.0000000E+00; -1.0724269E-06;  9.9980183E+00;  4.0034130E-01; -2.1323675E-01;3;  2.5198614E-02;  0.0000000E+00;  4.8804814E-03;  0.0000000E+00;  0.0000000E+00;  0.0000000E+00;0;  2.3216067E-04;  9.9776207E+01;  0.0000000E+00; -9.4512225E-06;  1.0000000E+02;  0.0000000E+00;  1.0000989E+02;  2.4349143E-04;  0.0000000E+00; -1.1330762E-05;  0.0000000E+00;
  1.9953609E-01;  9.9999998E-03;  3.9997229E-01;183;  9.8372075E-05;  0.0000000E+00;  3.7428774E-06;  9.9979029E+00;  4.0037265E-01; -2.2561410E-01;3;  2.2063352E-02;  0.0000000E+00;  1.1328505E-02;  0.0000000E+00;  0.0000000E+00;  0.0000000E+00;0;  2.5843419E-04;  9.9760674E+01;  0.0000000E+00; -6.3847823E-05;  1.0000000E+02;  0.0000000E+00;  1.0001025E+02;  2.6791572E-04;  0.0000000E+00; -9.4815305E-06;  0.0000000E+00;
  1.9941680E-01;  9.9999998E-03;  5.9998453E-01;184;  4.2229469E-05;  0.0000000E+00;  2.2290678E-05;  9.9976807E+00;  4.0040064E-01; -2.4953510E-01;3;  1.8566025E-02;  0.0000000E+00;  1.8971350E-02;  0.0000000E+00;  0.0000000E+00;  0.0000000E+00;0;  2.8973076E-04;  9.9746895E+01;  0.0000000E+00; -1.8111098E-04;  1.0000000E+02;  0.0000000E+00;  1.0000382E+02;  2.9621032E-04;  0.0000000E+00; -6.4795731E-06;  0.0000000E+00;
  1.9937271E-01;  9.9999998E-03;  7.9996109E-01;185;  2.3383356E-05;  0.0000000E+00;  1.8500876E-05;  9.9977226E+00;  4.0040186E-01; -2.4504590E-01;3;  1.2979773E-02;  0.0000000E+00;  2.2986189E-02;  0.0000000E+00;  0.0000000E+00;  0.0000000E+00;0;  3.1199813E-04;  9.9746178E+01;  0.0000000E+00; -2.7119237E-04;  1.0000000E+02;  0.0000000E+00;  9.9999870E+01;  3.1397841E-04;  0.0000000E+00; -1.9802737E-06;  0.0000000E+00;
  1.9937232E-01;  9.9999998E-03;  9.9989295E-01;186;  3.1345240E-05;  0.0000000E+00; -6.0679490E-06;  9.9978285E+00;  4.0037912E-01; -2.3363052E-01;3;  9.5692798E-03;  0.0000000E+00;  1.8869581E-02;  0.0000000E+00;  0.0000000E+00;  0.0000000E+00;0;  3.1081209E-04;  9.9766243E+01;  0.0000000E+00; -1.4649161E-04;  1.0000000E+02;  0.0000000E+00;  1.0000108E+02;  3.0765083E-04;  0.0000000E+00;  3.1612581E-06;  0.0000000E+00;
  3.9943933E-01;  9.9999998E-03; -1.4569017E-10;192;  1.1397021E-04;  0.0000000E+00; -1.3902512E-09;  9.9962282E+00;  4.0111890E-01; -4.0582150E-01;3; -1.6444532E-02;  0.0000000E+00; -4.3603308E-09;  0.0000000E+00;  0.0000000E+00;  0.0000000E+00;0;  6.3957548E-04;  9.9354279E+01;  0.0000000E+00; -1.0329898E-15;  1.0000000E+02;  0.0000000E+00;  1.0000981E+02;  6.5519480E-04;  0.0000000E+00; -1.5619302E-05;  0.0000000E+00;
  3.9941061E-01;  9.9999998E-03;  1.9995275E-01;193;  9.7922042E-05;  0.0000000E+00; -1.2930671E-05;  9.9962025E+00;  4.0113100E-01; -4.0857914E-01;3; -1.6540432E-02;  0.0000000E+00;  1.8577190E-02;  0.0000000E+00;  0.0000000E+00;  0.0000000E+00;0;  6.4961740E-04;  9.9347229E+01;  0.0000000E+00; -7.2096940E-05;  1.0000000E+02;  0.0000000E+00;  1.0000982E+02;  6.6459394E-04;  0.0000000E+00; -1.4976541E-05;  0.0000000E+00;
  3.9932328E-01;  9.9999998E-03;  3.9991093E-01;194;  4.9235477E-05;  0.0000000E+00; -2.1203314E-05;  9.9961052E+00;  4.0115905E-01; -4.1903251E-01;3; -1.6162653E-02;  0.0000000E+00;  4.2736214E-02;  0.0000000E+00;  0.0000000E+00;  0.0000000E+00;0;  6.7533250E-04;  9.9332733E+01;  0.0000000E+00; -3.2114799E-04;  1.0000000E+02;  0.0000000E+00;  1.0000997E+02;  6.8830408E-04;  0.0000000E+00; -1.2971562E-05;  0.0000000E+00;
  3.9923844E-01;  9.9999998E-03;  5.9985089E-01;195; -2.6478824E-06;  0.0000000E+00; -3.4985187E-05;  9.9959698E+00;  4.0117621E-01; -4.3365440E-01;3; -1.6075239E-02;  0.0000000E+00;  7.3408045E-02;  0.0000000E+00;  0.0000000E+00;  0.0000000E+00;0;  7.0252654E-04;  9.9326340E+01;  0.0000000E+00; -5.5054657E-04;  1.0000000E+02;  0.0000000E+00;  1.0001071E+02;  7.1200688E-04;  0.0000000E+00; -9.4803454E-06;  0.0000000E+00;
  3.9926055E-01;  9.9999998E-03;  7.9974788E-01;196; -6.1958303E-06;  0.0000000E+00; -6.9645037E-05;  9.9960756E+00;  4.0114379E-01; -4.2223907E-01;3; -1.8487368E-02;  0.0000000E+00;  1.0605635E-01;  0.0000000E+00;  0.0000000E+00;  0.0000000E+00;0;  7.0926320E-04;  9.9348114E+01;  0.0000000E+00; -1.1433980E-04;  1.0000000E+02;  0.0000000E+00;  9.9999763E+01;  7.1469176E-04;  0.0000000E+00; -5.4285738E-06;  0.0000000E+00;
  3.9947045E-01;  9.9999998E-03;  9.9966180E-01;197;  8.5866421E-05;  0.0000000E+00; -1.1494885E-04;  9.9963217E+00;  4.0102759E-01; -3.9575291E-01;3; -2.0793056E-02;  0.0000000E+00;  1.3247940E-01;  0.0000000E+00;  0.0000000E+00;  0.0000000E+00;0;  6.7760167E-04;  9.9411278E+01;  0.0000000E+00;  1.4286988E-03;  1.0000000E+02;  0.0000000E+00;  1.0000108E+02;  6.8249495E-04;  0.0000000E+00; -4.8932561E-06;  0.0000000E+00;
  5.9932411E-01;  9.9999998E-03; -4.0050510E-10;203;  9.6181575E-05;  0.0000000E+00; -1.2393112E-09;  9.9937963E+00;  4.0238416E-01; -6.6747010E-01;3; -4.2663552E-03;  0.0000000E+00;  1.7954180E-08;  0.0000000E+00;  0.0000000E+00;  0.0000000E+00;0;  1.4626707E-03;  9.8691055E+01;  0.0000000E+00; -2.2597028E-15;  1.0000000E+02;  0.0000000E+00;  1.0000267E+02;  1.4726223E-03;  0.0000000E+00; -9.9515100E-06;  0.0000000E+00;
  5.9929436E-01;  9.9999998E-03;  1.9993944E-01;204;  7.4843803E-05;  0.0000000E+00; -1.9204972E-05;  9.9938011E+00;  4.0239862E-01; -6.6695708E-01;3; -2.9511692E-03;  0.0000000E+00;  1.9710917E-02;  0.0000000E+00;  0.0000000E+00;  0.0000000E+00;0;  1.4656972E-03;  9.8683334E+01;  0.0000000E+00; -2.1870690E-04;  1.0000000E+02;  0.0000000E+00;  1.0000318E+02;  1.4757448E-03;  0.0000000E+00; -1.0047590E-05;  0.0000000E+00;
  5.9919375E-01;  9.9999998E-03;  3.9987585E-01;205;  7.8357361E-06;  0.0000000E+00; -3.8334769E-05;  9.9938154E+00;  4.0242723E-01; -6.6541791E-01;3;  2.2415223E-03;  0.0000000E+00;  4.7819987E-02;  0.0000000E+00;  0.0000000E+00;  0.0000000E+00;0;  1.4726317E-03;  9.8668472E+01;  0.0000000E+00; -7.3091843E-04;  1.0000000E+02;  0.0000000E+00;  1.0000563E+02;  1.4827366E-03;  0.0000000E+00; -1.0104863E-05;  0.0000000E+00;
  5.9909850E-01;  9.9999998E-03;  5.9976017E-01;206; -6.2929197E-05;  0.0000000E+00; -8.3752660E-05;  9.9938593E+00;  4.0242332E-01; -6.6067225E-01;3;  9.6478462E-03;  0.0000000E+00;  8.9890137E-02;  0.0000000E+00;  0.0000000E+00;  0.0000000E+00;0;  1.4695809E-03;  9.8668213E+01;  0.0000000E+00; -2.7768695E-04;  1.0000000E+02;  0.0000000E+00;  1.0000781E+02;  1.4810348E-03;  0.0000000E+00; -1.1453925E-05;  0.0000000E+00;
  5.9911692E-01;  9.9999998E-03;  7.9958373E-01;207; -9.1786940E-05;  0.0000000E+00; -1.5760712E-04;  9.9940567E+00;  4.0233362E-01; -6.3944507E-01;3;  2.6242334E-02;  0.0000000E+00;  1.4474466E-01;  0.0000000E+00;  0.0000000E+00;  0.0000000E+00;0;  1.4230850E-03;  9.8714325E+01;  0.0000000E+00;  3.8092225E-03;  1.0000000E+02;  0.0000000E+00;  1.0001061E+02;  1.4410991E-03;  0.0000000E+00; -1.8014151E-05;  0.0000000E+00;
  5.9956974E-01;  9.9999998E-03;  9.9947429E-01;208;  5.3363932E-05;  0.0000000E+00; -2.1043018E-04;  9.9944849E+00;  4.0211201E-01; -5.9339935E-01;3;  5.1013816E-02;  0.0000000E+00;  1.9388022E-01;  0.0000000E+00;  0.0000000E+00;  0.0000000E+00;0;  1.3233429E-03;  9.8824501E+01;  0.0000000E+00;  1.1882774E-02;  1.0000000E+02;  0.0000000E+00;  1.0001733E+02;  1.3543530E-03;  0.0000000E+00; -3.1010146E-05;  0.0000000E+00;
  7.9932868E-01;  9.9999998E-03; -7.0209499E-10;214;  9.0951959E-05;  0.0000000E+00; -9.6452646E-10;  9.9914675E+00;  4.0408662E-01; -9.1800886E-01;3; -1.6120640E-03;  0.0000000E+00;  2.8153821E-08;  0.0000000E+00;  0.0000000E+00;  0.0000000E+00;0;  2.6935982E-03;  9.7829224E+01;  0.0000000E+00;  9.5061036E-16;  1.0000000E+02;  0.0000000E+00;  9.9989334E+01;  2.6864614E-03;  0.0000000E+00;  7.1367390E-06;  0.0000000E+00;
  7.9925358E-01;  9.9999998E-03;  1.9996956E-01;215;  5.6975758E-05;  0.0000000E+00; -8.9174155E-06;  9.9914970E+00;  4.0410382E-01; -9.1486651E-01;3;  1.1173461E-03;  0.0000000E+00;  1.7040009E-02;  0.0000000E+00;  0.0000000E+00;  0.0000000E+00;0;  2.6842915E-03;  9.7819687E+01;  0.0000000E+00; -3.5719009E-04;  1.0000000E+02;  0.0000000E+00;  9.9989700E+01;  2.6782590E-03;  0.0000000E+00;  6.0322955E-06;  0.0000000E+00;
  7.9912317E-01;  9.9999998E-03;  3.9993632E-01;216; -3.4308327E-05;  0.0000000E+00; -2.1888540E-05;  9.9915752E+00;  4.0414599E-01; -9.0640146E-01;3;  1.1223935E-02;  0.0000000E+00;  4.2796377E-02;  0.0000000E+00;  0.0000000E+00;  0.0000000E+00;0;  2.6596976E-03;  9.7799973E+01;  0.0000000E+00; -6.3489663E-04;  1.0000000E+02;  0.0000000E+00;  9.9994034E+01;  2.6564985E-03;  0.0000000E+00;  3.1991699E-06;  0.0000000E+00;
  7.9902041E-01;  9.9999998E-03;  5.9984201E-01;217; -1.5505656E-04;  0.0000000E+00; -6.9456830E-05;  9.9917498E+00;  4.0414247E-01; -8.8767576E-01;3;  3.6026627E-02;  0.0000000E+00;  8.5572340E-02;  0.0000000E+00;  0.0000000E+00;  0.0000000E+00;0;  2.6057814E-03;  9.7798180E+01;  0.0000000E+00;  3.3713800E-03;  1.0000000E+02;  0.0000000E+00;  9.9997978E+01;  2.6114262E-03;  0.0000000E+00; -5.6447134E-06;  0.0000000E+00;
  7.9915130E-01;  9.9999998E-03;  7.9978627E-01;218; -1.8064560E-04;  0.0000000E+00; -9.0744943E-05;  9.9921112E+00;  4.0401554E-01; -8.4874940E-01;3;  1.1121964E-01;  0.0000000E+00;  1.2736054E-01;  0.0000000E+00;  0.0000000E+00;  0.0000000E+00;0;  2.4933193E-03;  9.7855797E+01;  0.0000000E+00;  1.8895311E-02;  1.0000000E+02;  0.0000000E+00;  1.0000793E+02;  2.5105989E-03;  0.0000000E+00; -1.7279443E-05;  0.0000000E+00;
  8.0174160E-01;  9.9999998E-03;  1.0000273E+00;219;  8.8179798E-04;  0.0000000E+00;  4.7135152E-05;  9.9916210E+00;  4.0400040E-01; -9.0152729E-01;3;  2.1935800E-01;  0.0000000E+00;  1.1722721E-01;  0.0000000E+00;  0.0000000E+00;  0.0000000E+00;0;  2.6839480E-03;  9.7863075E+01;  0.0000000E+00;  3.4666795E-02;  1.0000000E+02;  0.0000000E+00;  1.0000056E+02;  2.6708131E-03;  0.0000000E+00;  1.3134835E-05;  0.0000000E+00;
  1.0013052E+00;  9.9999998E-03;  2.9053604E-09;225;  9.2929775E-05;  0.0000000E+00; -1.1189732E-09;  9.9897289E+00;  4.0615642E-01; -1.1050217E+00;3; -7.5620721E-04;  0.0000000E+00;  3.2406209E-08;  0.0000000E+00;  0.0000000E+00;  0.0000000E+00;0;  4.2109792E-03;  9.6813873E+01;  0.0000000E+00;  3.4092371E-15;  1.0000000E+02;  0.0000000E+00;  9.9977470E+01;  4.1788290E-03;  0.0000000E+00;  3.2150238E-05;  0.0000000E+00;
  1.0006942E+00;  9.9999998E-03;  2.0011568E-01;226;  3.9580169E-05;  0.0000000E+00;  2.6153890E-05;  9.9897766E+00;  4.0618768E-01; -1.0998919E+00;3;  2.4696391E-03;  0.0000000E+00;  1.2554822E-02;  0.0000000E+00;  0.0000000E+00;  0.0000000E+00;0;  4.1873041E-03;  9.6800247E+01;  0.0000000E+00; -4.4847096E-04;  1.0000000E+02;  0.0000000E+00;  9.9976395E+01;  4.1560805E-03;  0.0000000E+00;  3.1223699E-05;  0.0000000E+00;
  1.0011412E+00;  9.9999998E-03;  4.0018231E-01;227; -7.1548136E-05;  0.0000000E+00;  2.5754722E-05;  9.9898958E+00;  4.0629125E-01; -1.0870665E+00;3;  1.4397879E-02;  0.0000000E+00;  2.9233212E-02;  0.0000000E+00;  0.0000000E+00;  0.0000000E+00;0;  4.1395971E-03;  9.6756195E+01;  0.0000000E+00; -3.1535138E-04;  1.0000000E+02;  0.0000000E+00;  9.9974518E+01;  4.1112257E-03;  0.0000000E+00;  2.8371309E-05;  0.0000000E+00;
  1.0009481E+00;  9.9999998E-03;  6.0011834E-01;228; -2.0682029E-04;  0.0000000E+00;  4.4102485E-06;  9.9901485E+00;  4.0634957E-01; -1.0598770E+00;3;  5.3136494E-02;  0.0000000E+00;  4.9589578E-02;  0.0000000E+00;  0.0000000E+00;  0.0000000E+00;0;  4.0375274E-03;  9.6729393E+01;  0.0000000E+00;  9.5377173E-03;  1.0000000E+02;  0.0000000E+00;  9.9976547E+01;  4.0181344E-03;  0.0000000E+00;  1.9392703E-05;  0.0000000E+00;
  1.0027634E+00;  9.9999998E-03;  8.0067879E-01;229;  9.5601100E-04;  0.0000000E+00;  2.2160006E-04;  9.9896669E+00;  4.0650237E-01; -1.1116903E+00;3;  1.4304714E-01;  0.0000000E+00; -5.5576853E-02;  0.0000000E+00;  0.0000000E+00;  0.0000000E+00;0;  4.2385636E-03;  9.6682442E+01;  0.0000000E+00;  3.2945439E-02;  1.0000000E+02;  0.0000000E+00;  9.9939148E+01;  4.1488376E-03;  0.0000000E+00;  8.9725989E-05;  0.0000000E+00;
  1.0112618E+00;  9.9999998E-03;  1.0006405E+00;230;  2.8489770E-03;  0.0000000E+00;  1.5255969E-04;  9.9879675E+00;  4.0775418E-01; -1.2945100E+00;3;  3.1955652E-02;  0.0000000E+00; -2.8737187E-02;  0.0000000E+00;  0.0000000E+00;  0.0000000E+00;0;  4.9693957E-03;  9.6056839E+01;  0.0000000E+00;  5.9135663E-03;  1.0000000E+02;  0.0000000E+00;  9.9944115E+01;  4.9050963E-03;  0.0000000E+00;  6.4299435E-05;  0.0000000E+00;
  1.2106571E+00;  9.9999998E-03; -5.2324728E-10;236;  1.5436447E-03;  0.0000000E+00; -9.5406620E-11;  9.9889679E+00;  4.0862814E-01; -1.1867794E+00;3; -9.9913240E-04;  0.0000000E+00; -2.3479849E-07;  0.0000000E+00;  0.0000000E+00;  0.0000000E+00;0;  5.8389204E-03;  9.5643402E+01;  0.0000000E+00; -1.9087875E-15;  1.0000000E+02;  0.0000000E+00;  9.9962349E+01;  5.7813977E-03;  0.0000000E+00;  5.7522608E-05;  0.0000000E+00;
  1.2089562E+00;  9.9999998E-03;  2.0026508E-01;237;  1.4740699E-04;  0.0000000E+00;  5.8581954E-05;  9.9890070E+00;  4.0871176E-01; -1.1825491E+00;3;  1.0786820E-03;  0.0000000E+00;  8.0202455E-03;  0.0000000E+00;  0.0000000E+00;  0.0000000E+00;0;  5.8078878E-03;  9.5609108E+01;  0.0000000E+00; -1.4910835E-03;  1.0000000E+02;  0.0000000E+00;  9.9958733E+01;  5.7498012E-03;  0.0000000E+00;  5.8086385E-05;  0.0000000E+00;
  1.2051125E+00;  9.9999998E-03;  4.0022922E-01;238; -4.4343680E-05;  0.0000000E+00;  1.1982259E-05;  9.9891405E+00;  4.0883359E-01; -1.1681899E+00;3;  1.4337498E-02;  0.0000000E+00;  1.5593681E-02;  0.0000000E+00;  0.0000000E+00;  0.0000000E+00;0;  5.7130326E-03;  9.5559143E+01;  0.0000000E+00; -1.4150406E-03;  1.0000000E+02;  0.0000000E+00;  9.9953339E+01;  5.6661381E-03;  0.0000000E+00;  4.6894595E-05;  0.0000000E+00;
  1.2034589E+00;  9.9999998E-03;  6.0002393E-01;239; -3.8047827E-05;  0.0000000E+00;  2.9590516E-05;  9.9893494E+00;  4.0885627E-01; -1.1457496E+00;3;  6.3548490E-02;  0.0000000E+00;  1.9009808E-02;  0.0000000E+00;  0.0000000E+00;  0.0000000E+00;0;  5.5867624E-03;  9.5543388E+01;  0.0000000E+00;  1.6361289E-02;  1.0000000E+02;  0.0000000E+00;  9.9963844E+01;  5.5438797E-03;  0.0000000E+00;  4.2882632E-05;  0.0000000E+00;
  1.2103642E+00;  9.9999998E-03;  8.0051702E-01;240;  2.5597820E-03;  0.0000000E+00;  1.8228429E-04;  9.9883604E+00;  4.0954059E-01; -1.2521169E+00;3;  7.8723490E-02;  0.0000000E+00; -7.9456285E-02;  0.0000000E+00;  0.0000000E+00;  0.0000000E+00;0;  6.1102463E-03;  9.5249214E+01;  0.0000000E+00;  1.5616830E-02;  1.0000000E+02;  0.0000000E+00;  9.9920639E+01;  5.9939362E-03;  0.0000000E+00;  1.1631002E-04;  0.0000000E+00;
  1.2153728E+00;  9.9999998E-03;  1.0005343E+00;241;  3.8394053E-03;  0.0000000E+00;  1.2715900E-04;  9.9873791E+00;  4.1048777E-01; -1.3576515E+00;3; -2.3577355E-03;  0.0000000E+00; -7.2357424E-02;  0.0000000E+00;  0.0000000E+00;  0.0000000E+00;0;  6.6535152E-03;  9.4783058E+01;  0.0000000E+00; -1.3139707E-03;  1.0000000E+02;  0.0000000E+00;  9.9929283E+01;  6.5806652E-03;  0.0000000E+00;  7.2849733E-05;  0.0000000E+00;
  1.4157497E+00;  9.9999998E-03; -2.4952862E-10;247;  6.4829877E-03;  0.0000000E+00;  8.5930590E-10;  9.9891081E+00;  4.1165251E-01; -1.1714209E+00;3;  9.9963055E-04;  0.0000000E+00; -1.4985106E-07;  0.0000000E+00;  0.0000000E+00;  0.0000000E+00;0;  7.2827744E-03;  9.4252640E+01;  0.0000000E+00;  3.0765505E-15;  1.0000000E+02;  0.0000000E+00;  9.9956375E+01;  7.2092605E-03;  0.0000000E+00;  7.3514049E-05;  0.0000000E+00;
  1.4161383E+00;  9.9999998E-03;  2.0040756E-01;248;  5.7131993E-03;  0.0000000E+00;  6.8866306E-05;  9.9890079E+00;  4.1176245E-01; -1.1821895E+00;3;  9.4042532E-04;  0.0000000E+00;  5.5166055E-03;  0.0000000E+00;  0.0000000E+00;  0.0000000E+00;0;  7.3513561E-03;  9.4210182E+01;  0.0000000E+00; -2.3081163E-03;  1.0000000E+02;  0.0000000E+00;  9.9943069E+01;  7.2757164E-03;  0.0000000E+00;  7.5639837E-05;  0.0000000E+00;
  1.4129194E+00;  9.9999998E-03;  4.0030453E-01;249;  1.4103876E-03;  0.0000000E+00; -8.5617314E-05;  9.9890213E+00;  4.1196373E-01; -1.1807220E+00;3;  6.7833383E-03;  0.0000000E+00;  6.6164094E-03;  0.0000000E+00;  0.0000000E+00;  0.0000000E+00;0;  7.2768708E-03;  9.4137672E+01;  0.0000000E+00; -6.4783641E-03;  1.0000000E+02;  0.0000000E+00;  9.9928871E+01;  7.2415220E-03;  0.0000000E+00;  3.5348869E-05;  0.0000000E+00;
  1.4108919E+00;  9.9999998E-03;  6.0001940E-01;250;  1.6212013E-03;  0.0000000E+00; -4.5875739E-05;  9.9890585E+00;  4.1200313E-01; -1.1767516E+00;3;  3.2705404E-02;  0.0000000E+00;  6.3148397E-03;  0.0000000E+00;  0.0000000E+00;  0.0000000E+00;0;  7.2446442E-03;  9.4107803E+01;  0.0000000E+00;  3.2744114E-03;  1.0000000E+02;  0.0000000E+00;  9.9940506E+01;  7.2254469E-03;  0.0000000E+00;  1.9197321E-05;  0.0000000E+00;
  1.4154679E+00;  9.9999998E-03;  8.0026901E-01;251;  3.9962311E-03;  0.0000000E+00;  9.3194001E-05;  9.9884386E+00;  4.1235858E-01; -1.2434095E+00;3;  4.4804867E-02;  0.0000000E+00; -4.4045262E-02;  0.0000000E+00;  0.0000000E+00;  0.0000000E+00;0;  7.6785362E-03;  9.3952141E+01;  0.0000000E+00;  6.8446416E-03;  1.0000000E+02;  0.0000000E+00;  9.9920784E+01;  7.5897286E-03;  0.0000000E+00;  8.8807727E-05;  0.0000000E+00;
  1.4194763E+00;  9.9999998E-03;  1.0004193E+00;252;  4.9053920E-03;  0.0000000E+00;  1.0397861E-04;  9.9879951E+00;  4.1287369E-01; -1.2910931E+00;3;  3.1494161E-03;  0.0000000E+00; -6.1900150E-02;  0.0000000E+00;  0.0000000E+00;  0.0000000E+00;0;  8.0044232E-03;  9.3707359E+01;  0.0000000E+00; -2.4337978E-03;  1.0000000E+02;  0.0000000E+00;  9.9923965E+01;  7.9262936E-03;  0.0000000E+00;  7.8129611E-05;  0.0000000E+00;
  1.6164461E+00;  9.9999998E-03;  1.3411598E-09;258;  6.5278816E-03;  0.0000000E+00; -2.8344079E-08;  9.9894085E+00;  4.1571870E-01; -1.1384946E+00;3;  1.2173782E-03;  0.0000000E+00; -3.2461401E-07;  0.0000000E+00;  0.0000000E+00;  0.0000000E+00;0;  8.7327641E-03;  9.2441559E+01;  0.0000000E+00; -4.9967185E-15;  1.0000000E+02;  0.0000000E+00;  9.9937332E+01;  8.6570820E-03;  0.0000000E+00;  7.5682263E-05;  0.0000000E+00;
  1.6171535E+00;  9.9999998E-03;  2.0039082E-01;259;  6.7088418E-03;  0.0000000E+00;  2.8687427E-04;  9.9892788E+00;  4.1576633E-01; -1.1523943E+00;3;  1.7596181E-03;  0.0000000E+00;  3.3873890E-03;  0.0000000E+00;  0.0000000E+00;  0.0000000E+00;0;  8.8487677E-03;  9.2432625E+01;  0.0000000E+00; -1.2725325E-03;  1.0000000E+02;  0.0000000E+00;  9.9919487E+01;  8.7407948E-03;  0.0000000E+00;  1.0797277E-04;  0.0000000E+00;
  1.6186234E+00;  9.9999998E-03;  4.0019742E-01;260;  6.7451843E-03;  0.0000000E+00;  1.5139443E-04;  9.9890919E+00;  4.1583365E-01; -1.1725049E+00;3;  3.1522703E-03;  0.0000000E+00;  3.8731012E-03;  0.0000000E+00;  0.0000000E+00;  0.0000000E+00;0;  9.0502547E-03;  9.2418152E+01;  0.0000000E+00; -5.7734004E-03;  1.0000000E+02;  0.0000000E+00;  9.9895264E+01;  8.9341318E-03;  0.0000000E+00;  1.1612278E-04;  0.0000000E+00;
  1.6185924E+00;  9.9999998E-03;  6.0001165E-01;261;  4.9043084E-03;  0.0000000E+00;  8.1143880E-05;  9.9890165E+00;  4.1575524E-01; -1.1805775E+00;3;  8.1376117E-03;  0.0000000E+00;  1.2705841E-03;  0.0000000E+00;  0.0000000E+00;  0.0000000E+00;0;  9.1015231E-03;  9.2452667E+01;  0.0000000E+00; -5.8997981E-03;  1.0000000E+02;  0.0000000E+00;  9.9896439E+01;  8.9904442E-03;  0.0000000E+00;  1.1107926E-04;  0.0000000E+00;
  1.6213119E+00;  9.9999998E-03;  8.0014461E-01;262;  5.3176032E-03;  0.0000000E+00;  6.0975042E-05;  9.9889822E+00;  4.1563267E-01; -1.1842808E+00;3;  2.0578498E-02;  0.0000000E+00; -1.2672771E-02;  0.0000000E+00;  0.0000000E+00;  0.0000000E+00;0;  9.1660609E-03;  9.2500938E+01;  0.0000000E+00;  4.8990297E-04;  1.0000000E+02;  0.0000000E+00;  9.9905426E+01;  9.0757702E-03;  0.0000000E+00;  9.0290530E-05;  0.0000000E+00;
  1.6248239E+00;  9.9999998E-03;  1.0004203E+00;263;  6.1621633E-03;  0.0000000E+00;  8.5141728E-05;  9.9888849E+00;  4.1556877E-01; -1.1947067E+00;3;  8.5254358E-03;  0.0000000E+00; -3.0337129E-02;  0.0000000E+00;  0.0000000E+00;  0.0000000E+00;0;  9.2830248E-03;  9.2528198E+01;  0.0000000E+00; -2.6620266E-03;  1.0000000E+02;  0.0000000E+00;  9.9909058E+01;  9.1997962E-03;  0.0000000E+00;  8.3228151E-05;  0.0000000E+00;
  1.8174803E+00;  9.9999998E-03;  1.1224068E-09;269;  6.4395666E-03;  0.0000000E+00; -1.2224355E-08;  9.9893503E+00;  4.2108798E-01; -1.1433321E+00;3;  8.8065554E-04;  0.0000000E+00; -1.9969985E-07;  0.0000000E+00;  0.0000000E+00;  0.0000000E+00;0;  1.0786267E-02;  9.0150513E+01;  0.0000000E+00; -1.6718916E-15;  1.0000000E+02;  0.0000000E+00;  9.9877693E+01;  1.0718160E-02;  0.0000000E+00;  6.8107081E-05;  0.0000000E+00;
  1.8181951E+00;  9.9999998E-03;  1.9990864E-01;270;  6.6792010E-03;  0.0000000E+00;  2.2130369E-04;  9.9892874E+00;  4.2100695E-01; -1.1501080E+00;3;  1.1249052E-03;  0.0000000E+00;  1.7341516E-03;  0.0000000E+00;  0.0000000E+00;  0.0000000E+00;0;  1.0857947E-02;  9.0195534E+01;  0.0000000E+00; -2.1346548E-04;  1.0000000E+02;  0.0000000E+00;  9.9866646E+01;  1.0755363E-02;  0.0000000E+00;  1.0258399E-04;  0.0000000E+00;
  1.8209180E+00;  9.9999998E-03;  3.9971495E-01;271;  7.0261899E-03;  0.0000000E+00;  1.5682488E-04;  9.9892015E+00;  4.2074803E-01; -1.1592952E+00;3;  1.3781430E-03;  0.0000000E+00;  3.3650135E-03;  0.0000000E+00;  0.0000000E+00;  0.0000000E+00;0;  1.0986979E-02;  9.0319534E+01;  0.0000000E+00; -1.0152927E-03;  1.0000000E+02;  0.0000000E+00;  9.9847801E+01;  1.0843730E-02;  0.0000000E+00;  1.4324975E-04;  0.0000000E+00;
  1.8256006E+00;  9.9999998E-03;  5.9978479E-01;272;  7.3095197E-03;  0.0000000E+00;  1.9880674E-05;  9.9892359E+00;  4.2031929E-01; -1.1555358E+00;3;  2.9926905E-03;  0.0000000E+00;  4.3304698E-03;  0.0000000E+00;  0.0000000E+00;  0.0000000E+00;0;  1.1030907E-02;  9.0506119E+01;  0.0000000E+00; -2.6449359E-03;  1.0000000E+02;  0.0000000E+00;  9.9846268E+01;  1.0916926E-02;  0.0000000E+00;  1.1398122E-04;  0.0000000E+00;
  1.8296585E+00;  9.9999998E-03;  8.0014461E-01;273;  7.4595385E-03;  0.0000000E+00;  2.5415107E-05;  9.9893360E+00;  4.1971037E-01; -1.1447443E+00;3;  7.8996355E-03;  0.0000000E+00;  2.9585799E-03;  0.0000000E+00;  0.0000000E+00;  0.0000000E+00;0;  1.0974745E-02;  9.0760277E+01;  0.0000000E+00; -4.5383209E-03;  1.0000000E+02;  0.0000000E+00;  9.9858826E+01;  1.0877864E-02;  0.0000000E+00;  9.6880780E-05;  0.0000000E+00;
  1.8323175E+00;  9.9999998E-03;  1.0006227E+00;274;  7.8313444E-03;  0.0000000E+00;  7.4602416E-05;  9.9895220E+00;  4.1898945E-01; -1.1247538E+00;3;  7.4250600E-03;  0.0000000E+00; -5.1585888E-03;  0.0000000E+00;  0.0000000E+00;  0.0000000E+00;0;  1.0821109E-02;  9.1070709E+01;  0.0000000E+00; -4.3778769E-03;  1.0000000E+02;  0.0000000E+00;  9.9865479E+01;  1.0727189E-02;  0.0000000E+00;  9.3920207E-05;  0.0000000E+00;
  2.0218039E+00;  9.9999998E-03;  3.0511774E-10;280;  6.4543448E-03;  0.0000000E+00; -5.1146025E-09;  9.9888287E+00;  4.2749313E-01; -1.1960933E+00;3;  5.4803310E-04;  0.0000000E+00;  1.2991164E-07;  0.0000000E+00;  0.0000000E+00;  0.0000000E+00;0;  1.3837500E-02;  8.7591537E+01;  0.0000000E+00; -2.2742640E-14;  1.0000000E+02;  0.0000000E+00;  9.9728745E+01;  1.3753325E-02;  0.0000000E+00;  8.4174993E-05;  0.0000000E+00;
  2.0228105E+00;  9.9999998E-03;  1.9934803E-01;281;  6.6224020E-03;  0.0000000E+00; -6.0743947E-05;  9.9888735E+00;  4.2724645E-01; -1.1912839E+00;3;  6.1335717E-04;  0.0000000E+00;  4.9417268E-04;  0.0000000E+00;  0.0000000E+00;  0.0000000E+00;0;  1.3800251E-02;  8.7695206E+01;  0.0000000E+00; -7.3865536E-05;  1.0000000E+02;  0.0000000E+00;  9.9725487E+01;  1.3704403E-02;  0.0000000E+00;  9.5848431E-05;  0.0000000E+00;
  2.0272593E+00;  9.9999998E-03;  3.9902386E-01;282;  7.1909451E-03;  0.0000000E+00;  5.1658841E-05;  9.9889565E+00;  4.2654818E-01; -1.1823119E+00;3;  5.2636478E-04;  0.0000000E+00;  1.7255967E-03;  0.0000000E+00;  0.0000000E+00;  0.0000000E+00;0;  1.3758733E-02;  8.7975594E+01;  0.0000000E+00; -1.3612991E-04;  1.0000000E+02;  0.0000000E+00;  9.9735481E+01;  1.3587466E-02;  0.0000000E+00;  1.7126686E-04;  0.0000000E+00;
  2.0395746E+00;  9.9999998E-03;  5.9960306E-01;283;  8.1761209E-03;  0.0000000E+00; -2.3006740E-05;  9.9891872E+00;  4.2567828E-01; -1.1573328E+00;3;  7.6216355E-04;  0.0000000E+00;  3.0904252E-03;  0.0000000E+00;  0.0000000E+00;  0.0000000E+00;0;  1.3635235E-02;  8.8341934E+01;  0.0000000E+00; -2.6340047E-03;  1.0000000E+02;  0.0000000E+00;  9.9733734E+01;  1.3459632E-02;  0.0000000E+00;  1.7560259E-04;  0.0000000E+00;
  2.0448384E+00;  9.9999998E-03;  8.0041635E-01;284;  9.7485501E-03;  0.0000000E+00;  1.9212650E-05;  9.9895487E+00;  4.2450830E-01; -1.1184871E+00;3;  1.5765416E-03;  0.0000000E+00;  3.9679017E-03;  0.0000000E+00;  0.0000000E+00;  0.0000000E+00;0;  1.3278591E-02;  8.8824844E+01;  0.0000000E+00; -1.1245701E-02;  1.0000000E+02;  0.0000000E+00;  9.9744316E+01;  1.3118061E-02;  0.0000000E+00;  1.6052950E-04;  0.0000000E+00;
  2.0438571E+00;  9.9999998E-03;  1.0012161E+00;285;  1.0435762E-02;  0.0000000E+00;  1.0858585E-04;  9.9899397E+00;  4.2317310E-01; -1.0766630E+00;3;  4.0257284E-03;  0.0000000E+00;  2.4300101E-03;  0.0000000E+00;  0.0000000E+00;  0.0000000E+00;0;  1.2774900E-02;  8.9384613E+01;  0.0000000E+00; -1.0273425E-02;  1.0000000E+02;  0.0000000E+00;  9.9760086E+01;  1.2623747E-02;  0.0000000E+00;  1.5115239E-04;  0.0000000E+00;
  2.2422075E+00;  9.9999998E-03; -3.1575726E-09;291;  6.7800488E-03;  0.0000000E+00;  1.1366193E-08;  9.9880934E+00;  4.3427730E-01; -1.2665843E+00;3; -2.2122789E-04;  0.0000000E+00;  4.2033389E-07;  0.0000000E+00;  0.0000000E+00;  0.0000000E+00;0;  1.8096322E-02;  8.5131310E+01;  0.0000000E+00; -2.3519466E-14;  1.0000000E+02;  0.0000000E+00;  9.9415558E+01;  1.7886095E-02;  0.0000000E+00;  2.1022679E-04;  0.0000000E+00;
  2.2432477E+00;  9.9999998E-03;  1.9914418E-01;292;  6.9727316E-03;  0.0000000E+00; -2.1820454E-04;  9.9882231E+00;  4.3387038E-01; -1.2527059E+00;3; -3.5837825E-04;  0.0000000E+00;  1.2010444E-04;  0.0000000E+00;  0.0000000E+00;  0.0000000E+00;0;  1.7916797E-02;  8.5291946E+01;  0.0000000E+00; -1.6988671E-04;  1.0000000E+02;  0.0000000E+00;  9.9417328E+01;  1.7700121E-02;  0.0000000E+00;  2.1667556E-04;  0.0000000E+00;
  2.2469885E+00;  9.9999998E-03;  3.9860275E-01;293;  8.0968039E-03;  0.0000000E+00; -3.1894114E-04;  9.9885969E+00;  4.3266270E-01; -1.2127564E+00;3; -8.6454541E-04;  0.0000000E+00;  3.5284917E-04;  0.0000000E+00;  0.0000000E+00;  0.0000000E+00;0;  1.7406523E-02;  8.5734695E+01;  0.0000000E+00; -5.8045605E-04;  1.0000000E+02;  0.0000000E+00;  9.9467056E+01;  1.7192379E-02;  0.0000000E+00;  2.1414521E-04;  0.0000000E+00;
  2.2590854E+00;  9.9999998E-03;  5.9976965E-01;294;  1.4581351E-02;  0.0000000E+00; -1.1353110E-04;  9.9891310E+00;  4.3104661E-01; -1.1553348E+00;3; -4.9692192E-03;  0.0000000E+00;  5.1782955E-04;  0.0000000E+00;  0.0000000E+00;  0.0000000E+00;0;  1.6770784E-02;  8.6362137E+01;  0.0000000E+00;  2.3076912E-04;  1.0000000E+02;  0.0000000E+00;  9.9492088E+01;  1.6485997E-02;  0.0000000E+00;  2.8478680E-04;  0.0000000E+00;
  2.2635438E+00;  9.9999998E-03;  8.0121577E-01;295;  1.6800871E-02;  0.0000000E+00;  5.4860928E-05;  9.9897823E+00;  4.2933530E-01; -1.0858628E+00;3; -2.4268914E-03;  0.0000000E+00;  1.0934409E-03;  0.0000000E+00;  0.0000000E+00;  0.0000000E+00;0;  1.5830642E-02;  8.7050880E+01;  0.0000000E+00; -2.8664477E-03;  1.0000000E+02;  0.0000000E+00;  9.9507713E+01;  1.5540974E-02;  0.0000000E+00;  2.8966824E-04;  0.0000000E+00;
  2.2634587E+00;  9.9999998E-03;  1.0025109E+00;296;  1.7097130E-02;  0.0000000E+00;  2.2331618E-04;  9.9904165E+00;  4.2774445E-01; -1.0184675E+00;3;  1.2676651E-03;  0.0000000E+00;  1.1830856E-03;  0.0000000E+00;  0.0000000E+00;  0.0000000E+00;0;  1.4882448E-02;  8.7690590E+01;  0.0000000E+00; -1.1028051E-02;  1.0000000E+02;  0.0000000E+00;  9.9529770E+01;  1.4618029E-02;  0.0000000E+00;  2.6441945E-04;  0.0000000E+00;
  2.4859614E+00;  9.9999998E-03; -5.6603087E-09;302;  1.3759039E-02;  0.0000000E+00;  3.0252366E-08;  9.9877729E+00;  4.4015214E-01; -1.2799343E+00;3; -5.2296282E-03;  0.0000000E+00; -2.2258610E-07;  0.0000000E+00;  0.0000000E+00;  0.0000000E+00;0;  2.2939432E-02;  8.3327110E+01;  0.0000000E+00;  3.7194762E-14;  1.0000000E+02;  0.0000000E+00;  9.8865356E+01;  2.2327909E-02;  0.0000000E+00;  6.1152288E-04;  0.0000000E+00;
  2.4838047E+00;  9.9999998E-03;  1.9927427E-01;303;  1.3896361E-02;  0.0000000E+00; -3.0964226E-04;  9.9879580E+00;  4.3967876E-01; -1.2607850E+00;3; -4.6897554E-03;  0.0000000E+00; -3.2533688E-05;  0.0000000E+00;  0.0000000E+00;  0.0000000E+00;0;  2.2553360E-02;  8.3499763E+01;  0.0000000E+00;  3.7577844E-05;  1.0000000E+02;  0.0000000E+00;  9.8877007E+01;  2.1946942E-02;  0.0000000E+00;  6.0641853E-04;  0.0000000E+00;
  2.4791546E+00;  9.9999998E-03;  3.9899194E-01;304;  1.5138771E-02;  0.0000000E+00; -4.4980863E-04;  9.9884996E+00;  4.3827420E-01; -1.2045780E+00;3; -3.2523046E-03;  0.0000000E+00; -4.4207358E-05;  0.0000000E+00;  0.0000000E+00;  0.0000000E+00;0;  2.1457680E-02;  8.3976082E+01;  0.0000000E+00;  7.0986091E-05;  1.0000000E+02;  0.0000000E+00;  9.8963562E+01;  2.0904528E-02;  0.0000000E+00;  5.5315212E-04;  0.0000000E+00;
  2.4713883E+00;  9.9999998E-03;  6.0078436E-01;305;  1.6668886E-02;  0.0000000E+00; -1.3707097E-04;  9.9892216E+00;  4.3642077E-01; -1.1297719E+00;3; -2.1618644E-03;  0.0000000E+00; -9.7418146E-05;  0.0000000E+00;  0.0000000E+00;  0.0000000E+00;0;  1.9982331E-02;  8.4641418E+01;  0.0000000E+00;  1.1804185E-04;  1.0000000E+02;  0.0000000E+00;  9.9032646E+01;  1.9437483E-02;  0.0000000E+00;  5.4484745E-04;  0.0000000E+00;
  2.4664114E+00;  9.9999998E-03;  8.0293536E-01;306;  1.7231602E-02;  0.0000000E+00;  1.5507886E-04;  9.9900017E+00;  4.3459705E-01; -1.0484567E+00;3; -1.1728826E-04;  0.0000000E+00; -2.6608526E-05;  0.0000000E+00;  0.0000000E+00;  0.0000000E+00;0;  1.8459842E-02;  8.5335091E+01;  0.0000000E+00;  2.4851304E-04;  1.0000000E+02;  0.0000000E+00;  9.9067757E+01;  1.7981328E-02;  0.0000000E+00;  4.7851371E-04;  0.0000000E+00;
  2.4638853E+00;  9.9999998E-03;  1.0048342E+00;307;  1.7068593E-02;  0.0000000E+00;  4.5364187E-04;  9.9906473E+00;  4.3305665E-01; -9.8098350E-01;3;  3.4964574E-04;  0.0000000E+00; -2.2471214E-04;  0.0000000E+00;  0.0000000E+00;  0.0000000E+00;0;  1.7199656E-02;  8.5933685E+01;  0.0000000E+00;  1.1989215E-03;  1.0000000E+02;  0.0000000E+00;  9.9095581E+01;  1.6759502E-02;  0.0000000E+00;  4.4015457E-04;  0.0000000E+00;
  2.7161024E+00;  9.9999998E-03; -9.0745740E-09;313;  2.7599784E-02;  0.0000000E+00; -9.2209138E-09;  9.9882927E+00;  4.4494438E-01; -1.1902984E+00;3; -5.0808336E-03;  0.0000000E+00;  6.3122727E-08;  0.0000000E+00;  0.0000000E+00;  0.0000000E+00;0;  2.6308833E-02;  8.2192207E+01;  0.0000000E+00;  1.0015555E-13;  1.0000000E+02;  0.0000000E+00;  9.8094955E+01;  2.4951810E-02;  0.0000000E+00;  1.3570226E-03;  0.0000000E+00;
  2.7120214E+00;  9.9999998E-03;  1.9957022E-01;314;  2.6680848E-02;  0.0000000E+00; -2.5158215E-04;  9.9884081E+00;  4.4462752E-01; -1.1793054E+00;3; -4.8653092E-03;  0.0000000E+00; -6.4600781E-06;  0.0000000E+00;  0.0000000E+00;  0.0000000E+00;0;  2.5962323E-02;  8.2287064E+01;  0.0000000E+00;  2.7728376E-05;  1.0000000E+02;  0.0000000E+00;  9.8123703E+01;  2.4625525E-02;  0.0000000E+00;  1.3367988E-03;  0.0000000E+00;
  2.7007787E+00;  9.9999998E-03;  4.0042230E-01;315;  2.4056507E-02;  0.0000000E+00; -3.9816651E-04;  9.9887877E+00;  4.4370040E-01; -1.1426896E+00;3; -3.3474434E-03;  0.0000000E+00; -2.1229029E-05;  0.0000000E+00;  0.0000000E+00;  0.0000000E+00;0;  2.4903296E-02;  8.2556274E+01;  0.0000000E+00;  1.8224666E-04;  1.0000000E+02;  0.0000000E+00;  9.8219780E+01;  2.3702048E-02;  0.0000000E+00;  1.2012474E-03;  0.0000000E+00;
  2.6850307E+00;  9.9999998E-03;  6.0321552E-01;316;  1.8975984E-02;  0.0000000E+00;  4.1901189E-06;  9.9893188E+00;  4.4256896E-01; -1.0911921E+00;3; -2.1900360E-03;  0.0000000E+00; -4.3462007E-04;  0.0000000E+00;  0.0000000E+00;  0.0000000E+00;0;  2.3442371E-02;  8.2942520E+01;  0.0000000E+00;  1.3825501E-03;  1.0000000E+02;  0.0000000E+00;  9.8276520E+01;  2.2384455E-02;  0.0000000E+00;  1.0579155E-03;  0.0000000E+00;
  2.6736472E+00;  9.9999998E-03;  8.0607051E-01;317;  1.7188737E-02;  0.0000000E+00;  5.1467982E-04;  9.9899111E+00;  4.4140756E-01; -1.0324186E+00;3; -1.4281723E-04;  0.0000000E+00; -2.4225909E-04;  0.0000000E+00;  0.0000000E+00;  0.0000000E+00;0;  2.1919660E-02;  8.3360039E+01;  0.0000000E+00;  2.2584512E-03;  1.0000000E+02;  0.0000000E+00;  9.8310532E+01;  2.0961782E-02;  0.0000000E+00;  9.5787790E-04;  0.0000000E+00;
  2.6677284E+00;  9.9999998E-03;  1.0086330E+00;318;  1.7013550E-02;  0.0000000E+00;  9.7054971E-04;  9.9904394E+00;  4.4041413E-01; -9.7922719E-01;3;  1.9909641E-04;  0.0000000E+00; -4.3966842E-04;  0.0000000E+00;  0.0000000E+00;  0.0000000E+00;0;  2.0674612E-02;  8.3718155E+01;  0.0000000E+00;  2.9353017E-03;  1.0000000E+02;  0.0000000E+00;  9.8341522E+01;  1.9783873E-02;  0.0000000E+00;  8.9073851E-04;  0.0000000E+00;
  2.9312816E+00;  9.9999998E-03; -2.8829841E-10;324;  3.5836261E-02;  0.0000000E+00; -3.6675689E-09;  9.9889212E+00;  4.5049250E-01; -1.0836545E+00;3; -1.6116492E-03;  0.0000000E+00; -3.3516017E-08;  0.0000000E+00;  0.0000000E+00;  0.0000000E+00;0;  2.9023539E-02;  8.0972214E+01;  0.0000000E+00;  9.6748354E-14;  1.0000000E+02;  0.0000000E+00;  9.7147888E+01;  2.6597867E-02;  0.0000000E+00;  2.4256730E-03;  0.0000000E+00;
  2.9264367E+00;  9.9999998E-03;  2.0060068E-01;325;  3.4564164E-02;  0.0000000E+00; -1.9660027E-04;  9.9889650E+00;  4.5041251E-01; -1.0803961E+00;3; -1.1746529E-03;  0.0000000E+00; -3.2493190E-05;  0.0000000E+00;  0.0000000E+00;  0.0000000E+00;0;  2.8812535E-02;  8.0971817E+01;  0.0000000E+00;  2.5378842E-05;  1.0000000E+02;  0.0000000E+00;  9.7184570E+01;  2.6439492E-02;  0.0000000E+00;  2.3730430E-03;  0.0000000E+00;
  2.9155662E+00;  9.9999998E-03;  4.0349701E-01;326;  3.0894624E-02;  0.0000000E+00; -9.7893681E-05;  9.9891224E+00;  4.5031819E-01; -1.0671986E+00;3; -1.2394064E-03;  0.0000000E+00; -5.8258005E-04;  0.0000000E+00;  0.0000000E+00;  0.0000000E+00;0;  2.8191946E-02;  8.0973419E+01;  0.0000000E+00;  1.3608398E-04;  1.0000000E+02;  0.0000000E+00;  9.7225037E+01;  2.5997560E-02;  0.0000000E+00;  2.1943860E-03;  0.0000000E+00;
  2.9027503E+00;  9.9999998E-03;  6.0724503E-01;327;  2.5106624E-02;  0.0000000E+00;  6.0581387E-04;  9.9893227E+00;  4.5031628E-01; -1.0501080E+00;3; -2.5152704E-03;  0.0000000E+00; -4.2659382E-04;  0.0000000E+00;  0.0000000E+00;  0.0000000E+00;0;  2.7413569E-02;  8.0981575E+01;  0.0000000E+00;  2.6392986E-04;  1.0000000E+02;  0.0000000E+00;  9.7218323E+01;  2.5352607E-02;  0.0000000E+00;  2.0609626E-03;  0.0000000E+00;
  2.8903553E+00;  9.9999998E-03;  8.1075454E-01;328;  2.0058021E-02;  0.0000000E+00;  1.3360828E-03;  9.9895515E+00;  4.5033166E-01; -1.0300174E+00;3; -1.8003513E-03;  0.0000000E+00; -7.2825357E-04;  0.0000000E+00;  0.0000000E+00;  0.0000000E+00;0;  2.6575312E-02;  8.0987228E+01;  0.0000000E+00; -8.8970020E-04;  1.0000000E+02;  0.0000000E+00;  9.7213730E+01;  2.4615197E-02;  0.0000000E+00;  1.9601160E-03;  0.0000000E+00;
  2.8825138E+00;  9.9999998E-03;  1.0140913E+00;329;  1.6953720E-02;  0.0000000E+00;  1.9827848E-03;  9.9897442E+00;  4.5035806E-01; -1.0124803E+00;3;  2.0125890E-04;  0.0000000E+00; -9.1365702E-04;  0.0000000E+00;  0.0000000E+00;  0.0000000E+00;0;  2.5906140E-02;  8.0976616E+01;  0.0000000E+00; -2.4071469E-03;  1.0000000E+02;  0.0000000E+00;  9.7216415E+01;  2.4023019E-02;  0.0000000E+00;  1.8831218E-03;  0.0000000E+00;
  3.1403613E+00;  9.9999998E-03; -1.5043826E-08;335;  4.0397551E-02;  0.0000000E+00; -6.1782064E-09;  9.9892235E+00;  4.5799223E-01; -1.0150837E+00;3;  3.1410931E-03;  0.0000000E+00; -1.1754037E-07;  0.0000000E+00;  0.0000000E+00;  0.0000000E+00;0;  3.2274418E-02;  7.9208878E+01;  0.0000000E+00;  4.0608105E-14;  1.0000000E+02;  0.0000000E+00;  9.6089615E+01;  2.8496170E-02;  0.0000000E+00;  3.7782488E-03;  0.0000000E+00;
  3.1365490E+00;  9.9999998E-03;  2.0301124E-01;336;  3.7706438E-02;  0.0000000E+00; -3.1724991E-05;  9.9892197E+00;  4.5817548E-01; -1.0160460E+00;3;  1.4843737E-03;  0.0000000E+00;  1.1440359E-06;  0.0000000E+00;  0.0000000E+00;  0.0000000E+00;0;  3.2210443E-02;  7.9133575E+01;  0.0000000E+00; -2.2902266E-05;  1.0000000E+02;  0.0000000E+00;  9.6104515E+01;  2.8510725E-02;  0.0000000E+00;  3.6997164E-03;  0.0000000E+00;
  3.1289694E+00;  9.9999998E-03;  4.0801749E-01;337;  3.4019992E-02;  0.0000000E+00;  6.7110214E-04;  9.9891768E+00;  4.5891452E-01; -1.0213516E+00;3;  5.5753539E-04;  0.0000000E+00; -7.8611972E-04;  0.0000000E+00;  0.0000000E+00;  0.0000000E+00;0;  3.2186005E-02;  7.8922989E+01;  0.0000000E+00; -3.1743327E-04;  1.0000000E+02;  0.0000000E+00;  9.6050011E+01;  2.8601009E-02;  0.0000000E+00;  3.5849956E-03;  0.0000000E+00;
  3.1207769E+00;  9.9999998E-03;  6.1227065E-01;338;  2.9472601E-02;  0.0000000E+00;  1.8179782E-03;  9.9890509E+00;  4.5994234E-01; -1.0346730E+00;3;  5.4603280E-04;  0.0000000E+00; -6.5205636E-04;  0.0000000E+00;  0.0000000E+00;  0.0000000E+00;0;  3.2396227E-02;  7.8622566E+01;  0.0000000E+00; -1.9645505E-03;  1.0000000E+02;  0.0000000E+00;  9.5983688E+01;  2.8758690E-02;  0.0000000E+00;  3.6375385E-03;  0.0000000E+00;
  3.1163905E+00;  9.9999998E-03;  8.1643319E-01;339;  2.4532024E-02;  0.0000000E+00;  2.8640584E-03;  9.9888792E+00;  4.6109682E-01; -1.0516615E+00;3; -2.9085199E-03;  0.0000000E+00; -7.1925536E-04;  0.0000000E+00;  0.0000000E+00;  0.0000000E+00;0;  3.2816909E-02;  7.8280952E+01;  0.0000000E+00; -5.1833391E-03;  1.0000000E+02;  0.0000000E+00;  9.5919327E+01;  2.9036928E-02;  0.0000000E+00;  3.7799818E-03;  0.0000000E+00;
  3.1155748E+00;  9.9999998E-03;  1.0207125E+00;340;  2.4549613E-02;  0.0000000E+00;  3.7159643E-03;  9.9887686E+00;  4.6218306E-01; -1.0622339E+00;3; -3.8640453E-03;  0.0000000E+00; -1.1807529E-03;  0.0000000E+00;  0.0000000E+00;  0.0000000E+00;0;  3.3098970E-02;  7.7965431E+01;  0.0000000E+00; -5.4759858E-03;  1.0000000E+02;  0.0000000E+00;  9.5854790E+01;  2.9376019E-02;  0.0000000E+00;  3.7229524E-03;  0.0000000E+00;
  3.3569436E+00;  9.9999998E-03; -7.3361845E-09;346;  4.0523753E-02;  0.0000000E+00; -2.3677904E-08;  9.9891415E+00;  4.6757028E-01; -9.9428523E-01;3; -4.3978888E-04;  0.0000000E+00; -1.3769750E-07;  0.0000000E+00;  0.0000000E+00;  0.0000000E+00;0;  3.6849007E-02;  7.6866264E+01;  0.0000000E+00;  5.3998073E-14;  1.0000000E+02;  0.0000000E+00;  9.5000893E+01;  3.1469632E-02;  0.0000000E+00;  5.3793746E-03;  0.0000000E+00;
  3.3560128E+00;  9.9999998E-03;  2.0674673E-01;347;  3.9560758E-02;  0.0000000E+00;  9.5761725E-04;  9.9890766E+00;  4.6800876E-01; -1.0002724E+00;3; -1.1363028E-03;  0.0000000E+00; -1.7561109E-04;  0.0000000E+00;  0.0000000E+00;  0.0000000E+00;0;  3.7050370E-02;  7.6750809E+01;  0.0000000E+00;  7.8094236E-05;  1.0000000E+02;  0.0000000E+00;  9.4965034E+01;  3.1671479E-02;  0.0000000E+00;  5.3788899E-03;  0.0000000E+00;
  3.3530138E+00;  9.9999998E-03;  4.1221356E-01;348;  3.6813732E-02;  0.0000000E+00;  2.3062383E-03;  9.9888716E+00;  4.6913323E-01; -1.0193553E+00;3; -2.6297730E-03;  0.0000000E+00; -1.8599172E-03;  0.0000000E+00;  0.0000000E+00;  0.0000000E+00;0;  3.7684042E-02;  7.6444267E+01;  0.0000000E+00;  3.3350687E-05;  1.0000000E+02;  0.0000000E+00;  9.4885506E+01;  3.2204103E-02;  0.0000000E+00;  5.4799393E-03;  0.0000000E+00;
  3.3510516E+00;  9.9999998E-03;  6.1710626E-01;349;  3.4871224E-02;  0.0000000E+00;  3.5173174E-03;  9.9885654E+00;  4.7067967E-01; -1.0476266E+00;3; -3.6951348E-03;  0.0000000E+00; -7.0888741E-04;  0.0000000E+00;  0.0000000E+00;  0.0000000E+00;0;  3.8680200E-02;  7.6019608E+01;  0.0000000E+00; -5.7964702E-04;  1.0000000E+02;  0.0000000E+00;  9.4785416E+01;  3.3017259E-02;  0.0000000E+00;  5.6629390E-03;  0.0000000E+00;
  3.3517005E+00;  9.9999998E-03;  8.2206029E-01;350;  3.4778345E-02;  0.0000000E+00;  4.6355319E-03;  9.9882479E+00;  4.7236067E-01; -1.0766627E+00;3; -3.6131898E-03;  0.0000000E+00; -1.1706585E-03;  0.0000000E+00;  0.0000000E+00;  0.0000000E+00;0;  3.9770611E-02;  7.5564255E+01;  0.0000000E+00; -6.5063417E-04;  1.0000000E+02;  0.0000000E+00;  9.4674507E+01;  3.3958856E-02;  0.0000000E+00;  5.8117541E-03;  0.0000000E+00;
  3.3540328E+00;  9.9999998E-03;  1.0272541E+00;351;  3.5946883E-02;  0.0000000E+00;  5.8258055E-03;  9.9879675E+00;  4.7387281E-01; -1.1020684E+00;3; -3.4050446E-03;  0.0000000E+00; -1.1554497E-03;  0.0000000E+00;  0.0000000E+00;  0.0000000E+00;0;  4.0772114E-02;  7.5158157E+01;  0.0000000E+00;  8.2839275E-04;  1.0000000E+02;  0.0000000E+00;  9.4575462E+01;  3.4817763E-02;  0.0000000E+00;  5.9543508E-03;  0.0000000E+00;
  3.5850201E+00;  9.9999998E-03; -6.0842016E-09;357;  4.5340393E-02;  0.0000000E+00; -4.3389374E-08;  9.9887295E+00;  4.7812435E-01; -1.0151762E+00;3; -2.6528500E-03;  0.0000000E+00; -2.0479153E-07;  0.0000000E+00;  0.0000000E+00;  0.0000000E+00;0;  4.2881548E-02;  7.4291199E+01;  0.0000000E+00;  3.2728816E-13;  1.0000000E+02;  0.0000000E+00;  9.3996391E+01;  3.5826199E-02;  0.0000000E+00;  7.0553515E-03;  0.0000000E+00;
  3.5862517E+00;  9.9999998E-03;  2.0922707E-01;358;  4.6006795E-02;  0.0000000E+00;  2.0445059E-03;  9.9886408E+00;  4.7860223E-01; -1.0231144E+00;3; -2.1597238E-03;  0.0000000E+00;  8.9251640E-05;  0.0000000E+00;  0.0000000E+00;  0.0000000E+00;0;  4.3249149E-02;  7.4185905E+01;  0.0000000E+00;  4.1580456E-04;  1.0000000E+02;  0.0000000E+00;  9.3940872E+01;  3.6124155E-02;  0.0000000E+00;  7.1249949E-03;  0.0000000E+00;
  3.5871546E+00;  9.9999998E-03;  4.1527084E-01;359;  4.5544662E-02;  0.0000000E+00;  3.6543156E-03;  9.9884272E+00;  4.7962984E-01; -1.0422879E+00;3; -2.6413635E-03;  0.0000000E+00; -6.5449195E-04;  0.0000000E+00;  0.0000000E+00;  0.0000000E+00;0;  4.4078689E-02;  7.3921364E+01;  0.0000000E+00;  1.6413430E-03;  1.0000000E+02;  0.0000000E+00;  9.3871307E+01;  3.6789473E-02;  0.0000000E+00;  7.2892155E-03;  0.0000000E+00;
  3.6462898E+00;  9.9999998E-03;  6.2091857E-01;360;  4.5103230E-02;  0.0000000E+00;  5.0379313E-03;  9.9881468E+00;  2.4049684E-01; -1.0647691E+00;3; -2.6989256E-03;  0.0000000E+00;  1.3646896E-03;  0.0000000E+00;  0.0000000E+00;  0.0000000E+00;1;  4.6409618E-02;  2.9427264E+02;  0.0000000E+00; -3.3205714E-02;  1.0000000E+02;  0.0000000E+00;  9.3781937E+01;  3.8723748E-02;  0.0000000E+00;  7.6858685E-03;  0.0000000E+00;
  3.6481657E+00;  9.9999998E-03;  8.2665354E-01;361;  4.5469180E-02;  0.0000000E+00;  6.6042338E-03;  9.9878969E+00;  2.4120516E-01; -1.0871778E+00;3; -9.6713845E-04;  0.0000000E+00;  4.7567445E-03;  0.0000000E+00;  0.0000000E+00;  0.0000000E+00;1;  4.7540452E-02;  2.9282523E+02;  0.0000000E+00; -4.5957759E-02;  1.0000000E+02;  0.0000000E+00;  9.3689438E+01;  3.9564408E-02;  0.0000000E+00;  7.9760430E-03;  0.0000000E+00;
  3.6516411E+00;  9.9999998E-03;  1.0327317E+00;362;  4.7262784E-02;  0.0000000E+00;  8.2897544E-03;  9.9875555E+00;  2.4183096E-01; -1.1176521E+00;3; -1.7195130E-03;  0.0000000E+00; -5.9890267E-03;  0.0000000E+00;  0.0000000E+00;  0.0000000E+00;1;  4.8754297E-02;  2.9157932E+02;  0.0000000E+00; -4.0137839E-02;  1.0000000E+02;  0.0000000E+00;  9.3597427E+01;  4.0282767E-02;  0.0000000E+00;  8.4715281E-03;  0.0000000E+00;
  3.7631323E+00;  9.9999998E-03; -6.9616894E-09;368;  5.4425728E-02;  0.0000000E+00; -4.9337114E-08;  9.9883747E+00;  2.4385421E-01; -1.0404209E+00;3; -2.5735707E-03;  0.0000000E+00; -2.8011971E-07;  0.0000000E+00;  0.0000000E+00;  0.0000000E+00;1;  4.7762942E-02;  2.8807248E+02;  0.0000000E+00;  2.8862006E-12;  1.0000000E+02;  0.0000000E+00;  9.3184555E+01;  3.9557170E-02;  0.0000000E+00;  8.2057705E-03;  0.0000000E+00;
  3.8814068E+00;  9.9999998E-03;  2.0939341E-01;369;  5.5505630E-02;  0.0000000E+00;  2.5302956E-03;  9.9881830E+00;  2.4420694E-01; -1.0550150E+00;3; -1.6915274E-03;  0.0000000E+00; -1.0508989E-04;  0.0000000E+00;  0.0000000E+00;  0.0000000E+00;1;  5.0785489E-02;  2.8743298E+02;  0.0000000E+00; -3.4011677E-03;  1.0000000E+02;  0.0000000E+00;  9.3117599E+01;  4.1895263E-02;  0.0000000E+00;  8.8902256E-03;  0.0000000E+00;
  3.8844161E+00;  9.9999998E-03;  4.1669008E-01;370;  5.6579512E-02;  0.0000000E+00;  4.3402654E-03;  9.9881096E+00;  2.4449992E-01; -1.0615083E+00;3; -1.1822366E-03;  0.0000000E+00;  9.3983486E-05;  0.0000000E+00;  0.0000000E+00;  0.0000000E+00;1;  5.1165961E-02;  2.8686389E+02;  0.0000000E+00; -1.5058223E-02;  1.0000000E+02;  0.0000000E+00;  9.3078690E+01;  4.2227492E-02;  0.0000000E+00;  8.9384681E-03;  0.0000000E+00;
  3.8863225E+00;  9.9999998E-03;  6.2341219E-01;371;  5.6862324E-02;  0.0000000E+00;  6.2441672E-03;  9.9879780E+00;  2.4485201E-01; -1.0732349E+00;3; -9.8497851E-04;  0.0000000E+00; -3.1262811E-04;  0.0000000E+00;  0.0000000E+00;  0.0000000E+00;1;  5.1770858E-02;  2.8618042E+02;  0.0000000E+00; -3.1869240E-02;  1.0000000E+02;  0.0000000E+00;  9.3030807E+01;  4.2594831E-02;  0.0000000E+00;  9.1760252E-03;  0.0000000E+00;
  3.8879471E+00;  9.9999998E-03;  8.3002186E-01;372;  5.7017867E-02;  0.0000000E+00;  7.6901377E-03;  9.9879322E+00;  2.4518429E-01; -1.0772507E+00;3; -7.0291443E-04;  0.0000000E+00;  2.3698423E-03;  0.0000000E+00;  0.0000000E+00;  0.0000000E+00;1;  5.2038331E-02;  2.8553412E+02;  0.0000000E+00; -3.8652986E-02;  1.0000000E+02;  0.0000000E+00;  9.2987671E+01;  4.2925190E-02;  0.0000000E+00;  9.1131395E-03;  0.0000000E+00;
  3.8903039E+00;  9.9999998E-03;  1.0368327E+00;373;  5.8256943E-02;  0.0000000E+00;  9.4153825E-03;  9.9878378E+00;  2.4545680E-01; -1.0856701E+00;3;  1.9310901E-04;  0.0000000E+00; -2.0445907E-03;  0.0000000E+00;  0.0000000E+00;  0.0000000E+00;1;  5.2395403E-02;  2.8501398E+02;  0.0000000E+00; -1.7237961E-02;  1.0000000E+02;  0.0000000E+00;  9.2948685E+01;  4.3160129E-02;  0.0000000E+00;  9.2352750E-03;  0.0000000E+00;
  4.0048037E+00;  9.9999998E-03; -4.8803841E-09;379;  6.6073619E-02;  0.0000000E+00; -3.6330061E-08;  9.9880877E+00;  2.4781100E-01; -1.0618192E+00;3; -1.5856962E-03;  0.0000000E+00; -3.6491863E-07;  0.0000000E+00;  0.0000000E+00;  0.0000000E+00;1;  5.3339086E-02;  2.8083276E+02;  0.0000000E+00;  3.0576676E-12;  1.0000000E+02;  0.0000000E+00;  9.2552223E+01;  4.3917030E-02;  0.0000000E+00;  9.4220564E-03;  0.0000000E+00;
  4.1229811E+00;  9.9999998E-03;  2.0764524E-01;380;  6.7310184E-02;  0.0000000E+00;  2.2798884E-03;  9.9880352E+00;  2.4808002E-01; -1.0654678E+00;3; -6.1969965E-04;  0.0000000E+00; -1.8870091E-04;  0.0000000E+00;  0.0000000E+00;  0.0000000E+00;1;  5.5404518E-02;  2.8027438E+02;  0.0000000E+00; -9.8167278E-04;  1.0000000E+02;  0.0000000E+00;  9.2534805E+01;  4.5559347E-02;  0.0000000E+00;  9.8451711E-03;  0.0000000E+00;
  4.1255198E+00;  9.9999998E-03;  4.1691115E-01;381;  6.8374664E-02;  0.0000000E+00;  4.6589575E-03;  9.9880495E+00;  2.4813220E-01; -1.0641767E+00;3;  1.3675616E-05;  0.0000000E+00;  3.8318150E-04;  0.0000000E+00;  0.0000000E+00;  0.0000000E+00;1;  5.5379264E-02;  2.8019226E+02;  0.0000000E+00; -5.1230416E-03;  1.0000000E+02;  0.0000000E+00;  9.2523026E+01;  4.5500897E-02;  0.0000000E+00;  9.8783681E-03;  0.0000000E+00;
  4.1266036E+00;  9.9999998E-03;  6.2485963E-01;382;  6.8479940E-02;  0.0000000E+00;  6.5856054E-03;  9.9880733E+00;  2.4817486E-01; -1.0620464E+00;3;  2.8144929E-04;  0.0000000E+00; -1.2779001E-05;  0.0000000E+00;  0.0000000E+00;  0.0000000E+00;1;  5.5282380E-02;  2.8012457E+02;  0.0000000E+00; -1.2257211E-02;  1.0000000E+02;  0.0000000E+00;  9.2513931E+01;  4.5400631E-02;  0.0000000E+00;  9.8817507E-03;  0.0000000E+00;
  4.1269641E+00;  9.9999998E-03;  8.3235353E-01;383;  6.8121336E-02;  0.0000000E+00;  8.3852001E-03;  9.9881048E+00;  2.4819720E-01; -1.0592310E+00;3;  4.1939336E-04;  0.0000000E+00; -3.4384179E-04;  0.0000000E+00;  0.0000000E+00;  0.0000000E+00;1;  5.5108789E-02;  2.8009000E+02;  0.0000000E+00; -1.5474521E-02;  1.0000000E+02;  0.0000000E+00;  9.2510040E+01;  4.5281727E-02;  0.0000000E+00;  9.8270634E-03;  0.0000000E+00;
  4.1272593E+00;  9.9999998E-03;  1.0398054E+00;384;  6.7967854E-02;  0.0000000E+00;  1.0285255E-02;  9.9881382E+00;  2.4820127E-01; -1.0562568E+00;3;  7.3940738E-04;  0.0000000E+00;  1.4568026E-03;  0.0000000E+00;  0.0000000E+00;  0.0000000E+00;1;  5.5033140E-02;  2.8008041E+02;  0.0000000E+00; -5.6690732E-03;  1.0000000E+02;  0.0000000E+00;  9.2509979E+01;  4.5160275E-02;  0.0000000E+00;  9.8728631E-03;  0.0000000E+00;
  4.0106206E+00;  9.9999998E-03;  8.3218235E-01;551;  6.7813374E-02;  0.0000000E+00;  8.1126485E-03;  9.9880457E+00;  2.4798091E-01; -1.0654758E+00;3; -2.5855445E-05;  0.0000000E+00;  1.5961862E-03; -4.3160208E+08; -4.3160208E+08; -4.3160208E+08;1;  5.3657010E-02;  2.8046658E+02;  0.0000000E+00; -1.0117331E-02;  1.0000000E+02;  0.0000000E+00;  9.2546074E+01;  4.4113386E-02;  0.0000000E+00;  9.5436256E-03;  0.0000000E+00;
  4.0109515E+00;  9.9999998E-03;  1.0395874E+00;552;  6.7827463E-02;  0.0000000E+00;  9.8167202E-03;  9.9880629E+00;  2.4800380E-01; -1.0639316E+00;3;  6.0909602E-04;  0.0000000E+00;  1.1196599E-04; -4.3160208E+08; -4.3160208E+08; -4.3160208E+08;1;  5.3519879E-02;  2.8042648E+02;  0.0000000E+00; -3.7433172E-03;  1.0000000E+02;  0.0000000E+00;  9.2542046E+01;  4.4088379E-02;  0.0000000E+00;  9.4315009E-03;  0.0000000E+00;
  4.0102401E+00;  9.9999998E-03;  6.2475890E-01;554;  6.8140574E-02;  0.0000000E+00;  6.4634029E-03;  9.9880314E+00;  2.4794146E-01; -1.0667548E+00;3; -2.0521090E-04;  0.0000000E+00;  5.9901678E-04; -4.3160208E+08; -4.3160208E+08; -4.3160208E+08;1;  5.3683355E-02;  2.8053967E+02;  0.0000000E+00; -8.7331338E-03;  1.0000000E+02;  0.0000000E+00;  9.2551216E+01;  4.4097923E-02;  0.0000000E+00;  9.5854308E-03;  0.0000000E+00;
  4.0091453E+00;  9.9999998E-03;  4.1699272E-01;556;  6.8012677E-02;  0.0000000E+00;  4.6716915E-03;  9.9880524E+00;  2.4788408E-01; -1.0649071E+00;3; -4.9014832E-04;  0.0000000E+00; -7.2907779E-04; -4.3160208E+08; -4.3160208E+08; -4.3160208E+08;1;  5.3561036E-02;  2.8065067E+02;  0.0000000E+00; -3.9494908E-03;  1.0000000E+02;  0.0000000E+00;  9.2557259E+01;  4.4044778E-02;  0.0000000E+00;  9.5162587E-03;  0.0000000E+00;
  4.1211681E+00;  9.9999998E-03; -1.6047014E-09;558;  6.6447690E-02;  0.0000000E+00; -2.4833447E-08;  9.9880247E+00;  2.4809922E-01; -1.0663826E+00;3; -1.1427738E-03;  0.0000000E+00; -4.1586731E-07; -4.3160208E+08; -4.3160208E+08; -4.3160208E+08;1;  5.5429593E-02;  2.8031689E+02;  0.0000000E+00;  2.1857494E-12;  1.0000000E+02;  0.0000000E+00;  9.2506424E+01;  4.5571893E-02;  0.0000000E+00;  9.8576974E-03;  0.0000000E+00;
  4.0066004E+00;  9.9999998E-03;  2.0779780E-01;559;  6.6906154E-02;  0.0000000E+00;  2.7645798E-03;  9.9880724E+00;  2.4780513E-01; -1.0631279E+00;3; -1.1444562E-03;  0.0000000E+00;  4.3325222E-04; -4.3160208E+08; -4.3160208E+08; -4.3160208E+08;1;  5.3439241E-02;  2.8077283E+02;  0.0000000E+00; -8.1733603E-04;  1.0000000E+02;  0.0000000E+00;  9.2576012E+01;  4.3964714E-02;  0.0000000E+00;  9.4745280E-03;  0.0000000E+00;
  3.7739365E+00;  9.9999998E-03;  1.0366013E+00;567;  5.7925455E-02;  0.0000000E+00;  8.7978961E-03;  9.9878111E+00;  2.4526353E-01; -1.0905885E+00;3; -6.1399961E-04;  0.0000000E+00;  2.6738057E-03; -4.3160208E+08; -4.3160208E+08; -4.3160208E+08;1;  5.0405063E-02;  2.8534509E+02;  0.0000000E+00; -1.2208461E-02;  1.0000000E+02;  0.0000000E+00;  9.2986885E+01;  4.1730471E-02;  0.0000000E+00;  8.6745899E-03;  0.0000000E+00;
  3.7715673E+00;  9.9999998E-03;  8.2987285E-01;569;  5.6581527E-02;  0.0000000E+00;  7.2716544E-03;  9.9878616E+00;  2.4498744E-01; -1.0861191E+00;3; -2.0815397E-03;  0.0000000E+00; -2.3345496E-03; -4.3160208E+08; -4.3160208E+08; -4.3160208E+08;1;  5.0029788E-02;  2.8588791E+02;  0.0000000E+00; -3.1492691E-02;  1.0000000E+02;  0.0000000E+00;  9.3020645E+01;  4.1338962E-02;  0.0000000E+00;  8.6908275E-03;  0.0000000E+00;
  3.7699628E+00;  9.9999998E-03;  6.2329590E-01;573;  5.6508567E-02;  0.0000000E+00;  5.6696516E-03;  9.9880428E+00;  2.4464323E-01; -1.0699488E+00;3; -2.0112251E-03;  0.0000000E+00;  1.1733321E-03; -4.3160208E+08; -4.3160208E+08; -4.3160208E+08;1;  4.9298871E-02;  2.8655609E+02;  0.0000000E+00; -2.7643042E-02;  1.0000000E+02;  0.0000000E+00;  9.3068588E+01;  4.0824402E-02;  0.0000000E+00;  8.4744683E-03;  0.0000000E+00;
  3.7680771E+00;  9.9999998E-03;  4.1671145E-01;575;  5.6342270E-02;  0.0000000E+00;  4.2897211E-03;  9.9881735E+00;  2.4429360E-01; -1.0583184E+00;3; -1.8720755E-03;  0.0000000E+00; -9.8766957E-04; -4.3160208E+08; -4.3160208E+08; -4.3160208E+08;1;  4.8685189E-02;  2.8725549E+02;  0.0000000E+00; -1.3670434E-02;  1.0000000E+02;  0.0000000E+00;  9.3110817E+01;  4.0269751E-02;  0.0000000E+00;  8.4154382E-03;  0.0000000E+00;
  3.7650867E+00;  9.9999998E-03;  2.0943083E-01;577;  5.5365440E-02;  0.0000000E+00;  2.7296604E-03;  9.9883051E+00;  2.4399294E-01; -1.0466099E+00;3; -2.1186536E-03;  0.0000000E+00;  3.7883988E-04; -4.3160208E+08; -4.3160208E+08; -4.3160208E+08;1;  4.8084833E-02;  2.8783444E+02;  0.0000000E+00; -3.1781311E-03;  1.0000000E+02;  0.0000000E+00;  9.3154251E+01;  3.9779618E-02;  0.0000000E+00;  8.3052125E-03;  0.0000000E+00;
  3.8794506E+00;  9.9999998E-03; -7.6999003E-09;580;  5.4538380E-02;  0.0000000E+00; -5.1755439E-08;  9.9882212E+00;  2.4407050E-01; -1.0516431E+00;3; -2.2028249E-03;  0.0000000E+00; -3.2851045E-07; -4.3160208E+08; -4.3160208E+08; -4.3160208E+08;1;  5.0585806E-02;  2.8766833E+02;  0.0000000E+00;  3.2971781E-12;  1.0000000E+02;  0.0000000E+00;  9.3146461E+01;  4.1741587E-02;  0.0000000E+00;  8.8442201E-03;  0.0000000E+00;
  3.5352314E+00;  9.9999998E-03;  1.0326232E+00;583;  4.6934772E-02;  0.0000000E+00;  7.2243381E-03;  9.9877853E+00;  2.4173070E-01; -1.1031244E+00;3; -4.5693526E-03;  0.0000000E+00;  3.9257072E-03; -4.3160208E+08; -4.3160208E+08; -4.3160208E+08;1;  4.5533162E-02;  2.9175989E+02;  0.0000000E+00; -3.7016656E-02;  1.0000000E+02;  0.0000000E+00;  9.3621323E+01;  3.8280342E-02;  0.0000000E+00;  7.2528203E-03;  0.0000000E+00;
  3.5317631E+00;  9.9999998E-03;  8.2664520E-01;585;  4.5220342E-02;  0.0000000E+00;  5.7970635E-03;  9.9879494E+00;  2.4114718E-01; -1.0885398E+00;3; -3.7689439E-03;  0.0000000E+00; -5.6937882E-03; -4.3160208E+08; -4.3160208E+08; -4.3160208E+08;1;  4.4562906E-02;  2.9295230E+02;  0.0000000E+00; -4.3656066E-02;  1.0000000E+02;  0.0000000E+00;  9.3694809E+01;  3.7484348E-02;  0.0000000E+00;  7.0785573E-03;  0.0000000E+00;
  3.5299008E+00;  9.9999998E-03;  6.2093544E-01;587;  4.5071188E-02;  0.0000000E+00;  4.9352744E-03;  9.9881735E+00;  2.4047062E-01; -1.0684123E+00;3; -3.4469683E-03;  0.0000000E+00; -2.1680163E-03; -4.3160208E+08; -4.3160208E+08; -4.3160208E+08;1;  4.3841626E-02;  2.9432889E+02;  0.0000000E+00; -3.2655418E-02;  1.0000000E+02;  0.0000000E+00;  9.3784935E+01;  3.6560312E-02;  0.0000000E+00;  7.2813160E-03;  0.0000000E+00;
  4.2459393E+00;  9.9999998E-03;  1.0419546E+00;546;  7.7127047E-02;  0.0000000E+00;  1.0590400E-02;  9.9882460E+00;  2.5054646E-01; -1.0460254E+00;3;  5.8457098E-04;  0.0000000E+00;  1.1660294E-03; -4.3160208E+08; -4.3160208E+08; -4.3160208E+08;1;  5.6046061E-02;  2.7587888E+02;  0.0000000E+00;  9.1200240E-04;  1.0000000E+02;  0.0000000E+00;  9.2169785E+01;  4.5975968E-02;  0.0000000E+00;  1.0070095E-02;  0.0000000E+00;
  4.2473698E+00;  9.9999998E-03;  8.3406967E-01;547;  7.7966668E-02;  0.0000000E+00;  8.6430060E-03;  9.9881887E+00;  2.5060573E-01; -1.0511116E+00;3;  4.7631367E-04;  0.0000000E+00; -2.5677578E-05; -4.3160208E+08; -4.3160208E+08; -4.3160208E+08;1;  5.6293715E-02;  2.7576968E+02;  0.0000000E+00; -1.7524499E-03;  1.0000000E+02;  0.0000000E+00;  9.2161865E+01;  4.6208650E-02;  0.0000000E+00;  1.0085065E-02;  0.0000000E+00;
  4.2488556E+00;  9.9999998E-03;  6.2600809E-01;541;  7.8872584E-02;  0.0000000E+00;  6.7708194E-03;  9.9881191E+00;  2.5068009E-01; -1.0573115E+00;3;  4.2792223E-04;  0.0000000E+00; -2.0438533E-04; -4.3160208E+08; -4.3160208E+08; -4.3160208E+08;1;  5.6654733E-02;  2.7562656E+02;  0.0000000E+00; -1.9745820E-03;  1.0000000E+02;  0.0000000E+00;  9.2153091E+01;  4.6465553E-02;  0.0000000E+00;  1.0189180E-02;  0.0000000E+00;
  4.2502365E+00;  9.9999998E-03;  4.1720024E-01;542;  7.9587214E-02;  0.0000000E+00;  4.8428923E-03;  9.9880581E+00;  2.5074980E-01; -1.0627162E+00;3;  2.4992347E-04;  0.0000000E+00;  3.1419867E-04; -4.3160208E+08; -4.3160208E+08; -4.3160208E+08;1;  5.6975074E-02;  2.7548529E+02;  0.0000000E+00; -9.2020741E-04;  1.0000000E+02;  0.0000000E+00;  9.2148361E+01;  4.6720352E-02;  0.0000000E+00;  1.0254720E-02;  0.0000000E+00;
  4.2506585E+00;  9.9999998E-03;  2.0616885E-01;391;  7.9698026E-02;  0.0000000E+00;  2.0405361E-03;  9.9880295E+00;  2.5079194E-01; -1.0652606E+00;3; -1.8679228E-04;  0.0000000E+00;  1.4473862E-04;  0.0000000E+00;  0.0000000E+00;  0.0000000E+00;1;  5.7114124E-02;  2.7537808E+02;  0.0000000E+00;  4.1314710E-05;  1.0000000E+02;  0.0000000E+00;  9.2153091E+01;  4.6923317E-02;  0.0000000E+00;  1.0190807E-02;  0.0000000E+00;
  4.2515259E+00;  9.9999998E-03;  3.7213987E-09;390;  8.0313906E-02;  0.0000000E+00; -2.8889848E-09;  9.9880037E+00;  2.5091085E-01; -1.0675379E+00;3; -6.0236850E-04;  0.0000000E+00; -4.3567670E-07;  0.0000000E+00;  0.0000000E+00;  0.0000000E+00;1;  5.7249248E-02;  2.7533282E+02;  0.0000000E+00;  2.7461310E-13;  1.0000000E+02;  0.0000000E+00;  9.2080917E+01;  4.7010064E-02;  0.0000000E+00;  1.0239185E-02;  0.0000000E+00;
  4.3622184E+00;  9.9999998E-03;  1.0421454E+00;395;  7.7198781E-02;  0.0000000E+00;  1.0813937E-02;  9.9882679E+00;  2.5075930E-01; -1.0436792E+00;3;  3.8046765E-04;  0.0000000E+00;  1.4443824E-03;  0.0000000E+00;  0.0000000E+00;  0.0000000E+00;1;  5.7141908E-02;  2.7550433E+02;  0.0000000E+00; -5.2467063E-03;  1.0000000E+02;  0.0000000E+00;  9.2138618E+01;  4.6911955E-02;  0.0000000E+00;  1.0229952E-02;  0.0000000E+00;
  4.3636703E+00;  9.9999998E-03;  8.3421320E-01;394;  7.8078739E-02;  0.0000000E+00;  8.8392133E-03;  9.9882116E+00;  2.5081381E-01; -1.0487127E+00;3;  3.2814813E-04;  0.0000000E+00;  1.0802237E-03;  0.0000000E+00;  0.0000000E+00;  0.0000000E+00;1;  5.7425760E-02;  2.7540390E+02;  0.0000000E+00; -5.1881084E-03;  1.0000000E+02;  0.0000000E+00;  9.2131966E+01;  4.7128934E-02;  0.0000000E+00;  1.0296825E-02;  0.0000000E+00;
  4.3651776E+00;  9.9999998E-03;  6.2609267E-01;393;  7.9036616E-02;  0.0000000E+00;  6.8983813E-03;  9.9881392E+00;  2.5088596E-01; -1.0551248E+00;3;  3.1986894E-04;  0.0000000E+00;  1.7645967E-04;  0.0000000E+00;  0.0000000E+00;  0.0000000E+00;1;  5.7795309E-02;  2.7526501E+02;  0.0000000E+00; -2.8413045E-03;  1.0000000E+02;  0.0000000E+00;  9.2123497E+01;  4.7381077E-02;  0.0000000E+00;  1.0414230E-02;  0.0000000E+00;
  4.3666182E+00;  9.9999998E-03;  4.1716108E-01;392;  7.9869017E-02;  0.0000000E+00;  4.8667002E-03;  9.9880743E+00;  2.5095302E-01; -1.0609007E+00;3;  2.2258819E-04;  0.0000000E+00;  7.3721533E-04;  0.0000000E+00;  0.0000000E+00;  0.0000000E+00;1;  5.8132231E-02;  2.7512466E+02;  0.0000000E+00; -8.1159198E-04;  1.0000000E+02;  0.0000000E+00;  9.2120590E+01;  4.7642320E-02;  0.0000000E+00;  1.0489910E-02;  0.0000000E+00;
  4.4998188E+00;  9.9999998E-03;  1.8026793E-08;401;  9.6150964E-02;  0.0000000E+00;  3.5461227E-08;  9.9880199E+00;  2.5319934E-01; -1.0654567E+00;3;  1.1854446E-03;  0.0000000E+00; -5.4638105E-07;  0.0000000E+00;  0.0000000E+00;  0.0000000E+00;1;  5.9406951E-02;  2.7131906E+02;  0.0000000E+00; -8.1976217E-13;  1.0000000E+02;  0.0000000E+00;  9.1762856E+01;  4.8712976E-02;  0.0000000E+00;  1.0693974E-02;  0.0000000E+00;
  4.4946537E+00;  9.9999998E-03;  2.0688467E-01;402;  9.2838570E-02;  0.0000000E+00;  1.3116434E-03;  9.9880629E+00;  2.5307703E-01; -1.0616479E+00;3;  2.0199695E-04;  0.0000000E+00; -4.0053541E-04;  0.0000000E+00;  0.0000000E+00;  0.0000000E+00;1;  5.9162222E-02;  2.7136670E+02;  0.0000000E+00;  1.3205924E-04;  1.0000000E+02;  0.0000000E+00;  9.1835991E+01;  4.8603725E-02;  0.0000000E+00;  1.0558498E-02;  0.0000000E+00;
  4.4901371E+00;  9.9999998E-03;  4.1837606E-01;403;  9.0654723E-02;  0.0000000E+00;  5.0632232E-03;  9.9880648E+00;  2.5306520E-01; -1.0614959E+00;3;  3.5550736E-05;  0.0000000E+00;  1.3247081E-03;  0.0000000E+00;  0.0000000E+00;  0.0000000E+00;1;  5.9141781E-02;  2.7140036E+02;  0.0000000E+00;  3.6365920E-05;  1.0000000E+02;  0.0000000E+00;  9.1832726E+01;  4.8425537E-02;  0.0000000E+00;  1.0716245E-02;  0.0000000E+00;
  4.6021729E+00;  9.9999998E-03;  6.2761551E-01;404;  8.9046821E-02;  0.0000000E+00;  7.1333568E-03;  9.9881020E+00;  2.5321296E-01; -1.0580664E+00;3; -1.8941489E-04;  0.0000000E+00; -2.8048968E-05;  0.0000000E+00;  0.0000000E+00;  0.0000000E+00;1;  5.9470177E-02;  2.7116797E+02;  0.0000000E+00;  1.2879809E-03;  1.0000000E+02;  0.0000000E+00;  9.1803558E+01;  4.8751447E-02;  0.0000000E+00;  1.0718728E-02;  0.0000000E+00;
  4.5987520E+00;  9.9999998E-03;  8.3588314E-01;405;  8.7701194E-02;  0.0000000E+00;  9.1667976E-03;  9.9881258E+00;  2.5326338E-01; -1.0559497E+00;3; -1.0174625E-04;  0.0000000E+00;  2.1594914E-04;  0.0000000E+00;  0.0000000E+00;  0.0000000E+00;1;  5.9342664E-02;  2.7108624E+02;  0.0000000E+00;  4.4711740E-03;  1.0000000E+02;  0.0000000E+00;  9.1796303E+01;  4.8687086E-02;  0.0000000E+00;  1.0655579E-02;  0.0000000E+00;
  4.5964999E+00;  9.9999998E-03;  1.0440141E+00;406;  8.7340556E-02;  0.0000000E+00;  1.1222806E-02;  9.9881344E+00;  2.5332671E-01; -1.0551569E+00;3;  8.9083979E-04;  0.0000000E+00;  1.5340452E-03;  0.0000000E+00;  0.0000000E+00;  0.0000000E+00;1;  5.9299693E-02;  2.7097446E+02;  0.0000000E+00;  1.2084872E-02;  1.0000000E+02;  0.0000000E+00;  9.1788483E+01;  4.8647452E-02;  0.0000000E+00;  1.0652239E-02;  0.0000000E+00;
  4.7399173E+00;  9.9999998E-03;  1.6939797E-08;412;  1.0781919E-01;  0.0000000E+00;  6.1106824E-08;  9.9880610E+00;  2.5433269E-01; -1.0615630E+00;3;  2.2163121E-03;  0.0000000E+00; -5.3734067E-07;  0.0000000E+00;  0.0000000E+00;  0.0000000E+00;1;  5.9844777E-02;  2.6927106E+02;  0.0000000E+00; -1.1434123E-12;  1.0000000E+02;  0.0000000E+00;  9.1638435E+01;  4.9028814E-02;  0.0000000E+00;  1.0815964E-02;  0.0000000E+00;
  4.8524809E+00;  9.9999998E-03;  2.1111086E-01;413;  1.0600577E-01;  0.0000000E+00;  2.3600224E-03;  9.9881001E+00;  2.5426453E-01; -1.0580652E+00;3;  1.6518040E-03;  0.0000000E+00; -8.9947757E-04;  0.0000000E+00;  0.0000000E+00;  0.0000000E+00;1;  5.9358843E-02;  2.6938104E+02;  0.0000000E+00;  8.7711908E-04;  1.0000000E+02;  0.0000000E+00;  9.1651016E+01;  4.8650533E-02;  0.0000000E+00;  1.0708309E-02;  0.0000000E+00;
  4.8460870E+00;  9.9999998E-03;  4.2074224E-01;414;  1.0231712E-01;  0.0000000E+00;  5.1813931E-03;  9.9880371E+00;  2.5443754E-01; -1.0636321E+00;3;  3.8360382E-04;  0.0000000E+00; -1.3731307E-04;  0.0000000E+00;  0.0000000E+00;  0.0000000E+00;1;  5.9703447E-02;  2.6905603E+02;  0.0000000E+00;  3.5083874E-03;  1.0000000E+02;  0.0000000E+00;  9.1636070E+01;  4.8933364E-02;  0.0000000E+00;  1.0770083E-02;  0.0000000E+00;
  4.8411317E+00;  9.9999998E-03;  6.2907565E-01;415;  9.9866375E-02;  0.0000000E+00;  7.2679082E-03;  9.9879770E+00;  2.5468853E-01; -1.0689868E+00;3; -1.2586769E-04;  0.0000000E+00;  3.0355158E-04;  0.0000000E+00;  0.0000000E+00;  0.0000000E+00;1;  6.0025837E-02;  2.6861426E+02;  0.0000000E+00;  5.7410328E-03;  1.0000000E+02;  0.0000000E+00;  9.1604645E+01;  4.9255516E-02;  0.0000000E+00;  1.0770321E-02;  0.0000000E+00;
  4.8381138E+00;  9.9999998E-03;  8.3698666E-01;416;  9.8583728E-02;  0.0000000E+00;  9.3132304E-03;  9.9879103E+00;  2.5495493E-01; -1.0749235E+00;3; -7.3669573E-05;  0.0000000E+00;  6.1888641E-05;  0.0000000E+00;  0.0000000E+00;  0.0000000E+00;1;  6.0372200E-02;  2.6815292E+02;  0.0000000E+00;  1.1271243E-02;  1.0000000E+02;  0.0000000E+00;  9.1570557E+01;  4.9534094E-02;  0.0000000E+00;  1.0838105E-02;  0.0000000E+00;
  4.8371429E+00;  9.9999998E-03;  1.0450199E+00;417;  9.8946393E-02;  0.0000000E+00;  1.1342145E-02;  9.9878578E+00;  2.5517991E-01; -1.0795876E+00;3;  1.4055184E-03;  0.0000000E+00;  1.3952286E-03;  0.0000000E+00;  0.0000000E+00;  0.0000000E+00;1;  6.0652912E-02;  2.6775812E+02;  0.0000000E+00;  3.3902995E-02;  1.0000000E+02;  0.0000000E+00;  9.1542183E+01;  4.9775533E-02;  0.0000000E+00;  1.0877380E-02;  0.0000000E+00;
  4.9721546E+00;  9.9999998E-03;  2.1104666E-08;423;  1.1460311E-01;  0.0000000E+00;  1.0308694E-07;  9.9881496E+00;  2.5357133E-01; -1.0536313E+00;3;  1.4497703E-03;  0.0000000E+00; -1.5623496E-07;  0.0000000E+00;  0.0000000E+00;  0.0000000E+00;1;  5.8379531E-02;  2.7046457E+02;  0.0000000E+00; -8.9618655E-13;  1.0000000E+02;  0.0000000E+00;  9.1785095E+01;  4.7804087E-02;  0.0000000E+00;  1.0575445E-02;  0.0000000E+00;
  5.0895853E+00;  9.9999998E-03;  2.1540710E-01;424;  1.1508686E-01;  0.0000000E+00;  3.6883350E-03;  9.9881449E+00;  2.5346294E-01; -1.0540338E+00;3;  1.8408748E-03;  0.0000000E+00; -1.0615354E-03;  0.0000000E+00;  0.0000000E+00;  0.0000000E+00;1;  5.7220727E-02;  2.7083331E+02;  0.0000000E+00; -3.2264510E-05;  1.0000000E+02;  0.0000000E+00;  9.1738594E+01;  4.6818968E-02;  0.0000000E+00;  1.0401759E-02;  0.0000000E+00;
  5.0897379E+00;  9.9999998E-03;  4.2212218E-01;425;  1.1424872E-01;  0.0000000E+00;  5.2528721E-03;  9.9880285E+00;  2.5376111E-01; -1.0643673E+00;3;  1.3183260E-03;  0.0000000E+00; -3.3217158E-05;  0.0000000E+00;  0.0000000E+00;  0.0000000E+00;1;  5.7779115E-02;  2.7025473E+02;  0.0000000E+00; -3.8079561E-03;  1.0000000E+02;  0.0000000E+00;  9.1716881E+01;  4.7385097E-02;  0.0000000E+00;  1.0394018E-02;  0.0000000E+00;
  5.0914707E+00;  9.9999998E-03;  6.2926018E-01;426;  1.1435276E-01;  0.0000000E+00;  7.1212146E-03;  9.9878931E+00;  2.5415078E-01; -1.0763966E+00;3;  1.3248455E-03;  0.0000000E+00;  9.2077797E-04;  0.0000000E+00;  0.0000000E+00;  0.0000000E+00;1;  5.8444634E-02;  2.6955719E+02;  0.0000000E+00; -1.0692406E-02;  1.0000000E+02;  0.0000000E+00;  9.1670853E+01;  4.7983736E-02;  0.0000000E+00;  1.0460897E-02;  0.0000000E+00;
  5.0959539E+00;  9.9999998E-03;  8.3658391E-01;427;  1.1490305E-01;  0.0000000E+00;  9.0489630E-03;  9.9877443E+00;  2.5454012E-01; -1.0896442E+00;3;  1.1399278E-03;  0.0000000E+00; -6.0817675E-04;  0.0000000E+00;  0.0000000E+00;  0.0000000E+00;1;  5.9076693E-02;  2.6887335E+02;  0.0000000E+00; -7.6831224E-05;  1.0000000E+02;  0.0000000E+00;  9.1620880E+01;  4.8450898E-02;  0.0000000E+00;  1.0625794E-02;  0.0000000E+00;
  5.0999813E+00;  9.9999998E-03;  1.0442982E+00;428;  1.1497440E-01;  0.0000000E+00;  1.0945472E-02;  9.9876633E+00;  2.5485516E-01; -1.0968506E+00;3;  3.8399041E-04;  0.0000000E+00;  8.0973090E-04;  0.0000000E+00;  0.0000000E+00;  0.0000000E+00;1;  5.9453711E-02;  2.6831985E+02;  0.0000000E+00; -2.1516143E-03;  1.0000000E+02;  0.0000000E+00;  9.1581879E+01;  4.8801865E-02;  0.0000000E+00;  1.0651844E-02;  0.0000000E+00;
  5.2123218E+00;  9.9999998E-03;  8.4756415E-09;434;  1.2376677E-01;  0.0000000E+00;  1.2888331E-07;  9.9883232E+00;  2.5011480E-01; -1.0381221E+00;3;  1.7352380E-03;  0.0000000E+00;  7.6671131E-07;  0.0000000E+00;  0.0000000E+00;  0.0000000E+00;1;  5.4659989E-02;  2.7653549E+02;  0.0000000E+00;  9.3076881E-13;  1.0000000E+02;  0.0000000E+00;  9.2270721E+01;  4.4793420E-02;  0.0000000E+00;  9.8665701E-03;  0.0000000E+00;
  5.3360748E+00;  9.9999998E-03;  2.1427935E-01;435;  1.2553595E-01;  0.0000000E+00;  2.7258552E-03;  9.9883833E+00;  2.4981600E-01; -1.0328144E+00;3;  1.2987398E-03;  0.0000000E+00; -1.4642157E-03;  0.0000000E+00;  0.0000000E+00;  0.0000000E+00;1;  5.2164320E-02;  2.7730923E+02;  0.0000000E+00; -2.9244039E-02;  1.0000000E+02;  0.0000000E+00;  9.2234909E+01;  4.2765860E-02;  0.0000000E+00;  9.3984613E-03;  0.0000000E+00;
  5.3494601E+00;  9.9999998E-03;  4.2021841E-01;436;  1.3177392E-01;  0.0000000E+00;  4.4410247E-03;  9.9882603E+00;  2.5007871E-01; -1.0437300E+00;3;  4.0179691E-03;  0.0000000E+00; -2.1428976E-05;  0.0000000E+00;  0.0000000E+00;  0.0000000E+00;1;  5.2447610E-02;  2.7680478E+02;  0.0000000E+00; -6.3472874E-02;  1.0000000E+02;  0.0000000E+00;  9.2207069E+01;  4.3039121E-02;  0.0000000E+00;  9.4084879E-03;  0.0000000E+00;
  5.3590646E+00;  9.9999998E-03;  6.2692821E-01;437;  1.3460155E-01;  0.0000000E+00;  6.1627319E-03;  9.9880695E+00;  2.5053278E-01; -1.0606869E+00;3;  5.8787875E-03;  0.0000000E+00; -7.2220596E-04;  0.0000000E+00;  0.0000000E+00;  0.0000000E+00;1;  5.3093135E-02;  2.7597891E+02;  0.0000000E+00; -1.2556080E-05;  1.0000000E+02;  0.0000000E+00;  9.2145744E+01;  4.3627843E-02;  0.0000000E+00;  9.4652940E-03;  0.0000000E+00;
  5.3685207E+00;  9.9999998E-03;  8.3397835E-01;438;  1.3042207E-01;  0.0000000E+00;  7.9681361E-03;  9.9879417E+00;  2.5103495E-01; -1.0720268E+00;3;  2.5519603E-03;  0.0000000E+00; -6.2381127E-04;  0.0000000E+00;  0.0000000E+00;  0.0000000E+00;1;  5.3463150E-02;  2.7506284E+02;  0.0000000E+00;  1.8797787E-01;  1.0000000E+02;  0.0000000E+00;  9.2081047E+01;  4.3883882E-02;  0.0000000E+00;  9.5792674E-03;  0.0000000E+00;
  5.3792043E+00;  9.9999998E-03;  1.0414069E+00;439;  1.3695820E-01;  0.0000000E+00;  9.7901337E-03;  9.9876947E+00;  2.5174341E-01; -1.0940179E+00;3;  4.9652476E-03;  0.0000000E+00; -6.8279484E-04;  0.0000000E+00;  0.0000000E+00;  0.0000000E+00;1;  5.4318152E-02;  2.7378885E+02;  0.0000000E+00; -2.6014778E-01;  1.0000000E+02;  0.0000000E+00;  9.1986580E+01;  4.4671685E-02;  0.0000000E+00;  9.6464679E-03;  0.0000000E+00;
  5.4702001E+00;  9.9999998E-03; -2.0594623E-08;445;  1.3461247E-01;  0.0000000E+00;  1.1373950E-07;  9.9886894E+00;  2.4368170E-01; -1.0055711E+00;3; -8.3188596E-04;  0.0000000E+00;  2.3086905E-06;  0.0000000E+00;  0.0000000E+00;  0.0000000E+00;1;  4.7905460E-02;  2.8875351E+02;  0.0000000E+00;  9.1110507E-13;  1.0000000E+02;  0.0000000E+00;  9.3098320E+01;  3.9253183E-02;  0.0000000E+00;  8.6522792E-03;  0.0000000E+00;
  5.6089849E+00;  9.9999998E-03;  2.0881483E-01;446;  1.4380465E-01;  0.0000000E+00;  1.0146783E-03;  9.9888773E+00;  2.4353226E-01; -9.8887563E-01;3;  7.0023583E-04;  0.0000000E+00; -9.2219678E-04;  0.0000000E+00;  0.0000000E+00;  0.0000000E+00;1;  4.3591265E-02;  2.8907205E+02;  0.0000000E+00; -6.5861158E-02;  1.0000000E+02;  0.0000000E+00;  9.3114723E+01;  3.5737276E-02;  0.0000000E+00;  7.8539886E-03;  0.0000000E+00;
  5.6204953E+00;  9.9999998E-03;  4.1635966E-01;447;  1.5025108E-01;  0.0000000E+00;  2.6981486E-03;  9.9886036E+00;  2.4427466E-01; -1.0131986E+00;3;  5.4358914E-03;  0.0000000E+00; -1.4904863E-03;  0.0000000E+00;  0.0000000E+00;  0.0000000E+00;1;  4.4337317E-02;  2.8765082E+02;  0.0000000E+00; -1.8630667E-02;  1.0000000E+02;  0.0000000E+00;  9.3002686E+01;  3.6514927E-02;  0.0000000E+00;  7.8223925E-03;  0.0000000E+00;
  5.6057034E+00;  9.9999998E-03;  6.2272280E-01;448;  1.4981394E-01;  0.0000000E+00;  5.0910418E-03;  9.9881582E+00;  2.4485312E-01; -1.0527835E+00;3;  7.9531437E-03;  0.0000000E+00; -1.8265970E-03;  0.0000000E+00;  0.0000000E+00;  0.0000000E+00;1;  4.6543054E-02;  2.8652444E+02;  0.0000000E+00; -1.0214754E-01;  1.0000000E+02;  0.0000000E+00;  9.2919289E+01;  3.8166061E-02;  0.0000000E+00;  8.3769951E-03;  0.0000000E+00;
  5.6033673E+00;  9.9999998E-03;  8.2986504E-01;449;  1.4367689E-01;  0.0000000E+00;  6.6402145E-03;  9.9880962E+00;  2.4546535E-01; -1.0582947E+00;3;  1.1058223E-02;  0.0000000E+00; -7.5717638E-03;  0.0000000E+00;  0.0000000E+00;  0.0000000E+00;1;  4.6691999E-02;  2.8540335E+02;  0.0000000E+00;  1.1268487E-01;  1.0000000E+02;  0.0000000E+00;  9.2819252E+01;  3.8398061E-02;  0.0000000E+00;  8.2939388E-03;  0.0000000E+00;
  5.5836024E+00;  9.9999998E-03;  1.0367697E+00;450;  1.3688810E-01;  0.0000000E+00;  8.4701665E-03;  9.9883099E+00;  2.4510255E-01; -1.0393240E+00;3;  4.8311423E-03;  0.0000000E+00; -2.9158811E-03;  0.0000000E+00;  0.0000000E+00;  0.0000000E+00;1;  4.6533987E-02;  2.8609146E+02;  0.0000000E+00; -2.3551556E-01;  1.0000000E+02;  0.0000000E+00;  9.2874931E+01;  3.8205098E-02;  0.0000000E+00;  8.3288876E-03;  0.0000000E+00;
  5.7678418E+00;  9.9999998E-03; -1.1053750E-07;456;  1.4566077E-01;  0.0000000E+00; -1.4983092E-07;  9.9891624E+00;  4.7291577E-01; -9.6349072E-01;3;  2.5354146E-03;  0.0000000E+00;  4.5371708E-06;  0.0000000E+00;  0.0000000E+00;  0.0000000E+00;0;  3.7880652E-02;  7.5889053E+01;  0.0000000E+00; -5.3851525E-13;  1.0000000E+02;  0.0000000E+00;  9.4061661E+01;  3.0878993E-02;  0.0000000E+00;  7.0016594E-03;  0.0000000E+00;
  5.7780237E+00;  9.9999998E-03;  2.0623156E-01;457;  1.4793308E-01;  0.0000000E+00;  5.0434092E-04;  9.9890690E+00;  4.7401243E-01; -9.7181028E-01;3;  2.3595325E-03;  0.0000000E+00; -3.0126036E-03;  0.0000000E+00;  0.0000000E+00;  0.0000000E+00;0;  3.7882987E-02;  7.5573181E+01;  0.0000000E+00;  1.7992975E-02;  1.0000000E+02;  0.0000000E+00;  9.4017586E+01;  3.0997407E-02;  0.0000000E+00;  6.8855821E-03;  0.0000000E+00;
  5.7811637E+00;  9.9999998E-03;  4.1216448E-01;458;  1.5305287E-01;  0.0000000E+00;  2.6078224E-03;  9.9885139E+00;  4.7577706E-01; -1.0211453E+00;3;  6.5683462E-03;  0.0000000E+00; -1.0779253E-03;  0.0000000E+00;  0.0000000E+00;  0.0000000E+00;0;  3.9701074E-02;  7.5101067E+01;  0.0000000E+00;  3.3752721E-02;  1.0000000E+02;  0.0000000E+00;  9.3899261E+01;  3.2508582E-02;  0.0000000E+00;  7.1924920E-03;  0.0000000E+00;
  5.7748322E+00;  9.9999998E-03;  6.1816615E-01;459;  1.5134914E-01;  0.0000000E+00;  4.2040851E-03;  9.9882355E+00;  4.7687909E-01; -1.0459453E+00;3;  5.5756699E-03;  0.0000000E+00; -7.9086726E-04;  0.0000000E+00;  0.0000000E+00;  0.0000000E+00;0;  4.0918555E-02;  7.4808998E+01;  0.0000000E+00;  2.6234198E-02;  1.0000000E+02;  0.0000000E+00;  9.3823753E+01;  3.3477128E-02;  0.0000000E+00;  7.4414290E-03;  0.0000000E+00;
  5.7734556E+00;  9.9999998E-03;  8.2524443E-01;460;  1.4876723E-01;  0.0000000E+00;  5.8190566E-03;  9.9881172E+00;  4.7878170E-01; -1.0564376E+00;3;  5.4144952E-03;  0.0000000E+00; -1.6103163E-03;  0.0000000E+00;  0.0000000E+00;  0.0000000E+00;0;  4.1321442E-02;  7.4332024E+01;  0.0000000E+00;  1.6902314E-03;  1.0000000E+02;  0.0000000E+00;  9.3676407E+01;  3.3797055E-02;  0.0000000E+00;  7.5243879E-03;  0.0000000E+00;
  5.7521834E+00;  9.9999998E-03;  1.0314019E+00;461;  1.4461233E-01;  0.0000000E+00;  7.4390802E-03;  9.9883394E+00;  4.7579861E-01; -1.0366720E+00;3;  4.7403211E-03;  0.0000000E+00; -3.1507749E-03;  0.0000000E+00;  0.0000000E+00;  0.0000000E+00;0;  4.1230161E-02;  7.5101357E+01;  0.0000000E+00; -1.1911004E-02;  1.0000000E+02;  0.0000000E+00;  9.3885887E+01;  3.3828355E-02;  0.0000000E+00;  7.4018063E-03;  0.0000000E+00;
  4.9831376E+00;  9.9999998E-03;  1.0445968E+00;495;  1.1388593E-01;  0.0000000E+00;  1.1209593E-02;  9.9876690E+00;  2.5520280E-01; -1.0963421E+00;3; -3.6817128E-04;  0.0000000E+00;  1.1151604E-03; -4.3160208E+08; -4.3160208E+08; -4.3160208E+08;1;  6.0670543E-02;  2.6771820E+02;  0.0000000E+00;  4.9403944E-04;  1.0000000E+02;  0.0000000E+00;  9.1537575E+01;  4.9822822E-02;  0.0000000E+00;  1.0847721E-02;  0.0000000E+00;
  4.7205610E+00;  9.9999998E-03;  1.0450085E+00;497;  9.8231949E-02;  0.0000000E+00;  1.1350425E-02;  9.9879580E+00;  2.5514442E-01; -1.0707437E+00;3;  6.1803625E-04;  0.0000000E+00;  1.5686144E-03; -4.3160208E+08; -4.3160208E+08; -4.3160208E+08;1;  6.0389373E-02;  2.6782281E+02;  0.0000000E+00;  5.1568173E-02;  1.0000000E+02;  0.0000000E+00;  9.1547523E+01;  4.9555995E-02;  0.0000000E+00;  1.0833378E-02;  0.0000000E+00;
  4.7215490E+00;  9.9999998E-03;  8.3697063E-01;499;  9.8023146E-02;  0.0000000E+00;  9.3036229E-03;  9.9879847E+00;  2.5494289E-01; -1.0683581E+00;3; -2.7556057E-04;  0.0000000E+00;  2.4963566E-04; -4.3160208E+08; -4.3160208E+08; -4.3160208E+08;1;  6.0238484E-02;  2.6817377E+02;  0.0000000E+00;  1.7682843E-02;  1.0000000E+02;  0.0000000E+00;  9.1573158E+01;  4.9424749E-02;  0.0000000E+00;  1.0813734E-02;  0.0000000E+00;
  4.9790716E+00;  9.9999998E-03;  8.3683115E-01;501;  1.1366719E-01;  0.0000000E+00;  9.2337951E-03;  9.9877548E+00;  2.5487682E-01; -1.0887119E+00;3;  1.1232051E-04;  0.0000000E+00; -5.3049496E-04; -4.3160208E+08; -4.3160208E+08; -4.3160208E+08;1;  6.0263839E-02;  2.6828833E+02;  0.0000000E+00; -7.0939162E-03;  1.0000000E+02;  0.0000000E+00;  9.1577858E+01;  4.9478199E-02;  0.0000000E+00;  1.0785640E-02;  0.0000000E+00;
  4.7245603E+00;  9.9999998E-03;  6.2900770E-01;503;  9.9290073E-02;  0.0000000E+00;  7.2421874E-03;  9.9880142E+00;  2.5470915E-01; -1.0657593E+00;3; -3.2147471E-04;  0.0000000E+00;  7.1841950E-04; -4.3160208E+08; -4.3160208E+08; -4.3160208E+08;1;  6.0087834E-02;  2.6857367E+02;  0.0000000E+00;  7.5256312E-03;  1.0000000E+02;  0.0000000E+00;  9.1604202E+01;  4.9296495E-02;  0.0000000E+00;  1.0791338E-02;  0.0000000E+00;
  4.9746866E+00;  9.9999998E-03;  6.2942892E-01;505;  1.1327731E-01;  0.0000000E+00;  7.3610446E-03;  9.9878654E+00;  2.5447509E-01; -1.0788560E+00;3;  3.6239182E-04;  0.0000000E+00;  4.4172033E-04; -4.3160208E+08; -4.3160208E+08; -4.3160208E+08;1;  5.9771992E-02;  2.6898978E+02;  0.0000000E+00; -1.7098226E-02;  1.0000000E+02;  0.0000000E+00;  9.1629326E+01;  4.9025428E-02;  0.0000000E+00;  1.0746567E-02;  0.0000000E+00;
  4.7295184E+00;  9.9999998E-03;  4.2050076E-01;507;  1.0166898E-01;  0.0000000E+00;  5.3095515E-03;  9.9880228E+00;  2.5449306E-01; -1.0649612E+00;3; -3.3966237E-05;  0.0000000E+00;  1.1872191E-03; -4.3160208E+08; -4.3160208E+08; -4.3160208E+08;1;  6.0045741E-02;  2.6893808E+02;  0.0000000E+00;  4.1454765E-03;  1.0000000E+02;  0.0000000E+00;  9.1636215E+01;  4.9161721E-02;  0.0000000E+00;  1.0884020E-02;  0.0000000E+00;
  4.7359476E+00;  9.9999998E-03;  2.1059074E-01;509;  1.0538953E-01;  0.0000000E+00;  1.4555979E-03;  9.9880819E+00;  2.5436106E-01; -1.0597104E+00;3;  1.1052785E-03;  0.0000000E+00; -9.9229021E-04; -4.3160208E+08; -4.3160208E+08; -4.3160208E+08;1;  5.9743732E-02;  2.6918704E+02;  0.0000000E+00;  1.0513586E-03;  1.0000000E+02;  0.0000000E+00;  9.1646980E+01;  4.9062029E-02;  0.0000000E+00;  1.0681702E-02;  0.0000000E+00;
  4.8564367E+00;  9.9999998E-03;  1.7424616E-08;510;  1.0840303E-01;  0.0000000E+00;  7.5907749E-08;  9.9881134E+00;  2.5420600E-01; -1.0568448E+00;3;  2.6637623E-03;  0.0000000E+00; -4.0293727E-07; -4.3160208E+08; -4.3160208E+08; -4.3160208E+08;1;  5.9280947E-02;  2.6950027E+02;  0.0000000E+00; -9.8903123E-13;  1.0000000E+02;  0.0000000E+00;  9.1652893E+01;  4.8534840E-02;  0.0000000E+00;  1.0746105E-02;  0.0000000E+00;
  4.9732652E+00;  9.9999998E-03;  4.2207047E-01;512;  1.1373858E-01;  0.0000000E+00;  5.4721297E-03;  9.9879827E+00;  2.5408477E-01; -1.0684694E+00;3;  7.8088569E-04;  0.0000000E+00;  6.3857390E-04; -4.3160208E+08; -4.3160208E+08; -4.3160208E+08;1;  5.9190564E-02;  2.6967722E+02;  0.0000000E+00; -6.4415457E-03;  1.0000000E+02;  0.0000000E+00;  9.1678856E+01;  4.8494983E-02;  0.0000000E+00;  1.0695581E-02;  0.0000000E+00;
  4.9733710E+00;  9.9999998E-03;  2.1500875E-01;514;  1.1509534E-01;  0.0000000E+00;  2.8824112E-03;  9.9881001E+00;  2.5380275E-01; -1.0580295E+00;3;  1.9135894E-03;  0.0000000E+00; -1.4762933E-03; -4.3160208E+08; -4.3160208E+08; -4.3160208E+08;1;  5.8605082E-02;  2.7022934E+02;  0.0000000E+00; -5.7536643E-04;  1.0000000E+02;  0.0000000E+00;  9.1696968E+01;  4.8022486E-02;  0.0000000E+00;  1.0582596E-02;  0.0000000E+00;
  5.0884485E+00;  9.9999998E-03;  2.7507525E-08;515;  1.1463711E-01;  0.0000000E+00;  1.2652558E-07;  9.9882202E+00;  2.5321597E-01; -1.0473038E+00;3;  1.4852704E-03;  0.0000000E+00;  1.9262916E-07; -4.3160208E+08; -4.3160208E+08; -4.3160208E+08;1;  5.6865089E-02;  2.7107269E+02;  0.0000000E+00; -2.3883030E-13;  1.0000000E+02;  0.0000000E+00;  9.1837326E+01;  4.6572953E-02;  0.0000000E+00;  1.0292135E-02;  0.0000000E+00;
  4.4799781E+00;  9.9999998E-03;  1.0438666E+00;517;  8.6735182E-02;  0.0000000E+00;  1.1058987E-02;  9.9882145E+00;  2.5312960E-01; -1.0482063E+00;3;  3.1893890E-04;  0.0000000E+00;  1.5666337E-03; -4.3160208E+08; -4.3160208E+08; -4.3160208E+08;1;  5.8329821E-02;  2.7132205E+02;  0.0000000E+00;  2.9512288E-02;  1.0000000E+02;  0.0000000E+00;  9.1815666E+01;  4.7865711E-02;  0.0000000E+00;  1.0464111E-02;  0.0000000E+00;
  4.4823446E+00;  9.9999998E-03;  8.3576131E-01;519;  8.7445155E-02;  0.0000000E+00;  9.0270843E-03;  9.9881773E+00;  2.5309291E-01; -1.0514891E+00;3;  6.5463828E-05;  0.0000000E+00;  7.4812141E-04; -4.3160208E+08; -4.3160208E+08; -4.3160208E+08;1;  5.8518667E-02;  2.7138272E+02;  0.0000000E+00;  1.1515799E-02;  1.0000000E+02;  0.0000000E+00;  9.1820526E+01;  4.8025943E-02;  0.0000000E+00;  1.0492723E-02;  0.0000000E+00;
  4.6166587E+00;  9.9999998E-03;  1.3986726E-08;521;  9.7493783E-02;  0.0000000E+00;  4.4909928E-08;  9.9880552E+00;  2.5327328E-01; -1.0621864E+00;3;  2.3051377E-03;  0.0000000E+00; -5.7342044E-07; -4.3160208E+08; -4.3160208E+08; -4.3160208E+08;1;  5.9748121E-02;  2.7120691E+02;  0.0000000E+00; -8.5062095E-13;  1.0000000E+02;  0.0000000E+00;  9.1747635E+01;  4.8954014E-02;  0.0000000E+00;  1.0794108E-02;  0.0000000E+00;
  4.4857559E+00;  9.9999998E-03;  6.2751031E-01;522;  8.8793144E-02;  0.0000000E+00;  6.9833128E-03;  9.9881277E+00;  2.5307539E-01; -1.0558836E+00;3;  5.8578400E-05;  0.0000000E+00;  2.1747439E-04; -4.3160208E+08; -4.3160208E+08; -4.3160208E+08;1;  5.8780082E-02;  2.7140775E+02;  0.0000000E+00;  2.7420644E-03;  1.0000000E+02;  0.0000000E+00;  9.1823814E+01;  4.8219081E-02;  0.0000000E+00;  1.0561001E-02;  0.0000000E+00;
  4.6066279E+00;  9.9999998E-03;  4.1849330E-01;524;  9.1084093E-02;  0.0000000E+00;  5.0587566E-03;  9.9880743E+00;  2.5317535E-01; -1.0605000E+00;3; -5.4065571E-05;  0.0000000E+00;  6.1545125E-04; -4.3160208E+08; -4.3160208E+08; -4.3160208E+08;1;  5.9621058E-02;  2.7122009E+02;  0.0000000E+00; -6.6678025E-05;  1.0000000E+02;  0.0000000E+00;  9.1813828E+01;  4.8820946E-02;  0.0000000E+00;  1.0800114E-02;  0.0000000E+00;
  4.6113048E+00;  9.9999998E-03;  2.0705421E-01;526;  9.3634196E-02;  0.0000000E+00;  1.5605073E-03;  9.9880886E+00;  2.5316322E-01; -1.0592233E+00;3;  5.1363988E-04;  0.0000000E+00; -6.3025753E-04; -4.3160208E+08; -4.3160208E+08; -4.3160208E+08;1;  5.9565574E-02;  2.7123624E+02;  0.0000000E+00;  1.2811024E-04;  1.0000000E+02;  0.0000000E+00;  9.1817909E+01;  4.8881631E-02;  0.0000000E+00;  1.0683943E-02;  0.0000000E+00;
  5.2624855E+00;  9.9999998E-03;  1.0420644E+00;528;  1.3551043E-01;  0.0000000E+00;  1.0402897E-02;  9.9875698E+00;  2.5240400E-01; -1.1051003E+00;3;  2.5361008E-03;  0.0000000E+00; -1.4197640E-04; -4.3160208E+08; -4.3160208E+08; -4.3160208E+08;1;  5.7317480E-02;  2.7260876E+02;  0.0000000E+00; -2.6870492E-01;  1.0000000E+02;  0.0000000E+00;  9.1899742E+01;  4.7067877E-02;  0.0000000E+00;  1.0249604E-02;  0.0000000E+00;
  5.2515006E+00;  9.9999998E-03;  8.3435750E-01;530;  1.2816288E-01;  0.0000000E+00;  8.5968440E-03;  9.9877605E+00;  2.5169376E-01; -1.0881436E+00;3; -8.4424985E-04;  0.0000000E+00; -1.4832938E-03; -4.3160208E+08; -4.3160208E+08; -4.3160208E+08;1;  5.6614012E-02;  2.7388010E+02;  0.0000000E+00;  1.6216658E-01;  1.0000000E+02;  0.0000000E+00;  9.1992134E+01;  4.6385132E-02;  0.0000000E+00;  1.0228879E-02;  0.0000000E+00;
  5.2418785E+00;  9.9999998E-03;  6.2735528E-01;532;  1.3221353E-01;  0.0000000E+00;  6.7616324E-03;  9.9879217E+00;  2.5112110E-01; -1.0738364E+00;3;  2.7429040E-03;  0.0000000E+00; -4.4350571E-05; -4.3160208E+08; -4.3160208E+08; -4.3160208E+08;1;  5.6041967E-02;  2.7491278E+02;  0.0000000E+00; -1.2730296E-02;  1.0000000E+02;  0.0000000E+00;  9.2067146E+01;  4.5997314E-02;  0.0000000E+00;  1.0044652E-02;  0.0000000E+00;
  5.2326789E+00;  9.9999998E-03;  4.2082128E-01;534;  1.3037653E-01;  0.0000000E+00;  5.0849430E-03;  9.9881029E+00;  2.5065374E-01; -1.0577275E+00;3;  1.8264017E-03;  0.0000000E+00; -1.4918355E-03; -4.3160208E+08; -4.3160208E+08; -4.3160208E+08;1;  5.5352431E-02;  2.7578781E+02;  0.0000000E+00; -7.1550421E-02;  1.0000000E+02;  0.0000000E+00;  9.2120132E+01;  4.5373525E-02;  0.0000000E+00;  9.9789053E-03;  0.0000000E+00;
  4.3681297E+00;  9.9999998E-03;  1.3437148E-08;535;  8.1243686E-02;  0.0000000E+00;  2.1649734E-08;  9.9880114E+00;  2.5112584E-01; -1.0665174E+00;3;  1.6661508E-04;  0.0000000E+00; -5.0025830E-07; -4.3160208E+08; -4.3160208E+08; -4.3160208E+08;1;  5.8444887E-02;  2.7496567E+02;  0.0000000E+00; -5.6762803E-13;  1.0000000E+02;  0.0000000E+00;  9.2046371E+01;  4.7950309E-02;  0.0000000E+00;  1.0494579E-02;  0.0000000E+00;
  4.3671355E+00;  9.9999998E-03;  2.0605771E-01;537;  8.0229640E-02;  0.0000000E+00;  1.7212842E-03;  9.9880457E+00;  2.5100169E-01; -1.0634445E+00;3;  1.5322486E-05;  0.0000000E+00; -3.1656941E-04; -4.3160208E+08; -4.3160208E+08; -4.3160208E+08;1;  5.8267333E-02;  2.7501465E+02;  0.0000000E+00;  1.4826297E-04;  1.0000000E+02;  0.0000000E+00;  9.2121803E+01;  4.7855917E-02;  0.0000000E+00;  1.0411415E-02;  0.0000000E+00;
  5.2198224E+00;  9.9999998E-03;  2.1486519E-01;543;  1.2550552E-01;  0.0000000E+00;  3.9203782E-03;  9.9882345E+00;  2.5034788E-01; -1.0460173E+00;3;  1.0865772E-03;  0.0000000E+00; -3.9886311E-04; -4.3160208E+08; -4.3160208E+08; -4.3160208E+08;1;  5.4949082E-02;  2.7636441E+02;  0.0000000E+00; -3.2100048E-02;  1.0000000E+02;  0.0000000E+00;  9.2154594E+01;  4.4939715E-02;  0.0000000E+00;  1.0009368E-02;  0.0000000E+00;
  5.3285866E+00;  9.9999998E-03; -3.9939305E-10;548;  1.2378326E-01;  0.0000000E+00;  1.1821648E-07;  9.9884396E+00;  2.4961445E-01; -1.0277805E+00;3;  1.8183949E-03;  0.0000000E+00;  1.4140096E-06; -4.3160208E+08; -4.3160208E+08; -4.3160208E+08;1;  5.2061155E-02;  2.7743396E+02;  0.0000000E+00;  1.2420790E-12;  1.0000000E+02;  0.0000000E+00;  9.2343094E+01;  4.2696930E-02;  0.0000000E+00;  9.3642250E-03;  0.0000000E+00;
  5.4856849E+00;  9.9999998E-03;  8.3010125E-01;561;  1.3779888E-01;  0.0000000E+00;  7.3491936E-03;  9.9880486E+00;  2.4592838E-01; -1.0625368E+00;3;  1.3863995E-03;  0.0000000E+00; -8.3487364E-04; -4.3160208E+08; -4.3160208E+08; -4.3160208E+08;1;  5.0231878E-02;  2.8449353E+02;  0.0000000E+00;  1.0386942E-01;  1.0000000E+02;  0.0000000E+00;  9.2765060E+01;  4.1222915E-02;  0.0000000E+00;  9.0089636E-03;  0.0000000E+00;
  5.4673905E+00;  9.9999998E-03;  1.0372696E+00;563;  1.3693896E-01;  0.0000000E+00;  9.2732524E-03;  9.9878483E+00;  2.4563912E-01; -1.0803427E+00;3;  5.0092177E-03;  0.0000000E+00; -4.0037003E-03; -4.3160208E+08; -4.3160208E+08; -4.3160208E+08;1;  5.1460523E-02;  2.8503821E+02;  0.0000000E+00; -2.3086631E-01;  1.0000000E+02;  0.0000000E+00;  9.2802841E+01;  4.2267721E-02;  0.0000000E+00;  9.1928011E-03;  0.0000000E+00;
  5.4882178E+00;  9.9999998E-03;  6.2299180E-01;565;  1.4433570E-01;  0.0000000E+00;  6.8752263E-03;  9.9879074E+00;  2.4520682E-01; -1.0750958E+00;3;  1.3275972E-03;  0.0000000E+00; -4.6324283E-03; -4.3160208E+08; -4.3160208E+08; -4.3160208E+08;1;  5.0728846E-02;  2.8582074E+02;  0.0000000E+00; -1.0173714E-01;  1.0000000E+02;  0.0000000E+00;  9.2874969E+01;  4.0808935E-02;  0.0000000E+00;  9.9199107E-03;  0.0000000E+00;
  5.5041666E+00;  9.9999998E-03;  4.1663557E-01;571;  1.4973688E-01;  0.0000000E+00;  3.9636712E-03;  9.9884281E+00;  2.4462098E-01; -1.0287806E+00;3;  3.7114345E-03;  0.0000000E+00;  7.8070792E-05; -4.3160208E+08; -4.3160208E+08; -4.3160208E+08;1;  4.8171144E-02;  2.8698355E+02;  0.0000000E+00; -2.3257645E-02;  1.0000000E+02;  0.0000000E+00;  9.2952072E+01;  3.9435852E-02;  0.0000000E+00;  8.7352907E-03;  0.0000000E+00;
  5.4925494E+00;  9.9999998E-03;  2.0947123E-01;579;  1.4312787E-01;  0.0000000E+00;  3.2813663E-03;  9.9886408E+00;  2.4384768E-01; -1.0099158E+00;3;  4.4954510E-04;  0.0000000E+00;  2.1229446E-04; -4.3160208E+08; -4.3160208E+08; -4.3160208E+08;1;  4.7572825E-02;  2.8847836E+02;  0.0000000E+00; -6.7620911E-02;  1.0000000E+02;  0.0000000E+00;  9.3060890E+01;  3.8808718E-02;  0.0000000E+00;  8.7641068E-03;  0.0000000E+00;
  5.5867987E+00;  9.9999998E-03;  1.7923943E-08;581;  1.3574791E-01;  0.0000000E+00;  2.4418253E-07;  9.9888954E+00;  2.4339111E-01; -9.8723328E-01;3; -1.5947863E-03;  0.0000000E+00;  3.3308752E-06; -4.3160208E+08; -4.3160208E+08; -4.3160208E+08;1;  4.4122040E-02;  2.8933578E+02;  0.0000000E+00;  6.2632370E-13;  1.0000000E+02;  0.0000000E+00;  9.3136703E+01;  3.6106806E-02;  0.0000000E+00;  8.0152331E-03;  0.0000000E+00;
  5.9725637E+00;  9.9999998E-03;  1.0252960E+00;472;  1.5017471E-01;  0.0000000E+00;  5.9695253E-03;  9.9883032E+00;  4.6047732E-01; -1.0399032E+00;3;  1.0275797E-02;  0.0000000E+00; -6.2921122E-03;  0.0000000E+00;  0.0000000E+00;  0.0000000E+00;0;  3.3375084E-02;  7.9227501E+01;  0.0000000E+00; -2.5546510E-02;  1.0000000E+02;  0.0000000E+00;  9.5016457E+01;  2.7362490E-02;  0.0000000E+00;  6.0125943E-03;  0.0000000E+00;
  5.9790597E+00;  9.9999998E-03;  8.1899536E-01;471;  1.5051149E-01;  0.0000000E+00;  4.2926329E-03;  9.9888067E+00;  4.6035609E-01; -9.9512529E-01;3;  9.1704158E-03;  0.0000000E+00; -4.7252104E-03;  0.0000000E+00;  0.0000000E+00;  0.0000000E+00;0;  3.1723868E-02;  7.9274361E+01;  0.0000000E+00; -8.2571106E-03;  1.0000000E+02;  0.0000000E+00;  9.5020416E+01;  2.5943980E-02;  0.0000000E+00;  5.7798889E-03;  0.0000000E+00;
  5.9864135E+00;  9.9999998E-03;  2.0098490E-01;468;  1.5356901E-01;  0.0000000E+00;  4.1085610E-04;  9.9887905E+00;  4.5927700E-01; -9.9655604E-01;3;  5.0512361E-03;  0.0000000E+00;  9.5011108E-04;  0.0000000E+00;  0.0000000E+00;  0.0000000E+00;0;  3.1577803E-02;  7.9585640E+01;  0.0000000E+00;  3.6952075E-02;  1.0000000E+02;  0.0000000E+00;  9.5093170E+01;  2.5788069E-02;  0.0000000E+00;  5.7897344E-03;  0.0000000E+00;
  5.9871821E+00;  9.9999998E-03;  4.0713221E-01;469;  1.5395811E-01;  0.0000000E+00;  1.9227006E-03;  9.9884586E+00;  4.6040544E-01; -1.0260723E+00;3;  6.5945061E-03;  0.0000000E+00;  7.0184167E-04;  0.0000000E+00;  0.0000000E+00;  0.0000000E+00;0;  3.2514773E-02;  7.9259003E+01;  0.0000000E+00;  7.8041717E-02;  1.0000000E+02;  0.0000000E+00;  9.5011353E+01;  2.6437271E-02;  0.0000000E+00;  6.0775029E-03;  0.0000000E+00;
  5.9869504E+00;  9.9999998E-03;  6.1323875E-01;470;  1.5354846E-01;  0.0000000E+00;  3.1540440E-03;  9.9882202E+00;  4.6169963E-01; -1.0472689E+00;3;  7.2606960E-03;  0.0000000E+00; -5.3814589E-04;  0.0000000E+00;  0.0000000E+00;  0.0000000E+00;0;  3.3164322E-02;  7.8889961E+01;  0.0000000E+00;  4.5169972E-02;  1.0000000E+02;  0.0000000E+00;  9.4917473E+01;  2.6991649E-02;  0.0000000E+00;  6.1726733E-03;  0.0000000E+00;
  5.9910784E+00;  9.9999998E-03; -1.4108250E-09;467;  1.5485235E-01;  0.0000000E+00;  4.4439314E-08;  9.9886370E+00;  4.6010867E-01; -1.0102278E+00;3;  6.1207730E-03;  0.0000000E+00;  5.1418319E-06;  0.0000000E+00;  0.0000000E+00;  0.0000000E+00;0;  3.1848863E-02;  7.9370590E+01;  0.0000000E+00; -4.2842514E-13;  1.0000000E+02;  0.0000000E+00;  9.5003746E+01;  2.6055511E-02;  0.0000000E+00;  5.7933531E-03;  0.0000000E+00;
  6.1892633E+00;  9.9999998E-03;  4.0111449E-01;479;  1.5363240E-01;  0.0000000E+00;  3.1447227E-04;  9.9891624E+00;  4.4213039E-01; -9.6348894E-01;3;  7.1978709E-03;  0.0000000E+00; -1.1793394E-03;  0.0000000E+00;  0.0000000E+00;  0.0000000E+00;0;  2.2772260E-02;  8.4691978E+01;  0.0000000E+00;  6.1359122E-02;  1.0000000E+02;  0.0000000E+00;  9.6433105E+01;  1.8496888E-02;  0.0000000E+00;  4.2753723E-03;  0.0000000E+00;
  6.1886320E+00;  9.9999998E-03;  6.0707277E-01;480;  1.5305573E-01;  0.0000000E+00;  1.6778279E-03;  9.9893255E+00;  4.4231942E-01; -9.4902235E-01;3;  7.8070993E-03;  0.0000000E+00; -2.0546652E-03;  0.0000000E+00;  0.0000000E+00;  0.0000000E+00;0;  2.2453915E-02;  8.4622864E+01;  0.0000000E+00; -4.2360883E-02;  1.0000000E+02;  0.0000000E+00;  9.6431419E+01;  1.8152162E-02;  0.0000000E+00;  4.3017520E-03;  0.0000000E+00;
  6.1935248E+00;  9.9999998E-03;  8.1425768E-01;481;  1.5511917E-01;  0.0000000E+00;  3.3916715E-03;  9.9874239E+00;  4.4739401E-01; -1.1180648E+00;3;  9.7409263E-03;  0.0000000E+00; -3.2487512E-03;  0.0000000E+00;  0.0000000E+00;  0.0000000E+00;0;  2.6221413E-02;  8.3031143E+01;  0.0000000E+00; -5.0519459E-02;  1.0000000E+02;  0.0000000E+00;  9.6029526E+01;  2.1391071E-02;  0.0000000E+00;  4.8303409E-03;  0.0000000E+00;
  6.1985083E+00;  9.9999998E-03;  1.9946763E-01;478;  1.5545835E-01;  0.0000000E+00; -1.9139156E-04;  9.9881868E+00;  4.4632518E-01; -1.0502359E+00;3;  5.9337690E-03;  0.0000000E+00; -4.2683445E-05;  0.0000000E+00;  0.0000000E+00;  0.0000000E+00;0;  2.4340313E-02;  8.3410454E+01;  0.0000000E+00;  2.7347522E-02;  1.0000000E+02;  0.0000000E+00;  9.6065811E+01;  1.9776518E-02;  0.0000000E+00;  4.5637963E-03;  0.0000000E+00;
  6.2024469E+00;  9.9999998E-03;  6.2951649E-08;477;  1.5641074E-01;  0.0000000E+00; -6.9559053E-07;  9.9876919E+00;  4.4800577E-01; -1.0942717E+00;3;  6.2040710E-03;  0.0000000E+00;  8.0429018E-06;  0.0000000E+00;  0.0000000E+00;  0.0000000E+00;0;  2.5180750E-02;  8.2910698E+01;  0.0000000E+00;  1.7106845E-12;  1.0000000E+02;  0.0000000E+00;  9.5913170E+01;  2.0454520E-02;  0.0000000E+00;  4.7262302E-03;  0.0000000E+00;
  6.3990555E+00;  9.9999998E-03;  3.9936137E-01;487;  1.5546137E-01;  0.0000000E+00; -2.6951605E-04;  9.9878492E+00;  4.2974070E-01; -1.0802817E+00;3;  8.1746606E-03;  0.0000000E+00; -1.0961527E-03;  0.0000000E+00;  0.0000000E+00;  0.0000000E+00;0;  1.5594251E-02;  8.8720833E+01;  0.0000000E+00; -1.1381073E-01;  1.0000000E+02;  0.0000000E+00;  9.7416252E+01;  1.2632532E-02;  0.0000000E+00;  2.9617187E-03;  0.0000000E+00;
  6.4058094E+00;  9.9999998E-03;  6.0604757E-01;488;  1.5742955E-01;  0.0000000E+00;  1.7807153E-03;  9.9837084E+00;  4.3619183E-01; -1.4484127E+00;3; -3.4025051E-03;  0.0000000E+00;  9.8855011E-03;  0.0000000E+00;  0.0000000E+00;  0.0000000E+00;0;  2.0113695E-02;  8.6496208E+01;  0.0000000E+00; -9.0111099E-02;  1.0000000E+02;  0.0000000E+00;  9.6912369E+01;  1.5994897E-02;  0.0000000E+00;  4.1187983E-03;  0.0000000E+00;
  6.4057922E+00;  9.9999998E-03;  1.9792888E-01;486;  1.5693593E-01;  0.0000000E+00; -6.8485900E-04;  9.9859104E+00;  4.3402448E-01; -1.2526096E+00;3;  7.9527637E-03;  0.0000000E+00; -6.2793121E-04;  0.0000000E+00;  0.0000000E+00;  0.0000000E+00;0;  1.7726613E-02;  8.7310349E+01;  0.0000000E+00; -1.7239396E-02;  1.0000000E+02;  0.0000000E+00;  9.7011284E+01;  1.4313330E-02;  0.0000000E+00;  3.4132837E-03;  0.0000000E+00;
  6.4100122E+00;  9.9999998E-03;  4.0568676E-08;485;  1.5820931E-01;  0.0000000E+00; -8.2870685E-07;  9.9841022E+00;  4.3688932E-01; -1.4133854E+00;3;  1.0157157E-02;  0.0000000E+00;  1.3533980E-05;  0.0000000E+00;  0.0000000E+00;  0.0000000E+00;0;  1.9715294E-02;  8.6376740E+01;  0.0000000E+00;  5.1304924E-12;  1.0000000E+02;  0.0000000E+00;  9.6745224E+01;  1.5929339E-02;  0.0000000E+00;  3.7859548E-03;  0.0000000E+00;
  6.6134424E+00;  9.9999998E-03;  3.6272017E-08;491;  1.5927687E-01;  0.0000000E+00; -7.5805536E-07;  9.9640961E+00;  4.2543006E-01; -3.1920397E+00;3;  1.3728191E-02;  0.0000000E+00;  1.7076731E-05;  0.0000000E+00;  0.0000000E+00;  0.0000000E+00;0;  1.4830533E-02;  9.0072578E+01;  0.0000000E+00;  4.7067827E-12;  1.0000000E+02;  0.0000000E+00;  9.7468193E+01;  1.1824633E-02;  0.0000000E+00;  3.0059007E-03;  0.0000000E+00;
  6.6083107E+00;  9.9999998E-03;  1.9634625E-01;492;  1.5809709E-01;  0.0000000E+00; -7.9884735E-04;  9.9710684E+00;  4.2150033E-01; -2.5721469E+00;3;  1.0839676E-02;  0.0000000E+00;  3.5768002E-04;  0.0000000E+00;  0.0000000E+00;  0.0000000E+00;0;  1.2638875E-02;  9.1468208E+01;  0.0000000E+00; -1.1084474E-01;  1.0000000E+02;  0.0000000E+00;  9.7906105E+01;  1.0113261E-02;  0.0000000E+00;  2.5256146E-03;  0.0000000E+00;
  6.6098218E+00;  9.9999998E-03;  4.0076324E-01;493;  1.5946841E-01;  0.0000000E+00;  6.1903888E-04;  9.9645042E+00;  4.2376843E-01; -3.1557405E+00;3;  2.4262074E-02;  0.0000000E+00; -7.9520978E-03;  0.0000000E+00;  0.0000000E+00;  0.0000000E+00;0;  1.6104169E-02;  9.0537262E+01;  0.0000000E+00; -1.5614760E-01;  1.0000000E+02;  0.0000000E+00;  9.7733597E+01;  1.2932338E-02;  0.0000000E+00;  3.1718309E-03;  0.0000000E+00;
