TimeStep;Np;Nbound;Nfixed;Nmoving;Nfloat;Nfluid
2.50077;494;165;165;0;0;329

Pos.x;Pos.y;Pos.z;Idp;Vel.x;Vel.y;Vel.z;Rhop;Mass;Press;Type;Acec.x;Acec.y;Acec.z;AceVisc.x;AceVisc.y;AceVisc.z;CellOffSpring;GradVel;Qfxx;Qfxy;Qfxz;Qfyy;Qfyz;Qfzz;StrainDot.x;StrainDot.y;StrainDot.z;VonMises3D;
 -1.0000000E+00;  9.9999998E-03; -2.0000000E+00;0;  0.0000000E+00;  0.0000000E+00;  0.0000000E+00;  1.0000000E+01;  4.0000001E-01;  0.0000000E+00;0;  0.0000000E+00;  0.0000000E+00;  0.0000000E+00;  0.0000000E+00;  0.0000000E+00;  0.0000000E+00;0; -3.2531301E-07;  1.0000000E+02;  0.0000000E+00;  0.0000000E+00;  1.0000000E+02;  0.0000000E+00;  1.0000000E+02; -2.9768654E-07;  0.0000000E+00; -2.7626474E-08;  0.0000000E+00;
 -8.0000001E-01;  9.9999998E-03; -2.0000000E+00;21;  0.0000000E+00;  0.0000000E+00;  0.0000000E+00;  1.0000000E+01;  4.0000001E-01;  0.0000000E+00;0;  0.0000000E+00;  0.0000000E+00;  0.0000000E+00;  0.0000000E+00;  0.0000000E+00;  0.0000000E+00;0; -8.0588916E-07;  1.0000000E+02;  0.0000000E+00;  0.0000000E+00;  1.0000000E+02;  0.0000000E+00;  1.0000000E+02; -8.7182377E-07;  0.0000000E+00;  6.5934607E-08;  0.0000000E+00;
 -6.0000002E-01;  9.9999998E-03; -2.0000000E+00;42;  0.0000000E+00;  0.0000000E+00;  0.0000000E+00;  1.0000000E+01;  4.0000001E-01;  0.0000000E+00;0;  0.0000000E+00;  0.0000000E+00;  0.0000000E+00;  0.0000000E+00;  0.0000000E+00;  0.0000000E+00;0; -1.0520832E-06;  1.0000000E+02;  0.0000000E+00;  0.0000000E+00;  1.0000000E+02;  0.0000000E+00;  1.0000000E+02; -1.5300619E-06;  0.0000000E+00;  4.7797863E-07;  0.0000000E+00;
 -4.0000001E-01;  9.9999998E-03; -2.0000000E+00;63;  0.0000000E+00;  0.0000000E+00;  0.0000000E+00;  1.0000092E+01;  4.0000001E-01;  9.8762484E-03;0;  0.0000000E+00;  0.0000000E+00;  0.0000000E+00;  0.0000000E+00;  0.0000000E+00;  0.0000000E+00;0; -3.2955529E-07;  1.0000000E+02;  0.0000000E+00;  0.0000000E+00;  1.0000000E+02;  0.0000000E+00;  1.0000000E+02; -1.8577949E-06;  0.0000000E+00;  1.5282396E-06;  0.0000000E+00;
 -2.0000000E-01;  9.9999998E-03; -2.0000000E+00;84;  0.0000000E+00;  0.0000000E+00;  0.0000000E+00;  1.0000140E+01;  4.0000001E-01;  1.5135004E-02;0;  0.0000000E+00;  0.0000000E+00;  0.0000000E+00;  0.0000000E+00;  0.0000000E+00;  0.0000000E+00;0;  3.0284548E-06;  1.0000000E+02;  0.0000000E+00;  0.0000000E+00;  1.0000000E+02;  0.0000000E+00;  1.0000000E+02; -3.8915931E-07;  0.0000000E+00;  3.4176142E-06;  0.0000000E+00;
  0.0000000E+00;  9.9999998E-03; -2.0000000E+00;105;  0.0000000E+00;  0.0000000E+00;  0.0000000E+00;  1.0000150E+01;  4.0000001E-01;  1.6161043E-02;0;  0.0000000E+00;  0.0000000E+00;  0.0000000E+00;  0.0000000E+00;  0.0000000E+00;  0.0000000E+00;0;  1.3502382E-05;  1.0000000E+02;  0.0000000E+00;  0.0000000E+00;  1.0000000E+02;  0.0000000E+00;  1.0000000E+02;  7.7647173E-06;  0.0000000E+00;  5.7376651E-06;  0.0000000E+00;
  2.0000000E-01;  9.9999998E-03; -2.0000000E+00;115;  0.0000000E+00;  0.0000000E+00;  0.0000000E+00;  1.0000000E+01;  4.0000001E-01;  0.0000000E+00;0;  0.0000000E+00;  0.0000000E+00;  0.0000000E+00;  0.0000000E+00;  0.0000000E+00;  0.0000000E+00;0;  3.7889233E-05;  1.0000000E+02;  0.0000000E+00;  0.0000000E+00;  1.0000000E+02;  0.0000000E+00;  1.0000000E+02;  3.0490721E-05;  0.0000000E+00;  7.3985134E-06;  0.0000000E+00;
  4.0000001E-01;  9.9999998E-03; -2.0000000E+00;125;  0.0000000E+00;  0.0000000E+00;  0.0000000E+00;  1.0000000E+01;  4.0000001E-01;  0.0000000E+00;0;  0.0000000E+00;  0.0000000E+00;  0.0000000E+00;  0.0000000E+00;  0.0000000E+00;  0.0000000E+00;0;  8.7217457E-05;  1.0000000E+02;  0.0000000E+00;  0.0000000E+00;  1.0000000E+02;  0.0000000E+00;  1.0000000E+02;  8.0133694E-05;  0.0000000E+00;  7.0837596E-06;  0.0000000E+00;
  6.0000002E-01;  9.9999998E-03; -2.0000000E+00;135;  0.0000000E+00;  0.0000000E+00;  0.0000000E+00;  1.0000000E+01;  4.0000001E-01;  0.0000000E+00;0;  0.0000000E+00;  0.0000000E+00;  0.0000000E+00;  0.0000000E+00;  0.0000000E+00;  0.0000000E+00;0;  1.7462515E-04;  1.0000000E+02;  0.0000000E+00;  0.0000000E+00;  1.0000000E+02;  0.0000000E+00;  1.0000000E+02;  1.7087100E-04;  0.0000000E+00;  3.7541404E-06;  0.0000000E+00;
  8.0000001E-01;  9.9999998E-03; -2.0000000E+00;145;  0.0000000E+00;  0.0000000E+00;  0.0000000E+00;  1.0000000E+01;  4.0000001E-01;  0.0000000E+00;0;  0.0000000E+00;  0.0000000E+00;  0.0000000E+00;  0.0000000E+00;  0.0000000E+00;  0.0000000E+00;0;  3.0220876E-04;  1.0000000E+02;  0.0000000E+00;  0.0000000E+00;  1.0000000E+02;  0.0000000E+00;  1.0000000E+02;  3.0585684E-04;  0.0000000E+00; -3.6480769E-06;  0.0000000E+00;
  1.0000000E+00;  9.9999998E-03; -2.0000000E+00;155;  0.0000000E+00;  0.0000000E+00;  0.0000000E+00;  1.0000000E+01;  4.0000001E-01;  0.0000000E+00;0;  0.0000000E+00;  0.0000000E+00;  0.0000000E+00;  0.0000000E+00;  0.0000000E+00;  0.0000000E+00;0;  4.3646054E-04;  1.0000000E+02;  0.0000000E+00;  0.0000000E+00;  1.0000000E+02;  0.0000000E+00;  1.0000000E+02;  4.5352898E-04;  0.0000000E+00; -1.7068442E-05;  0.0000000E+00;
 -1.0000000E+00;  9.9999998E-03; -1.8000000E+00;1;  0.0000000E+00;  0.0000000E+00;  0.0000000E+00;  1.0000000E+01;  4.0000001E-01;  0.0000000E+00;0;  0.0000000E+00;  0.0000000E+00;  0.0000000E+00;  0.0000000E+00;  0.0000000E+00;  0.0000000E+00;0; -8.2435480E-07;  1.0000000E+02;  0.0000000E+00;  0.0000000E+00;  1.0000000E+02;  0.0000000E+00;  1.0000000E+02; -8.2656095E-07;  0.0000000E+00;  2.2061228E-09;  0.0000000E+00;
 -1.0000000E+00;  9.9999998E-03; -1.6000000E+00;2;  0.0000000E+00;  0.0000000E+00;  0.0000000E+00;  1.0000038E+01;  4.0000001E-01;  4.1044201E-03;0;  0.0000000E+00;  0.0000000E+00;  0.0000000E+00;  0.0000000E+00;  0.0000000E+00;  0.0000000E+00;0; -1.5473300E-06;  1.0000000E+02;  0.0000000E+00;  0.0000000E+00;  1.0000000E+02;  0.0000000E+00;  1.0000000E+02; -1.6525094E-06;  0.0000000E+00;  1.0517932E-07;  0.0000000E+00;
 -1.0000000E+00;  9.9999998E-03; -1.4000000E+00;3;  0.0000000E+00;  0.0000000E+00;  0.0000000E+00;  1.0000267E+01;  4.0000001E-01;  2.8730940E-02;0;  0.0000000E+00;  0.0000000E+00;  0.0000000E+00;  0.0000000E+00;  0.0000000E+00;  0.0000000E+00;0; -2.4916094E-06;  1.0000000E+02;  0.0000000E+00;  0.0000000E+00;  1.0000000E+02;  0.0000000E+00;  1.0000000E+02; -2.7176879E-06;  0.0000000E+00;  2.2607860E-07;  0.0000000E+00;
 -1.0000000E+00;  9.9999998E-03; -1.2000000E+00;4;  0.0000000E+00;  0.0000000E+00;  0.0000000E+00;  1.0000500E+01;  4.0000001E-01;  5.3742249E-02;0;  0.0000000E+00;  0.0000000E+00;  0.0000000E+00;  0.0000000E+00;  0.0000000E+00;  0.0000000E+00;0; -3.4008929E-06;  1.0000000E+02;  0.0000000E+00;  0.0000000E+00;  1.0000000E+02;  0.0000000E+00;  1.0000000E+02; -3.7001853E-06;  0.0000000E+00;  2.9929245E-07;  0.0000000E+00;
 -1.0000000E+00;  9.9999998E-03; -1.0000000E+00;5;  0.0000000E+00;  0.0000000E+00;  0.0000000E+00;  1.0000754E+01;  4.0000001E-01;  8.1190556E-02;0;  0.0000000E+00;  0.0000000E+00;  0.0000000E+00;  0.0000000E+00;  0.0000000E+00;  0.0000000E+00;0; -3.7541492E-06;  1.0000000E+02;  0.0000000E+00;  0.0000000E+00;  1.0000000E+02;  0.0000000E+00;  1.0000000E+02; -4.0371137E-06;  0.0000000E+00;  2.8296441E-07;  0.0000000E+00;
 -1.0000000E+00;  9.9999998E-03; -8.0000001E-01;6;  0.0000000E+00;  0.0000000E+00;  0.0000000E+00;  1.0001022E+01;  4.0000001E-01;  1.1004976E-01;0;  0.0000000E+00;  0.0000000E+00;  0.0000000E+00;  0.0000000E+00;  0.0000000E+00;  0.0000000E+00;0; -3.0524072E-06;  1.0000000E+02;  0.0000000E+00;  0.0000000E+00;  1.0000000E+02;  0.0000000E+00;  1.0000000E+02; -3.2180517E-06;  0.0000000E+00;  1.6564449E-07;  0.0000000E+00;
 -1.0000000E+00;  9.9999998E-03; -6.0000002E-01;7;  0.0000000E+00;  0.0000000E+00;  0.0000000E+00;  1.0001233E+01;  4.0000001E-01;  1.3262407E-01;0;  0.0000000E+00;  0.0000000E+00;  0.0000000E+00;  0.0000000E+00;  0.0000000E+00;  0.0000000E+00;0; -1.2167438E-06;  1.0000000E+02;  0.0000000E+00;  0.0000000E+00;  1.0000000E+02;  0.0000000E+00;  1.0000000E+02; -1.1860000E-06;  0.0000000E+00; -3.0743838E-08;  0.0000000E+00;
 -1.0000000E+00;  9.9999998E-03; -4.0000001E-01;8;  0.0000000E+00;  0.0000000E+00;  0.0000000E+00;  1.0001355E+01;  4.0000001E-01;  1.4583518E-01;0;  0.0000000E+00;  0.0000000E+00;  0.0000000E+00;  0.0000000E+00;  0.0000000E+00;  0.0000000E+00;0;  1.2284087E-06;  1.0000000E+02;  0.0000000E+00;  0.0000000E+00;  1.0000000E+02;  0.0000000E+00;  1.0000000E+02;  1.4738137E-06;  0.0000000E+00; -2.4540495E-07;  0.0000000E+00;
 -1.0000000E+00;  9.9999998E-03; -2.0000000E-01;9;  0.0000000E+00;  0.0000000E+00;  0.0000000E+00;  1.0001415E+01;  4.0000001E-01;  1.5224834E-01;0;  0.0000000E+00;  0.0000000E+00;  0.0000000E+00;  0.0000000E+00;  0.0000000E+00;  0.0000000E+00;0;  3.3403996E-06;  1.0000000E+02;  0.0000000E+00;  0.0000000E+00;  1.0000000E+02;  0.0000000E+00;  1.0000000E+02;  3.7431678E-06;  0.0000000E+00; -4.0276808E-07;  0.0000000E+00;
 -8.0000001E-01;  9.9999998E-03; -1.8000000E+00;22;  0.0000000E+00;  0.0000000E+00;  0.0000000E+00;  1.0000087E+01;  4.0000001E-01;  9.3632070E-03;0;  0.0000000E+00;  0.0000000E+00;  0.0000000E+00;  0.0000000E+00;  0.0000000E+00;  0.0000000E+00;0; -1.7086537E-06;  1.0000000E+02;  0.0000000E+00;  0.0000000E+00;  1.0000000E+02;  0.0000000E+00;  1.0000000E+02; -2.0550090E-06;  0.0000000E+00;  3.4635528E-07;  0.0000000E+00;
 -8.0000001E-01;  9.9999998E-03; -1.6000000E+00;23;  0.0000000E+00;  0.0000000E+00;  0.0000000E+00;  1.0000361E+01;  4.0000001E-01;  3.8863722E-02;0;  0.0000000E+00;  0.0000000E+00;  0.0000000E+00;  0.0000000E+00;  0.0000000E+00;  0.0000000E+00;0; -3.0533399E-06;  1.0000000E+02;  0.0000000E+00;  0.0000000E+00;  1.0000000E+02;  0.0000000E+00;  1.0000000E+02; -3.7942555E-06;  0.0000000E+00;  7.4091560E-07;  0.0000000E+00;
 -8.0000001E-01;  9.9999998E-03; -1.4000000E+00;24;  0.0000000E+00;  0.0000000E+00;  0.0000000E+00;  1.0000714E+01;  4.0000001E-01;  7.6829605E-02;0;  0.0000000E+00;  0.0000000E+00;  0.0000000E+00;  0.0000000E+00;  0.0000000E+00;  0.0000000E+00;0; -4.9158884E-06;  1.0000000E+02;  0.0000000E+00;  0.0000000E+00;  1.0000000E+02;  0.0000000E+00;  1.0000000E+02; -5.9430354E-06;  0.0000000E+00;  1.0271469E-06;  0.0000000E+00;
 -8.0000001E-01;  9.9999998E-03; -1.2000000E+00;25;  0.0000000E+00;  0.0000000E+00;  0.0000000E+00;  1.0001216E+01;  4.0000001E-01;  1.3082838E-01;0;  0.0000000E+00;  0.0000000E+00;  0.0000000E+00;  0.0000000E+00;  0.0000000E+00;  0.0000000E+00;0; -6.8307581E-06;  1.0000000E+02;  0.0000000E+00;  0.0000000E+00;  1.0000000E+02;  0.0000000E+00;  1.0000000E+02; -7.8935846E-06;  0.0000000E+00;  1.0628266E-06;  0.0000000E+00;
 -8.0000001E-01;  9.9999998E-03; -1.0000000E+00;26;  0.0000000E+00;  0.0000000E+00;  0.0000000E+00;  1.0001770E+01;  4.0000001E-01;  1.9047073E-01;0;  0.0000000E+00;  0.0000000E+00;  0.0000000E+00;  0.0000000E+00;  0.0000000E+00;  0.0000000E+00;0; -7.8698458E-06;  1.0000000E+02;  0.0000000E+00;  0.0000000E+00;  1.0000000E+02;  0.0000000E+00;  1.0000000E+02; -8.6780929E-06;  0.0000000E+00;  8.0824719E-07;  0.0000000E+00;
 -8.0000001E-01;  9.9999998E-03; -8.0000001E-01;27;  0.0000000E+00;  0.0000000E+00;  0.0000000E+00;  1.0002297E+01;  4.0000001E-01;  2.4716301E-01;0;  0.0000000E+00;  0.0000000E+00;  0.0000000E+00;  0.0000000E+00;  0.0000000E+00;  0.0000000E+00;0; -7.1218124E-06;  1.0000000E+02;  0.0000000E+00;  0.0000000E+00;  1.0000000E+02;  0.0000000E+00;  1.0000000E+02; -7.4196564E-06;  0.0000000E+00;  2.9784408E-07;  0.0000000E+00;
 -8.0000001E-01;  9.9999998E-03; -6.0000002E-01;28;  0.0000000E+00;  0.0000000E+00;  0.0000000E+00;  1.0002711E+01;  4.0000001E-01;  2.9167032E-01;0;  0.0000000E+00;  0.0000000E+00;  0.0000000E+00;  0.0000000E+00;  0.0000000E+00;  0.0000000E+00;0; -4.3523992E-06;  1.0000000E+02;  0.0000000E+00;  0.0000000E+00;  1.0000000E+02;  0.0000000E+00;  1.0000000E+02; -3.9999836E-06;  0.0000000E+00; -3.5241547E-07;  0.0000000E+00;
 -8.0000001E-01;  9.9999998E-03; -4.0000001E-01;29;  0.0000000E+00;  0.0000000E+00;  0.0000000E+00;  1.0002994E+01;  4.0000001E-01;  3.2206869E-01;0;  0.0000000E+00;  0.0000000E+00;  0.0000000E+00;  0.0000000E+00;  0.0000000E+00;  0.0000000E+00;0; -3.7027581E-07;  1.0000000E+02;  0.0000000E+00;  0.0000000E+00;  1.0000000E+02;  0.0000000E+00;  1.0000000E+02;  5.8328908E-07;  0.0000000E+00; -9.5356489E-07;  0.0000000E+00;
 -8.0000001E-01;  9.9999998E-03; -2.0000000E-01;30;  0.0000000E+00;  0.0000000E+00;  0.0000000E+00;  1.0003148E+01;  4.0000001E-01;  3.3874288E-01;0;  0.0000000E+00;  0.0000000E+00;  0.0000000E+00;  0.0000000E+00;  0.0000000E+00;  0.0000000E+00;0;  3.1772140E-06;  1.0000000E+02;  0.0000000E+00;  0.0000000E+00;  1.0000000E+02;  0.0000000E+00;  1.0000000E+02;  4.5162424E-06;  0.0000000E+00; -1.3390284E-06;  0.0000000E+00;
 -6.0000002E-01;  9.9999998E-03; -1.8000000E+00;43;  0.0000000E+00;  0.0000000E+00;  0.0000000E+00;  1.0000278E+01;  4.0000001E-01;  3.0013556E-02;0;  0.0000000E+00;  0.0000000E+00;  0.0000000E+00;  0.0000000E+00;  0.0000000E+00;  0.0000000E+00;0; -1.9063624E-06;  1.0000000E+02;  0.0000000E+00;  0.0000000E+00;  1.0000000E+02;  0.0000000E+00;  1.0000000E+02; -3.2986259E-06;  0.0000000E+00;  1.3922635E-06;  0.0000000E+00;
 -6.0000002E-01;  9.9999998E-03; -1.6000000E+00;44;  0.0000000E+00;  0.0000000E+00;  0.0000000E+00;  1.0000634E+01;  4.0000001E-01;  6.8235949E-02;0;  0.0000000E+00;  0.0000000E+00;  0.0000000E+00;  0.0000000E+00;  0.0000000E+00;  0.0000000E+00;0; -3.3601973E-06;  1.0000000E+02;  0.0000000E+00;  0.0000000E+00;  1.0000000E+02;  0.0000000E+00;  1.0000000E+02; -5.7269453E-06;  0.0000000E+00;  2.3667480E-06;  0.0000000E+00;
 -6.0000002E-01;  9.9999998E-03; -1.4000000E+00;45;  0.0000000E+00;  0.0000000E+00;  0.0000000E+00;  1.0001203E+01;  4.0000001E-01;  1.2941742E-01;0;  0.0000000E+00;  0.0000000E+00;  0.0000000E+00;  0.0000000E+00;  0.0000000E+00;  0.0000000E+00;0; -5.7719553E-06;  1.0000000E+02;  0.0000000E+00;  0.0000000E+00;  1.0000000E+02;  0.0000000E+00;  1.0000000E+02; -8.6301907E-06;  0.0000000E+00;  2.8582353E-06;  0.0000000E+00;
 -6.0000002E-01;  9.9999998E-03; -1.2000000E+00;46;  0.0000000E+00;  0.0000000E+00;  0.0000000E+00;  1.0001933E+01;  4.0000001E-01;  2.0804268E-01;0;  0.0000000E+00;  0.0000000E+00;  0.0000000E+00;  0.0000000E+00;  0.0000000E+00;  0.0000000E+00;0; -8.6022274E-06;  1.0000000E+02;  0.0000000E+00;  0.0000000E+00;  1.0000000E+02;  0.0000000E+00;  1.0000000E+02; -1.1271983E-05;  0.0000000E+00;  2.6697551E-06;  0.0000000E+00;
 -6.0000002E-01;  9.9999998E-03; -1.0000000E+00;47;  0.0000000E+00;  0.0000000E+00;  0.0000000E+00;  1.0002759E+01;  4.0000001E-01;  2.9680070E-01;0;  0.0000000E+00;  0.0000000E+00;  0.0000000E+00;  0.0000000E+00;  0.0000000E+00;  0.0000000E+00;0; -1.0801607E-05;  1.0000000E+02;  0.0000000E+00;  0.0000000E+00;  1.0000000E+02;  0.0000000E+00;  1.0000000E+02; -1.2627728E-05;  0.0000000E+00;  1.8261217E-06;  0.0000000E+00;
 -6.0000002E-01;  9.9999998E-03; -8.0000001E-01;48;  0.0000000E+00;  0.0000000E+00;  0.0000000E+00;  1.0003582E+01;  4.0000001E-01;  3.8543049E-01;0;  0.0000000E+00;  0.0000000E+00;  0.0000000E+00;  0.0000000E+00;  0.0000000E+00;  0.0000000E+00;0; -1.1137671E-05;  1.0000000E+02;  0.0000000E+00;  0.0000000E+00;  1.0000000E+02;  0.0000000E+00;  1.0000000E+02; -1.1603800E-05;  0.0000000E+00;  4.6612888E-07;  0.0000000E+00;
 -6.0000002E-01;  9.9999998E-03; -6.0000002E-01;49;  0.0000000E+00;  0.0000000E+00;  0.0000000E+00;  1.0004251E+01;  4.0000001E-01;  4.5738605E-01;0;  0.0000000E+00;  0.0000000E+00;  0.0000000E+00;  0.0000000E+00;  0.0000000E+00;  0.0000000E+00;0; -8.8111501E-06;  1.0000000E+02;  0.0000000E+00;  0.0000000E+00;  1.0000000E+02;  0.0000000E+00;  1.0000000E+02; -7.6801416E-06;  0.0000000E+00; -1.1310086E-06;  0.0000000E+00;
 -6.0000002E-01;  9.9999998E-03; -4.0000001E-01;50;  0.0000000E+00;  0.0000000E+00;  0.0000000E+00;  1.0004719E+01;  4.0000001E-01;  5.0766516E-01;0;  0.0000000E+00;  0.0000000E+00;  0.0000000E+00;  0.0000000E+00;  0.0000000E+00;  0.0000000E+00;0; -4.3829332E-06;  1.0000000E+02;  0.0000000E+00;  0.0000000E+00;  1.0000000E+02;  0.0000000E+00;  1.0000000E+02; -1.8290541E-06;  0.0000000E+00; -2.5538793E-06;  0.0000000E+00;
 -6.0000002E-01;  9.9999998E-03; -2.0000000E-01;51;  0.0000000E+00;  0.0000000E+00;  0.0000000E+00;  1.0004984E+01;  4.0000001E-01;  5.3626782E-01;0;  0.0000000E+00;  0.0000000E+00;  0.0000000E+00;  0.0000000E+00;  0.0000000E+00;  0.0000000E+00;0; -5.2212044E-08;  1.0000000E+02;  0.0000000E+00;  0.0000000E+00;  1.0000000E+02;  0.0000000E+00;  1.0000000E+02;  3.4149402E-06;  0.0000000E+00; -3.4671523E-06;  0.0000000E+00;
 -4.0000001E-01;  9.9999998E-03; -1.8000000E+00;64;  0.0000000E+00;  0.0000000E+00;  0.0000000E+00;  1.0000381E+01;  4.0000001E-01;  4.0915888E-02;0;  0.0000000E+00;  0.0000000E+00;  0.0000000E+00;  0.0000000E+00;  0.0000000E+00;  0.0000000E+00;0;  3.4145728E-07;  1.0000000E+02;  0.0000000E+00;  0.0000000E+00;  1.0000000E+02;  0.0000000E+00;  1.0000000E+02; -3.2671430E-06;  0.0000000E+00;  3.6086003E-06;  0.0000000E+00;
 -4.0000001E-01;  9.9999998E-03; -1.6000000E+00;65;  0.0000000E+00;  0.0000000E+00;  0.0000000E+00;  1.0000803E+01;  4.0000001E-01;  8.6449243E-02;0;  0.0000000E+00;  0.0000000E+00;  0.0000000E+00;  0.0000000E+00;  0.0000000E+00;  0.0000000E+00;0;  1.3270183E-06;  1.0000000E+02;  0.0000000E+00;  0.0000000E+00;  1.0000000E+02;  0.0000000E+00;  1.0000000E+02; -4.1350977E-06;  0.0000000E+00;  5.4621160E-06;  0.0000000E+00;
 -4.0000001E-01;  9.9999998E-03; -1.4000000E+00;66;  0.0000000E+00;  0.0000000E+00;  0.0000000E+00;  1.0001434E+01;  4.0000001E-01;  1.5430035E-01;0;  0.0000000E+00;  0.0000000E+00;  0.0000000E+00;  0.0000000E+00;  0.0000000E+00;  0.0000000E+00;0;  1.4747307E-06;  1.0000000E+02;  0.0000000E+00;  0.0000000E+00;  1.0000000E+02;  0.0000000E+00;  1.0000000E+02; -4.6381842E-06;  0.0000000E+00;  6.1129149E-06;  0.0000000E+00;
 -4.0000001E-01;  9.9999998E-03; -1.2000000E+00;67;  0.0000000E+00;  0.0000000E+00;  0.0000000E+00;  1.0002314E+01;  4.0000001E-01;  2.4895842E-01;0;  0.0000000E+00;  0.0000000E+00;  0.0000000E+00;  0.0000000E+00;  0.0000000E+00;  0.0000000E+00;0;  1.4556963E-07;  1.0000000E+02;  0.0000000E+00;  0.0000000E+00;  1.0000000E+02;  0.0000000E+00;  1.0000000E+02; -5.2564337E-06;  0.0000000E+00;  5.4020034E-06;  0.0000000E+00;
 -4.0000001E-01;  9.9999998E-03; -1.0000000E+00;68;  0.0000000E+00;  0.0000000E+00;  0.0000000E+00;  1.0003303E+01;  4.0000001E-01;  3.5528842E-01;0;  0.0000000E+00;  0.0000000E+00;  0.0000000E+00;  0.0000000E+00;  0.0000000E+00;  0.0000000E+00;0; -2.1877242E-06;  1.0000000E+02;  0.0000000E+00;  0.0000000E+00;  1.0000000E+02;  0.0000000E+00;  1.0000000E+02; -5.6696213E-06;  0.0000000E+00;  3.4818970E-06;  0.0000000E+00;
 -4.0000001E-01;  9.9999998E-03; -8.0000001E-01;69;  0.0000000E+00;  0.0000000E+00;  0.0000000E+00;  1.0004329E+01;  4.0000001E-01;  4.6572283E-01;0;  0.0000000E+00;  0.0000000E+00;  0.0000000E+00;  0.0000000E+00;  0.0000000E+00;  0.0000000E+00;0; -3.8894859E-06;  1.0000000E+02;  0.0000000E+00;  0.0000000E+00;  1.0000000E+02;  0.0000000E+00;  1.0000000E+02; -4.5406578E-06;  0.0000000E+00;  6.5117194E-07;  0.0000000E+00;
 -4.0000001E-01;  9.9999998E-03; -6.0000002E-01;70;  0.0000000E+00;  0.0000000E+00;  0.0000000E+00;  1.0005220E+01;  4.0000001E-01;  5.6166351E-01;0;  0.0000000E+00;  0.0000000E+00;  0.0000000E+00;  0.0000000E+00;  0.0000000E+00;  0.0000000E+00;0; -3.0835047E-06;  1.0000000E+02;  0.0000000E+00;  0.0000000E+00;  1.0000000E+02;  0.0000000E+00;  1.0000000E+02; -5.1670594E-07;  0.0000000E+00; -2.5667987E-06;  0.0000000E+00;
 -4.0000001E-01;  9.9999998E-03; -4.0000001E-01;71;  0.0000000E+00;  0.0000000E+00;  0.0000000E+00;  1.0005867E+01;  4.0000001E-01;  6.3131034E-01;0;  0.0000000E+00;  0.0000000E+00;  0.0000000E+00;  0.0000000E+00;  0.0000000E+00;  0.0000000E+00;0;  8.0874224E-07;  1.0000000E+02;  0.0000000E+00;  0.0000000E+00;  1.0000000E+02;  0.0000000E+00;  1.0000000E+02;  6.2454619E-06;  0.0000000E+00; -5.4367197E-06;  0.0000000E+00;
 -4.0000001E-01;  9.9999998E-03; -2.0000000E-01;72;  0.0000000E+00;  0.0000000E+00;  0.0000000E+00;  1.0006269E+01;  4.0000001E-01;  6.7440671E-01;0;  0.0000000E+00;  0.0000000E+00;  0.0000000E+00;  0.0000000E+00;  0.0000000E+00;  0.0000000E+00;0;  5.7976677E-06;  1.0000000E+02;  0.0000000E+00;  0.0000000E+00;  1.0000000E+02;  0.0000000E+00;  1.0000000E+02;  1.3140156E-05;  0.0000000E+00; -7.3424881E-06;  0.0000000E+00;
 -2.0000000E-01;  9.9999998E-03; -1.8000000E+00;85;  0.0000000E+00;  0.0000000E+00;  0.0000000E+00;  1.0000424E+01;  4.0000001E-01;  4.5661539E-02;0;  0.0000000E+00;  0.0000000E+00;  0.0000000E+00;  0.0000000E+00;  0.0000000E+00;  0.0000000E+00;0;  9.8154842E-06;  1.0000000E+02;  0.0000000E+00;  0.0000000E+00;  1.0000000E+02;  0.0000000E+00;  1.0000000E+02;  2.7516896E-06;  0.0000000E+00;  7.0637943E-06;  0.0000000E+00;
 -2.0000000E-01;  9.9999998E-03; -1.6000000E+00;86;  0.0000000E+00;  0.0000000E+00;  0.0000000E+00;  1.0000818E+01;  4.0000001E-01;  8.7988243E-02;0;  0.0000000E+00;  0.0000000E+00;  0.0000000E+00;  0.0000000E+00;  0.0000000E+00;  0.0000000E+00;0;  1.9318762E-05;  1.0000000E+02;  0.0000000E+00;  0.0000000E+00;  1.0000000E+02;  0.0000000E+00;  1.0000000E+02;  9.3797980E-06;  0.0000000E+00;  9.9389636E-06;  0.0000000E+00;
 -2.0000000E-01;  9.9999998E-03; -1.4000000E+00;87;  0.0000000E+00;  0.0000000E+00;  0.0000000E+00;  1.0001285E+01;  4.0000001E-01;  1.3826725E-01;0;  0.0000000E+00;  0.0000000E+00;  0.0000000E+00;  0.0000000E+00;  0.0000000E+00;  0.0000000E+00;0;  2.9067876E-05;  1.0000000E+02;  0.0000000E+00;  0.0000000E+00;  1.0000000E+02;  0.0000000E+00;  1.0000000E+02;  1.8373968E-05;  0.0000000E+00;  1.0693907E-05;  0.0000000E+00;
 -2.0000000E-01;  9.9999998E-03; -1.2000000E+00;88;  0.0000000E+00;  0.0000000E+00;  0.0000000E+00;  1.0002044E+01;  4.0000001E-01;  2.1984234E-01;0;  0.0000000E+00;  0.0000000E+00;  0.0000000E+00;  0.0000000E+00;  0.0000000E+00;  0.0000000E+00;0;  3.6822956E-05;  1.0000000E+02;  0.0000000E+00;  0.0000000E+00;  1.0000000E+02;  0.0000000E+00;  1.0000000E+02;  2.7630715E-05;  0.0000000E+00;  9.1922411E-06;  0.0000000E+00;
 -2.0000000E-01;  9.9999998E-03; -1.0000000E+00;89;  0.0000000E+00;  0.0000000E+00;  0.0000000E+00;  1.0003020E+01;  4.0000001E-01;  3.2501781E-01;0;  0.0000000E+00;  0.0000000E+00;  0.0000000E+00;  0.0000000E+00;  0.0000000E+00;  0.0000000E+00;0;  4.1638363E-05;  1.0000000E+02;  0.0000000E+00;  0.0000000E+00;  1.0000000E+02;  0.0000000E+00;  1.0000000E+02;  3.5945475E-05;  0.0000000E+00;  5.6928857E-06;  0.0000000E+00;
 -2.0000000E-01;  9.9999998E-03; -8.0000001E-01;90;  0.0000000E+00;  0.0000000E+00;  0.0000000E+00;  1.0004066E+01;  4.0000001E-01;  4.3737596E-01;0;  0.0000000E+00;  0.0000000E+00;  0.0000000E+00;  0.0000000E+00;  0.0000000E+00;  0.0000000E+00;0;  4.4775807E-05;  1.0000000E+02;  0.0000000E+00;  0.0000000E+00;  1.0000000E+02;  0.0000000E+00;  1.0000000E+02;  4.4040069E-05;  0.0000000E+00;  7.3573636E-07;  0.0000000E+00;
 -2.0000000E-01;  9.9999998E-03; -6.0000002E-01;91;  0.0000000E+00;  0.0000000E+00;  0.0000000E+00;  1.0005065E+01;  4.0000001E-01;  5.4498839E-01;0;  0.0000000E+00;  0.0000000E+00;  0.0000000E+00;  0.0000000E+00;  0.0000000E+00;  0.0000000E+00;0;  4.8435784E-05;  1.0000000E+02;  0.0000000E+00;  0.0000000E+00;  1.0000000E+02;  0.0000000E+00;  1.0000000E+02;  5.3170883E-05;  0.0000000E+00; -4.7350991E-06;  0.0000000E+00;
 -2.0000000E-01;  9.9999998E-03; -4.0000001E-01;92;  0.0000000E+00;  0.0000000E+00;  0.0000000E+00;  1.0005876E+01;  4.0000001E-01;  6.3220710E-01;0;  0.0000000E+00;  0.0000000E+00;  0.0000000E+00;  0.0000000E+00;  0.0000000E+00;  0.0000000E+00;0;  5.3917760E-05;  1.0000000E+02;  0.0000000E+00;  0.0000000E+00;  1.0000000E+02;  0.0000000E+00;  1.0000000E+02;  6.3475898E-05;  0.0000000E+00; -9.5581390E-06;  0.0000000E+00;
 -2.0000000E-01;  9.9999998E-03; -2.0000000E-01;93;  0.0000000E+00;  0.0000000E+00;  0.0000000E+00;  1.0006418E+01;  4.0000001E-01;  6.9056666E-01;0;  0.0000000E+00;  0.0000000E+00;  0.0000000E+00;  0.0000000E+00;  0.0000000E+00;  0.0000000E+00;0;  5.9482376E-05;  1.0000000E+02;  0.0000000E+00;  0.0000000E+00;  1.0000000E+02;  0.0000000E+00;  1.0000000E+02;  7.2325260E-05;  0.0000000E+00; -1.2842885E-05;  0.0000000E+00;
  0.0000000E+00;  9.9999998E-03; -1.8000000E+00;106;  0.0000000E+00;  0.0000000E+00;  0.0000000E+00;  1.0000056E+01;  4.0000001E-01;  6.0283258E-03;0;  0.0000000E+00;  0.0000000E+00;  0.0000000E+00;  0.0000000E+00;  0.0000000E+00;  0.0000000E+00;0;  3.4300807E-05;  1.0000000E+02;  0.0000000E+00;  0.0000000E+00;  1.0000000E+02;  0.0000000E+00;  1.0000000E+02;  2.3420956E-05;  0.0000000E+00;  1.0879852E-05;  0.0000000E+00;
  0.0000000E+00;  9.9999998E-03; -1.6000000E+00;107;  0.0000000E+00;  0.0000000E+00;  0.0000000E+00;  1.0000245E+01;  4.0000001E-01;  2.6422024E-02;0;  0.0000000E+00;  0.0000000E+00;  0.0000000E+00;  0.0000000E+00;  0.0000000E+00;  0.0000000E+00;0;  6.3763720E-05;  1.0000000E+02;  0.0000000E+00;  0.0000000E+00;  1.0000000E+02;  0.0000000E+00;  1.0000000E+02;  4.9033828E-05;  0.0000000E+00;  1.4729894E-05;  0.0000000E+00;
  0.0000000E+00;  9.9999998E-03; -1.4000000E+00;108;  0.0000000E+00;  0.0000000E+00;  0.0000000E+00;  1.0000346E+01;  4.0000001E-01;  3.7196055E-02;0;  0.0000000E+00;  0.0000000E+00;  0.0000000E+00;  0.0000000E+00;  0.0000000E+00;  0.0000000E+00;0;  9.8315126E-05;  1.0000000E+02;  0.0000000E+00;  0.0000000E+00;  1.0000000E+02;  0.0000000E+00;  1.0000000E+02;  8.2662860E-05;  0.0000000E+00;  1.5652267E-05;  0.0000000E+00;
  0.0000000E+00;  9.9999998E-03; -1.2000000E+00;109;  0.0000000E+00;  0.0000000E+00;  0.0000000E+00;  1.0000773E+01;  4.0000001E-01;  8.3242200E-02;0;  0.0000000E+00;  0.0000000E+00;  0.0000000E+00;  0.0000000E+00;  0.0000000E+00;  0.0000000E+00;0;  1.3336995E-04;  1.0000000E+02;  0.0000000E+00;  0.0000000E+00;  1.0000000E+02;  0.0000000E+00;  1.0000000E+02;  1.1998924E-04;  0.0000000E+00;  1.3380707E-05;  0.0000000E+00;
  2.0000000E-01;  9.9999998E-03; -1.8000000E+00;116;  0.0000000E+00;  0.0000000E+00;  0.0000000E+00;  1.0000000E+01;  4.0000001E-01;  0.0000000E+00;0;  0.0000000E+00;  0.0000000E+00;  0.0000000E+00;  0.0000000E+00;  0.0000000E+00;  0.0000000E+00;0;  8.6788656E-05;  1.0000000E+02;  0.0000000E+00;  0.0000000E+00;  1.0000000E+02;  0.0000000E+00;  1.0000000E+02;  7.3510520E-05;  0.0000000E+00;  1.3278132E-05;  0.0000000E+00;
  2.0000000E-01;  9.9999998E-03; -1.6000000E+00;117;  0.0000000E+00;  0.0000000E+00;  0.0000000E+00;  1.0000000E+01;  4.0000001E-01;  0.0000000E+00;0;  0.0000000E+00;  0.0000000E+00;  0.0000000E+00;  0.0000000E+00;  0.0000000E+00;  0.0000000E+00;0;  1.5762691E-04;  1.0000000E+02;  0.0000000E+00;  0.0000000E+00;  1.0000000E+02;  0.0000000E+00;  1.0000000E+02;  1.3997825E-04;  0.0000000E+00;  1.7648670E-05;  0.0000000E+00;
  2.0000000E-01;  9.9999998E-03; -1.4000000E+00;118;  0.0000000E+00;  0.0000000E+00;  0.0000000E+00;  1.0000000E+01;  4.0000001E-01;  0.0000000E+00;0;  0.0000000E+00;  0.0000000E+00;  0.0000000E+00;  0.0000000E+00;  0.0000000E+00;  0.0000000E+00;0;  2.4655776E-04;  1.0000000E+02;  0.0000000E+00;  0.0000000E+00;  1.0000000E+02;  0.0000000E+00;  1.0000000E+02;  2.2773449E-04;  0.0000000E+00;  1.8823277E-05;  0.0000000E+00;
  2.0000000E-01;  9.9999998E-03; -1.2000000E+00;119;  0.0000000E+00;  0.0000000E+00;  0.0000000E+00;  1.0000000E+01;  4.0000001E-01;  0.0000000E+00;0;  0.0000000E+00;  0.0000000E+00;  0.0000000E+00;  0.0000000E+00;  0.0000000E+00;  0.0000000E+00;0;  3.4288655E-04;  1.0000000E+02;  0.0000000E+00;  0.0000000E+00;  1.0000000E+02;  0.0000000E+00;  1.0000000E+02;  3.2663584E-04;  0.0000000E+00;  1.6250706E-05;  0.0000000E+00;
  4.0000001E-01;  9.9999998E-03; -1.8000000E+00;126;  0.0000000E+00;  0.0000000E+00;  0.0000000E+00;  1.0000000E+01;  4.0000001E-01;  0.0000000E+00;0;  0.0000000E+00;  0.0000000E+00;  0.0000000E+00;  0.0000000E+00;  0.0000000E+00;  0.0000000E+00;0;  1.8809366E-04;  1.0000000E+02;  0.0000000E+00;  0.0000000E+00;  1.0000000E+02;  0.0000000E+00;  1.0000000E+02;  1.7595127E-04;  0.0000000E+00;  1.2142401E-05;  0.0000000E+00;
  4.0000001E-01;  9.9999998E-03; -1.6000000E+00;127;  0.0000000E+00;  0.0000000E+00;  0.0000000E+00;  1.0000000E+01;  4.0000001E-01;  0.0000000E+00;0;  0.0000000E+00;  0.0000000E+00;  0.0000000E+00;  0.0000000E+00;  0.0000000E+00;  0.0000000E+00;0;  3.3720926E-04;  1.0000000E+02;  0.0000000E+00;  0.0000000E+00;  1.0000000E+02;  0.0000000E+00;  1.0000000E+02;  3.2132844E-04;  0.0000000E+00;  1.5880838E-05;  0.0000000E+00;
  4.0000001E-01;  9.9999998E-03; -1.4000000E+00;128;  0.0000000E+00;  0.0000000E+00;  0.0000000E+00;  1.0000000E+01;  4.0000001E-01;  0.0000000E+00;0;  0.0000000E+00;  0.0000000E+00;  0.0000000E+00;  0.0000000E+00;  0.0000000E+00;  0.0000000E+00;0;  5.2926422E-04;  1.0000000E+02;  0.0000000E+00;  0.0000000E+00;  1.0000000E+02;  0.0000000E+00;  1.0000000E+02;  5.1222066E-04;  0.0000000E+00;  1.7043552E-05;  0.0000000E+00;
  4.0000001E-01;  9.9999998E-03; -1.2000000E+00;129;  0.0000000E+00;  0.0000000E+00;  0.0000000E+00;  1.0000000E+01;  4.0000001E-01;  0.0000000E+00;0;  0.0000000E+00;  0.0000000E+00;  0.0000000E+00;  0.0000000E+00;  0.0000000E+00;  0.0000000E+00;0;  7.3748082E-04;  1.0000000E+02;  0.0000000E+00;  0.0000000E+00;  1.0000000E+02;  0.0000000E+00;  1.0000000E+02;  7.2263624E-04;  0.0000000E+00;  1.4844602E-05;  0.0000000E+00;
  6.0000002E-01;  9.9999998E-03; -1.8000000E+00;136;  0.0000000E+00;  0.0000000E+00;  0.0000000E+00;  1.0000000E+01;  4.0000001E-01;  0.0000000E+00;0;  0.0000000E+00;  0.0000000E+00;  0.0000000E+00;  0.0000000E+00;  0.0000000E+00;  0.0000000E+00;0;  3.5971799E-04;  1.0000000E+02;  0.0000000E+00;  0.0000000E+00;  1.0000000E+02;  0.0000000E+00;  1.0000000E+02;  3.5386012E-04;  0.0000000E+00;  5.8578767E-06;  0.0000000E+00;
  6.0000002E-01;  9.9999998E-03; -1.6000000E+00;137;  0.0000000E+00;  0.0000000E+00;  0.0000000E+00;  1.0000000E+01;  4.0000001E-01;  0.0000000E+00;0;  0.0000000E+00;  0.0000000E+00;  0.0000000E+00;  0.0000000E+00;  0.0000000E+00;  0.0000000E+00;0;  6.3539291E-04;  1.0000000E+02;  0.0000000E+00;  0.0000000E+00;  1.0000000E+02;  0.0000000E+00;  1.0000000E+02;  6.2812545E-04;  0.0000000E+00;  7.2674638E-06;  0.0000000E+00;
  6.0000002E-01;  9.9999998E-03; -1.4000000E+00;138;  0.0000000E+00;  0.0000000E+00;  0.0000000E+00;  1.0000000E+01;  4.0000001E-01;  0.0000000E+00;0;  0.0000000E+00;  0.0000000E+00;  0.0000000E+00;  0.0000000E+00;  0.0000000E+00;  0.0000000E+00;0;  9.9287659E-04;  1.0000000E+02;  0.0000000E+00;  0.0000000E+00;  1.0000000E+02;  0.0000000E+00;  1.0000000E+02;  9.8524150E-04;  0.0000000E+00;  7.6350698E-06;  0.0000000E+00;
  6.0000002E-01;  9.9999998E-03; -1.2000000E+00;139;  0.0000000E+00;  0.0000000E+00;  0.0000000E+00;  1.0000000E+01;  4.0000001E-01;  0.0000000E+00;0;  0.0000000E+00;  0.0000000E+00;  0.0000000E+00;  0.0000000E+00;  0.0000000E+00;  0.0000000E+00;0;  1.3735502E-03;  1.0000000E+02;  0.0000000E+00;  0.0000000E+00;  1.0000000E+02;  0.0000000E+00;  1.0000000E+02;  1.3669970E-03;  0.0000000E+00;  6.5531490E-06;  0.0000000E+00;
  8.0000001E-01;  9.9999998E-03; -1.8000000E+00;146;  0.0000000E+00;  0.0000000E+00;  0.0000000E+00;  1.0000000E+01;  4.0000001E-01;  0.0000000E+00;0;  0.0000000E+00;  0.0000000E+00;  0.0000000E+00;  0.0000000E+00;  0.0000000E+00;  0.0000000E+00;0;  5.9196260E-04;  1.0000000E+02;  0.0000000E+00;  0.0000000E+00;  1.0000000E+02;  0.0000000E+00;  1.0000000E+02;  5.9820054E-04;  0.0000000E+00; -6.2379399E-06;  0.0000000E+00;
  8.0000001E-01;  9.9999998E-03; -1.6000000E+00;147;  0.0000000E+00;  0.0000000E+00;  0.0000000E+00;  1.0000000E+01;  4.0000001E-01;  0.0000000E+00;0;  0.0000000E+00;  0.0000000E+00;  0.0000000E+00;  0.0000000E+00;  0.0000000E+00;  0.0000000E+00;0;  1.0292865E-03;  1.0000000E+02;  0.0000000E+00;  0.0000000E+00;  1.0000000E+02;  0.0000000E+00;  1.0000000E+02;  1.0377311E-03;  0.0000000E+00; -8.4445446E-06;  0.0000000E+00;
  8.0000001E-01;  9.9999998E-03; -1.4000000E+00;148;  0.0000000E+00;  0.0000000E+00;  0.0000000E+00;  1.0000000E+01;  4.0000001E-01;  0.0000000E+00;0;  0.0000000E+00;  0.0000000E+00;  0.0000000E+00;  0.0000000E+00;  0.0000000E+00;  0.0000000E+00;0;  1.6075072E-03;  1.0000000E+02;  0.0000000E+00;  0.0000000E+00;  1.0000000E+02;  0.0000000E+00;  1.0000000E+02;  1.6172359E-03;  0.0000000E+00; -9.7287329E-06;  0.0000000E+00;
  8.0000001E-01;  9.9999998E-03; -1.2000000E+00;149;  0.0000000E+00;  0.0000000E+00;  0.0000000E+00;  1.0000000E+01;  4.0000001E-01;  0.0000000E+00;0;  0.0000000E+00;  0.0000000E+00;  0.0000000E+00;  0.0000000E+00;  0.0000000E+00;  0.0000000E+00;0;  2.2175075E-03;  1.0000000E+02;  0.0000000E+00;  0.0000000E+00;  1.0000000E+02;  0.0000000E+00;  1.0000000E+02;  2.2267143E-03;  0.0000000E+00; -9.2067185E-06;  0.0000000E+00;
  1.0000000E+00;  9.9999998E-03; -1.8000000E+00;156;  0.0000000E+00;  0.0000000E+00;  0.0000000E+00;  1.0000000E+01;  4.0000001E-01;  0.0000000E+00;0;  0.0000000E+00;  0.0000000E+00;  0.0000000E+00;  0.0000000E+00;  0.0000000E+00;  0.0000000E+00;0;  8.1722054E-04;  1.0000000E+02;  0.0000000E+00;  0.0000000E+00;  1.0000000E+02;  0.0000000E+00;  1.0000000E+02;  8.4154250E-04;  0.0000000E+00; -2.4321973E-05;  0.0000000E+00;
  1.0000000E+00;  9.9999998E-03; -1.6000000E+00;157;  0.0000000E+00;  0.0000000E+00;  0.0000000E+00;  1.0000000E+01;  4.0000001E-01;  0.0000000E+00;0;  0.0000000E+00;  0.0000000E+00;  0.0000000E+00;  0.0000000E+00;  0.0000000E+00;  0.0000000E+00;0;  1.4174697E-03;  1.0000000E+02;  0.0000000E+00;  0.0000000E+00;  1.0000000E+02;  0.0000000E+00;  1.0000000E+02;  1.4473018E-03;  0.0000000E+00; -2.9832177E-05;  0.0000000E+00;
  1.0000000E+00;  9.9999998E-03; -1.4000000E+00;158;  0.0000000E+00;  0.0000000E+00;  0.0000000E+00;  1.0000000E+01;  4.0000001E-01;  0.0000000E+00;0;  0.0000000E+00;  0.0000000E+00;  0.0000000E+00;  0.0000000E+00;  0.0000000E+00;  0.0000000E+00;0;  2.2346131E-03;  1.0000000E+02;  0.0000000E+00;  0.0000000E+00;  1.0000000E+02;  0.0000000E+00;  1.0000000E+02;  2.2669779E-03;  0.0000000E+00; -3.2364962E-05;  0.0000000E+00;
  1.0000000E+00;  9.9999998E-03; -1.2000000E+00;159;  0.0000000E+00;  0.0000000E+00;  0.0000000E+00;  1.0000000E+01;  4.0000001E-01;  0.0000000E+00;0;  0.0000000E+00;  0.0000000E+00;  0.0000000E+00;  0.0000000E+00;  0.0000000E+00;  0.0000000E+00;0;  3.1036176E-03;  1.0000000E+02;  0.0000000E+00;  0.0000000E+00;  1.0000000E+02;  0.0000000E+00;  1.0000000E+02;  3.1325333E-03;  0.0000000E+00; -2.8915592E-05;  0.0000000E+00;
 -1.0000000E+00;  9.9999998E-03;  0.0000000E+00;10;  0.0000000E+00;  0.0000000E+00;  0.0000000E+00;  1.0001437E+01;  4.0000001E-01;  1.5468533E-01;0;  0.0000000E+00;  0.0000000E+00;  0.0000000E+00;  0.0000000E+00;  0.0000000E+00;  0.0000000E+00;0;  4.1804096E-06;  1.0000000E+02;  0.0000000E+00;  0.0000000E+00;  1.0000000E+02;  0.0000000E+00;  1.0000000E+02;  4.6378887E-06;  0.0000000E+00; -4.5747890E-07;  0.0000000E+00;
 -1.0000000E+00;  9.9999998E-03;  2.0000000E-01;11;  0.0000000E+00;  0.0000000E+00;  0.0000000E+00;  1.0001415E+01;  4.0000001E-01;  1.5224834E-01;0;  0.0000000E+00;  0.0000000E+00;  0.0000000E+00;  0.0000000E+00;  0.0000000E+00;  0.0000000E+00;0;  3.3403946E-06;  1.0000000E+02;  0.0000000E+00;  0.0000000E+00;  1.0000000E+02;  0.0000000E+00;  1.0000000E+02;  3.7431421E-06;  0.0000000E+00; -4.0274742E-07;  0.0000000E+00;
 -1.0000000E+00;  9.9999998E-03;  4.0000001E-01;12;  0.0000000E+00;  0.0000000E+00;  0.0000000E+00;  1.0001355E+01;  4.0000001E-01;  1.4583518E-01;0;  0.0000000E+00;  0.0000000E+00;  0.0000000E+00;  0.0000000E+00;  0.0000000E+00;  0.0000000E+00;0;  1.2283956E-06;  1.0000000E+02;  0.0000000E+00;  0.0000000E+00;  1.0000000E+02;  0.0000000E+00;  1.0000000E+02;  1.4737641E-06;  0.0000000E+00; -2.4536848E-07;  0.0000000E+00;
 -1.0000000E+00;  9.9999998E-03;  6.0000002E-01;13;  0.0000000E+00;  0.0000000E+00;  0.0000000E+00;  1.0001233E+01;  4.0000001E-01;  1.3262407E-01;0;  0.0000000E+00;  0.0000000E+00;  0.0000000E+00;  0.0000000E+00;  0.0000000E+00;  0.0000000E+00;0; -1.2167666E-06;  1.0000000E+02;  0.0000000E+00;  0.0000000E+00;  1.0000000E+02;  0.0000000E+00;  1.0000000E+02; -1.1860661E-06;  0.0000000E+00; -3.0700441E-08;  0.0000000E+00;
 -1.0000000E+00;  9.9999998E-03;  8.0000001E-01;14;  0.0000000E+00;  0.0000000E+00;  0.0000000E+00;  1.0001022E+01;  4.0000001E-01;  1.1004976E-01;0;  0.0000000E+00;  0.0000000E+00;  0.0000000E+00;  0.0000000E+00;  0.0000000E+00;  0.0000000E+00;0; -3.0524379E-06;  1.0000000E+02;  0.0000000E+00;  0.0000000E+00;  1.0000000E+02;  0.0000000E+00;  1.0000000E+02; -3.2181238E-06;  0.0000000E+00;  1.6568583E-07;  0.0000000E+00;
 -1.0000000E+00;  9.9999998E-03;  1.0000000E+00;15;  0.0000000E+00;  0.0000000E+00;  0.0000000E+00;  1.0000754E+01;  4.0000001E-01;  8.1190556E-02;0;  0.0000000E+00;  0.0000000E+00;  0.0000000E+00;  0.0000000E+00;  0.0000000E+00;  0.0000000E+00;0; -3.7541824E-06;  1.0000000E+02;  0.0000000E+00;  0.0000000E+00;  1.0000000E+02;  0.0000000E+00;  1.0000000E+02; -4.0371801E-06;  0.0000000E+00;  2.8299760E-07;  0.0000000E+00;
 -1.0000000E+00;  9.9999998E-03;  1.2000000E+00;16;  0.0000000E+00;  0.0000000E+00;  0.0000000E+00;  1.0000500E+01;  4.0000001E-01;  5.3742249E-02;0;  0.0000000E+00;  0.0000000E+00;  0.0000000E+00;  0.0000000E+00;  0.0000000E+00;  0.0000000E+00;0; -3.4009204E-06;  1.0000000E+02;  0.0000000E+00;  0.0000000E+00;  1.0000000E+02;  0.0000000E+00;  1.0000000E+02; -3.7002351E-06;  0.0000000E+00;  2.9931482E-07;  0.0000000E+00;
 -1.0000000E+00;  9.9999998E-03;  1.4000000E+00;17;  0.0000000E+00;  0.0000000E+00;  0.0000000E+00;  1.0000267E+01;  4.0000001E-01;  2.8730940E-02;0;  0.0000000E+00;  0.0000000E+00;  0.0000000E+00;  0.0000000E+00;  0.0000000E+00;  0.0000000E+00;0; -2.4916285E-06;  1.0000000E+02;  0.0000000E+00;  0.0000000E+00;  1.0000000E+02;  0.0000000E+00;  1.0000000E+02; -2.7177193E-06;  0.0000000E+00;  2.2609075E-07;  0.0000000E+00;
 -8.0000001E-01;  9.9999998E-03;  0.0000000E+00;31;  0.0000000E+00;  0.0000000E+00;  0.0000000E+00;  1.0003192E+01;  4.0000001E-01;  3.4348860E-01;0;  0.0000000E+00;  0.0000000E+00;  0.0000000E+00;  0.0000000E+00;  0.0000000E+00;  0.0000000E+00;0;  4.5998950E-06;  1.0000000E+02;  0.0000000E+00;  0.0000000E+00;  1.0000000E+02;  0.0000000E+00;  1.0000000E+02;  6.0651519E-06;  0.0000000E+00; -1.4652567E-06;  0.0000000E+00;
 -8.0000001E-01;  9.9999998E-03;  2.0000000E-01;32;  0.0000000E+00;  0.0000000E+00;  0.0000000E+00;  1.0003148E+01;  4.0000001E-01;  3.3874288E-01;0;  0.0000000E+00;  0.0000000E+00;  0.0000000E+00;  0.0000000E+00;  0.0000000E+00;  0.0000000E+00;0;  3.1771958E-06;  1.0000000E+02;  0.0000000E+00;  0.0000000E+00;  1.0000000E+02;  0.0000000E+00;  1.0000000E+02;  4.5161810E-06;  0.0000000E+00; -1.3389852E-06;  0.0000000E+00;
 -8.0000001E-01;  9.9999998E-03;  4.0000001E-01;33;  0.0000000E+00;  0.0000000E+00;  0.0000000E+00;  1.0002994E+01;  4.0000001E-01;  3.2206869E-01;0;  0.0000000E+00;  0.0000000E+00;  0.0000000E+00;  0.0000000E+00;  0.0000000E+00;  0.0000000E+00;0; -3.7031481E-07;  1.0000000E+02;  0.0000000E+00;  0.0000000E+00;  1.0000000E+02;  0.0000000E+00;  1.0000000E+02;  5.8317318E-07;  0.0000000E+00; -9.5348798E-07;  0.0000000E+00;
 -8.0000001E-01;  9.9999998E-03;  6.0000002E-01;34;  0.0000000E+00;  0.0000000E+00;  0.0000000E+00;  1.0002711E+01;  4.0000001E-01;  2.9167032E-01;0;  0.0000000E+00;  0.0000000E+00;  0.0000000E+00;  0.0000000E+00;  0.0000000E+00;  0.0000000E+00;0; -4.3524565E-06;  1.0000000E+02;  0.0000000E+00;  0.0000000E+00;  1.0000000E+02;  0.0000000E+00;  1.0000000E+02; -4.0001346E-06;  0.0000000E+00; -3.5232171E-07;  0.0000000E+00;
 -8.0000001E-01;  9.9999998E-03;  8.0000001E-01;35;  0.0000000E+00;  0.0000000E+00;  0.0000000E+00;  1.0002297E+01;  4.0000001E-01;  2.4716301E-01;0;  0.0000000E+00;  0.0000000E+00;  0.0000000E+00;  0.0000000E+00;  0.0000000E+00;  0.0000000E+00;0; -7.1218860E-06;  1.0000000E+02;  0.0000000E+00;  0.0000000E+00;  1.0000000E+02;  0.0000000E+00;  1.0000000E+02; -7.4198224E-06;  0.0000000E+00;  2.9793657E-07;  0.0000000E+00;
 -8.0000001E-01;  9.9999998E-03;  1.0000000E+00;36;  0.0000000E+00;  0.0000000E+00;  0.0000000E+00;  1.0001770E+01;  4.0000001E-01;  1.9047073E-01;0;  0.0000000E+00;  0.0000000E+00;  0.0000000E+00;  0.0000000E+00;  0.0000000E+00;  0.0000000E+00;0; -7.8699204E-06;  1.0000000E+02;  0.0000000E+00;  0.0000000E+00;  1.0000000E+02;  0.0000000E+00;  1.0000000E+02; -8.6782456E-06;  0.0000000E+00;  8.0832535E-07;  0.0000000E+00;
 -8.0000001E-01;  9.9999998E-03;  1.2000000E+00;37;  0.0000000E+00;  0.0000000E+00;  0.0000000E+00;  1.0001216E+01;  4.0000001E-01;  1.3082838E-01;0;  0.0000000E+00;  0.0000000E+00;  0.0000000E+00;  0.0000000E+00;  0.0000000E+00;  0.0000000E+00;0; -6.8308200E-06;  1.0000000E+02;  0.0000000E+00;  0.0000000E+00;  1.0000000E+02;  0.0000000E+00;  1.0000000E+02; -7.8937037E-06;  0.0000000E+00;  1.0628839E-06;  0.0000000E+00;
 -8.0000001E-01;  9.9999998E-03;  1.4000000E+00;38;  0.0000000E+00;  0.0000000E+00;  0.0000000E+00;  1.0000714E+01;  4.0000001E-01;  7.6829605E-02;0;  0.0000000E+00;  0.0000000E+00;  0.0000000E+00;  0.0000000E+00;  0.0000000E+00;  0.0000000E+00;0; -4.9159312E-06;  1.0000000E+02;  0.0000000E+00;  0.0000000E+00;  1.0000000E+02;  0.0000000E+00;  1.0000000E+02; -5.9431136E-06;  0.0000000E+00;  1.0271824E-06;  0.0000000E+00;
 -6.0000002E-01;  9.9999998E-03;  0.0000000E+00;52;  0.0000000E+00;  0.0000000E+00;  0.0000000E+00;  1.0005066E+01;  4.0000001E-01;  5.4511797E-01;0;  0.0000000E+00;  0.0000000E+00;  0.0000000E+00;  0.0000000E+00;  0.0000000E+00;  0.0000000E+00;0;  1.7577377E-06;  1.0000000E+02;  0.0000000E+00;  0.0000000E+00;  1.0000000E+02;  0.0000000E+00;  1.0000000E+02;  5.5291857E-06;  0.0000000E+00; -3.7714481E-06;  0.0000000E+00;
 -6.0000002E-01;  9.9999998E-03;  2.0000000E-01;53;  0.0000000E+00;  0.0000000E+00;  0.0000000E+00;  1.0004984E+01;  4.0000001E-01;  5.3626782E-01;0;  0.0000000E+00;  0.0000000E+00;  0.0000000E+00;  0.0000000E+00;  0.0000000E+00;  0.0000000E+00;0; -5.2242513E-08;  1.0000000E+02;  0.0000000E+00;  0.0000000E+00;  1.0000000E+02;  0.0000000E+00;  1.0000000E+02;  3.4148300E-06;  0.0000000E+00; -3.4670725E-06;  0.0000000E+00;
 -6.0000002E-01;  9.9999998E-03;  4.0000001E-01;54;  0.0000000E+00;  0.0000000E+00;  0.0000000E+00;  1.0004719E+01;  4.0000001E-01;  5.0766516E-01;0;  0.0000000E+00;  0.0000000E+00;  0.0000000E+00;  0.0000000E+00;  0.0000000E+00;  0.0000000E+00;0; -4.3829964E-06;  1.0000000E+02;  0.0000000E+00;  0.0000000E+00;  1.0000000E+02;  0.0000000E+00;  1.0000000E+02; -1.8292611E-06;  0.0000000E+00; -2.5537352E-06;  0.0000000E+00;
 -6.0000002E-01;  9.9999998E-03;  6.0000002E-01;55;  0.0000000E+00;  0.0000000E+00;  0.0000000E+00;  1.0004251E+01;  4.0000001E-01;  4.5738605E-01;0;  0.0000000E+00;  0.0000000E+00;  0.0000000E+00;  0.0000000E+00;  0.0000000E+00;  0.0000000E+00;0; -8.8112511E-06;  1.0000000E+02;  0.0000000E+00;  0.0000000E+00;  1.0000000E+02;  0.0000000E+00;  1.0000000E+02; -7.6804226E-06;  0.0000000E+00; -1.1308287E-06;  0.0000000E+00;
 -6.0000002E-01;  9.9999998E-03;  8.0000001E-01;56;  0.0000000E+00;  0.0000000E+00;  0.0000000E+00;  1.0003582E+01;  4.0000001E-01;  3.8543049E-01;0;  0.0000000E+00;  0.0000000E+00;  0.0000000E+00;  0.0000000E+00;  0.0000000E+00;  0.0000000E+00;0; -1.1137802E-05;  1.0000000E+02;  0.0000000E+00;  0.0000000E+00;  1.0000000E+02;  0.0000000E+00;  1.0000000E+02; -1.1604111E-05;  0.0000000E+00;  4.6630876E-07;  0.0000000E+00;
 -6.0000002E-01;  9.9999998E-03;  1.0000000E+00;57;  0.0000000E+00;  0.0000000E+00;  0.0000000E+00;  1.0002759E+01;  4.0000001E-01;  2.9680070E-01;0;  0.0000000E+00;  0.0000000E+00;  0.0000000E+00;  0.0000000E+00;  0.0000000E+00;  0.0000000E+00;0; -1.0801739E-05;  1.0000000E+02;  0.0000000E+00;  0.0000000E+00;  1.0000000E+02;  0.0000000E+00;  1.0000000E+02; -1.2628016E-05;  0.0000000E+00;  1.8262759E-06;  0.0000000E+00;
 -6.0000002E-01;  9.9999998E-03;  1.2000000E+00;58;  0.0000000E+00;  0.0000000E+00;  0.0000000E+00;  1.0001933E+01;  4.0000001E-01;  2.0804268E-01;0;  0.0000000E+00;  0.0000000E+00;  0.0000000E+00;  0.0000000E+00;  0.0000000E+00;  0.0000000E+00;0; -8.6023410E-06;  1.0000000E+02;  0.0000000E+00;  0.0000000E+00;  1.0000000E+02;  0.0000000E+00;  1.0000000E+02; -1.1272212E-05;  0.0000000E+00;  2.6698704E-06;  0.0000000E+00;
 -6.0000002E-01;  9.9999998E-03;  1.4000000E+00;59;  0.0000000E+00;  0.0000000E+00;  0.0000000E+00;  1.0001203E+01;  4.0000001E-01;  1.2941742E-01;0;  0.0000000E+00;  0.0000000E+00;  0.0000000E+00;  0.0000000E+00;  0.0000000E+00;  0.0000000E+00;0; -5.7720354E-06;  1.0000000E+02;  0.0000000E+00;  0.0000000E+00;  1.0000000E+02;  0.0000000E+00;  1.0000000E+02; -8.6303462E-06;  0.0000000E+00;  2.8583108E-06;  0.0000000E+00;
 -4.0000001E-01;  9.9999998E-03;  0.0000000E+00;73;  0.0000000E+00;  0.0000000E+00;  0.0000000E+00;  1.0006395E+01;  4.0000001E-01;  6.8813080E-01;0;  0.0000000E+00;  0.0000000E+00;  0.0000000E+00;  0.0000000E+00;  0.0000000E+00;  0.0000000E+00;0;  8.1884282E-06;  1.0000000E+02;  0.0000000E+00;  0.0000000E+00;  1.0000000E+02;  0.0000000E+00;  1.0000000E+02;  1.6192535E-05;  0.0000000E+00; -8.0041063E-06;  0.0000000E+00;
 -4.0000001E-01;  9.9999998E-03;  2.0000000E-01;74;  0.0000000E+00;  0.0000000E+00;  0.0000000E+00;  1.0006269E+01;  4.0000001E-01;  6.7440671E-01;0;  0.0000000E+00;  0.0000000E+00;  0.0000000E+00;  0.0000000E+00;  0.0000000E+00;  0.0000000E+00;0;  5.7976413E-06;  1.0000000E+02;  0.0000000E+00;  0.0000000E+00;  1.0000000E+02;  0.0000000E+00;  1.0000000E+02;  1.3139989E-05;  0.0000000E+00; -7.3423480E-06;  0.0000000E+00;
 -4.0000001E-01;  9.9999998E-03;  4.0000001E-01;75;  0.0000000E+00;  0.0000000E+00;  0.0000000E+00;  1.0005867E+01;  4.0000001E-01;  6.3131034E-01;0;  0.0000000E+00;  0.0000000E+00;  0.0000000E+00;  0.0000000E+00;  0.0000000E+00;  0.0000000E+00;0;  8.0865539E-07;  1.0000000E+02;  0.0000000E+00;  0.0000000E+00;  1.0000000E+02;  0.0000000E+00;  1.0000000E+02;  6.2451236E-06;  0.0000000E+00; -5.4364682E-06;  0.0000000E+00;
 -4.0000001E-01;  9.9999998E-03;  6.0000002E-01;76;  0.0000000E+00;  0.0000000E+00;  0.0000000E+00;  1.0005220E+01;  4.0000001E-01;  5.6166351E-01;0;  0.0000000E+00;  0.0000000E+00;  0.0000000E+00;  0.0000000E+00;  0.0000000E+00;  0.0000000E+00;0; -3.0836870E-06;  1.0000000E+02;  0.0000000E+00;  0.0000000E+00;  1.0000000E+02;  0.0000000E+00;  1.0000000E+02; -5.1720423E-07;  0.0000000E+00; -2.5664829E-06;  0.0000000E+00;
 -4.0000001E-01;  9.9999998E-03;  8.0000001E-01;77;  0.0000000E+00;  0.0000000E+00;  0.0000000E+00;  1.0004329E+01;  4.0000001E-01;  4.6572283E-01;0;  0.0000000E+00;  0.0000000E+00;  0.0000000E+00;  0.0000000E+00;  0.0000000E+00;  0.0000000E+00;0; -3.8897456E-06;  1.0000000E+02;  0.0000000E+00;  0.0000000E+00;  1.0000000E+02;  0.0000000E+00;  1.0000000E+02; -4.5412326E-06;  0.0000000E+00;  6.5148686E-07;  0.0000000E+00;
 -4.0000001E-01;  9.9999998E-03;  1.0000000E+00;78;  0.0000000E+00;  0.0000000E+00;  0.0000000E+00;  1.0003303E+01;  4.0000001E-01;  3.5528842E-01;0;  0.0000000E+00;  0.0000000E+00;  0.0000000E+00;  0.0000000E+00;  0.0000000E+00;  0.0000000E+00;0; -2.1880080E-06;  1.0000000E+02;  0.0000000E+00;  0.0000000E+00;  1.0000000E+02;  0.0000000E+00;  1.0000000E+02; -5.6701742E-06;  0.0000000E+00;  3.4821662E-06;  0.0000000E+00;
 -4.0000001E-01;  9.9999998E-03;  1.2000000E+00;79;  0.0000000E+00;  0.0000000E+00;  0.0000000E+00;  1.0002314E+01;  4.0000001E-01;  2.4895842E-01;0;  0.0000000E+00;  0.0000000E+00;  0.0000000E+00;  0.0000000E+00;  0.0000000E+00;  0.0000000E+00;0;  1.4532725E-07;  1.0000000E+02;  0.0000000E+00;  0.0000000E+00;  1.0000000E+02;  0.0000000E+00;  1.0000000E+02; -5.2568748E-06;  0.0000000E+00;  5.4022021E-06;  0.0000000E+00;
 -4.0000001E-01;  9.9999998E-03;  1.4000000E+00;80;  0.0000000E+00;  0.0000000E+00;  0.0000000E+00;  1.0001434E+01;  4.0000001E-01;  1.5430035E-01;0;  0.0000000E+00;  0.0000000E+00;  0.0000000E+00;  0.0000000E+00;  0.0000000E+00;  0.0000000E+00;0;  1.4745592E-06;  1.0000000E+02;  0.0000000E+00;  0.0000000E+00;  1.0000000E+02;  0.0000000E+00;  1.0000000E+02; -4.6384803E-06;  0.0000000E+00;  6.1130395E-06;  0.0000000E+00;
 -2.0000000E-01;  9.9999998E-03;  0.0000000E+00;94;  0.0000000E+00;  0.0000000E+00;  0.0000000E+00;  1.0006600E+01;  4.0000001E-01;  7.1019083E-01;0;  0.0000000E+00;  0.0000000E+00;  0.0000000E+00;  0.0000000E+00;  0.0000000E+00;  0.0000000E+00;0;  6.1768733E-05;  1.0000000E+02;  0.0000000E+00;  0.0000000E+00;  1.0000000E+02;  0.0000000E+00;  1.0000000E+02;  7.5786491E-05;  0.0000000E+00; -1.4017760E-05;  0.0000000E+00;
 -2.0000000E-01;  9.9999998E-03;  2.0000000E-01;95;  0.0000000E+00;  0.0000000E+00;  0.0000000E+00;  1.0006418E+01;  4.0000001E-01;  6.9056666E-01;0;  0.0000000E+00;  0.0000000E+00;  0.0000000E+00;  0.0000000E+00;  0.0000000E+00;  0.0000000E+00;0;  5.9482278E-05;  1.0000000E+02;  0.0000000E+00;  0.0000000E+00;  1.0000000E+02;  0.0000000E+00;  1.0000000E+02;  7.2324940E-05;  0.0000000E+00; -1.2842661E-05;  0.0000000E+00;
 -2.0000000E-01;  9.9999998E-03;  4.0000001E-01;96;  0.0000000E+00;  0.0000000E+00;  0.0000000E+00;  1.0005876E+01;  4.0000001E-01;  6.3220710E-01;0;  0.0000000E+00;  0.0000000E+00;  0.0000000E+00;  0.0000000E+00;  0.0000000E+00;  0.0000000E+00;0;  5.3917487E-05;  1.0000000E+02;  0.0000000E+00;  0.0000000E+00;  1.0000000E+02;  0.0000000E+00;  1.0000000E+02;  6.3475221E-05;  0.0000000E+00; -9.5577334E-06;  0.0000000E+00;
 -2.0000000E-01;  9.9999998E-03;  6.0000002E-01;97;  0.0000000E+00;  0.0000000E+00;  0.0000000E+00;  1.0005065E+01;  4.0000001E-01;  5.4498839E-01;0;  0.0000000E+00;  0.0000000E+00;  0.0000000E+00;  0.0000000E+00;  0.0000000E+00;  0.0000000E+00;0;  4.8435344E-05;  1.0000000E+02;  0.0000000E+00;  0.0000000E+00;  1.0000000E+02;  0.0000000E+00;  1.0000000E+02;  5.3169944E-05;  0.0000000E+00; -4.7346007E-06;  0.0000000E+00;
 -2.0000000E-01;  9.9999998E-03;  8.0000001E-01;98;  0.0000000E+00;  0.0000000E+00;  0.0000000E+00;  1.0004066E+01;  4.0000001E-01;  4.3737596E-01;0;  0.0000000E+00;  0.0000000E+00;  0.0000000E+00;  0.0000000E+00;  0.0000000E+00;  0.0000000E+00;0;  4.4775174E-05;  1.0000000E+02;  0.0000000E+00;  0.0000000E+00;  1.0000000E+02;  0.0000000E+00;  1.0000000E+02;  4.4038938E-05;  0.0000000E+00;  7.3623659E-07;  0.0000000E+00;
 -2.0000000E-01;  9.9999998E-03;  1.0000000E+00;99;  0.0000000E+00;  0.0000000E+00;  0.0000000E+00;  1.0003020E+01;  4.0000001E-01;  3.2501781E-01;0;  0.0000000E+00;  0.0000000E+00;  0.0000000E+00;  0.0000000E+00;  0.0000000E+00;  0.0000000E+00;0;  4.1637664E-05;  1.0000000E+02;  0.0000000E+00;  0.0000000E+00;  1.0000000E+02;  0.0000000E+00;  1.0000000E+02;  3.5944351E-05;  0.0000000E+00;  5.6933136E-06;  0.0000000E+00;
 -2.0000000E-01;  9.9999998E-03;  1.2000000E+00;100;  0.0000000E+00;  0.0000000E+00;  0.0000000E+00;  1.0002044E+01;  4.0000001E-01;  2.1984234E-01;0;  0.0000000E+00;  0.0000000E+00;  0.0000000E+00;  0.0000000E+00;  0.0000000E+00;  0.0000000E+00;0;  3.6822355E-05;  1.0000000E+02;  0.0000000E+00;  0.0000000E+00;  1.0000000E+02;  0.0000000E+00;  1.0000000E+02;  2.7629798E-05;  0.0000000E+00;  9.1925558E-06;  0.0000000E+00;
 -2.0000000E-01;  9.9999998E-03;  1.4000000E+00;101;  0.0000000E+00;  0.0000000E+00;  0.0000000E+00;  1.0001285E+01;  4.0000001E-01;  1.3826725E-01;0;  0.0000000E+00;  0.0000000E+00;  0.0000000E+00;  0.0000000E+00;  0.0000000E+00;  0.0000000E+00;0;  2.9067431E-05;  1.0000000E+02;  0.0000000E+00;  0.0000000E+00;  1.0000000E+02;  0.0000000E+00;  1.0000000E+02;  1.8373334E-05;  0.0000000E+00;  1.0694097E-05;  0.0000000E+00;
  0.0000000E+00;  9.9999998E-03;  1.2000000E+00;110;  0.0000000E+00;  0.0000000E+00;  0.0000000E+00;  1.0000773E+01;  4.0000001E-01;  8.3242200E-02;0;  0.0000000E+00;  0.0000000E+00;  0.0000000E+00;  0.0000000E+00;  0.0000000E+00;  0.0000000E+00;0;  1.3336849E-04;  1.0000000E+02;  0.0000000E+00;  0.0000000E+00;  1.0000000E+02;  0.0000000E+00;  1.0000000E+02;  1.1998730E-04;  0.0000000E+00;  1.3381195E-05;  0.0000000E+00;
  0.0000000E+00;  9.9999998E-03;  1.4000000E+00;111;  0.0000000E+00;  0.0000000E+00;  0.0000000E+00;  1.0000346E+01;  4.0000001E-01;  3.7196055E-02;0;  0.0000000E+00;  0.0000000E+00;  0.0000000E+00;  0.0000000E+00;  0.0000000E+00;  0.0000000E+00;0;  9.8314071E-05;  1.0000000E+02;  0.0000000E+00;  0.0000000E+00;  1.0000000E+02;  0.0000000E+00;  1.0000000E+02;  8.2661492E-05;  0.0000000E+00;  1.5652580E-05;  0.0000000E+00;
  2.0000000E-01;  9.9999998E-03;  1.2000000E+00;120;  0.0000000E+00;  0.0000000E+00;  0.0000000E+00;  1.0000000E+01;  4.0000001E-01;  0.0000000E+00;0;  0.0000000E+00;  0.0000000E+00;  0.0000000E+00;  0.0000000E+00;  0.0000000E+00;  0.0000000E+00;0;  3.4288361E-04;  1.0000000E+02;  0.0000000E+00;  0.0000000E+00;  1.0000000E+02;  0.0000000E+00;  1.0000000E+02;  3.2663209E-04;  0.0000000E+00;  1.6251508E-05;  0.0000000E+00;
  2.0000000E-01;  9.9999998E-03;  1.4000000E+00;121;  0.0000000E+00;  0.0000000E+00;  0.0000000E+00;  1.0000000E+01;  4.0000001E-01;  0.0000000E+00;0;  0.0000000E+00;  0.0000000E+00;  0.0000000E+00;  0.0000000E+00;  0.0000000E+00;  0.0000000E+00;0;  2.4655554E-04;  1.0000000E+02;  0.0000000E+00;  0.0000000E+00;  1.0000000E+02;  0.0000000E+00;  1.0000000E+02;  2.2773170E-04;  0.0000000E+00;  1.8823859E-05;  0.0000000E+00;
  4.0000001E-01;  9.9999998E-03;  1.2000000E+00;130;  0.0000000E+00;  0.0000000E+00;  0.0000000E+00;  1.0000000E+01;  4.0000001E-01;  0.0000000E+00;0;  0.0000000E+00;  0.0000000E+00;  0.0000000E+00;  0.0000000E+00;  0.0000000E+00;  0.0000000E+00;0;  7.3747576E-04;  1.0000000E+02;  0.0000000E+00;  0.0000000E+00;  1.0000000E+02;  0.0000000E+00;  1.0000000E+02;  7.2262977E-04;  0.0000000E+00;  1.4845993E-05;  0.0000000E+00;
  4.0000001E-01;  9.9999998E-03;  1.4000000E+00;131;  0.0000000E+00;  0.0000000E+00;  0.0000000E+00;  1.0000000E+01;  4.0000001E-01;  0.0000000E+00;0;  0.0000000E+00;  0.0000000E+00;  0.0000000E+00;  0.0000000E+00;  0.0000000E+00;  0.0000000E+00;0;  5.2926043E-04;  1.0000000E+02;  0.0000000E+00;  0.0000000E+00;  1.0000000E+02;  0.0000000E+00;  1.0000000E+02;  5.1221572E-04;  0.0000000E+00;  1.7044731E-05;  0.0000000E+00;
  6.0000002E-01;  9.9999998E-03;  1.2000000E+00;140;  0.0000000E+00;  0.0000000E+00;  0.0000000E+00;  1.0000000E+01;  4.0000001E-01;  0.0000000E+00;0;  0.0000000E+00;  0.0000000E+00;  0.0000000E+00;  0.0000000E+00;  0.0000000E+00;  0.0000000E+00;0;  1.3735442E-03;  1.0000000E+02;  0.0000000E+00;  0.0000000E+00;  1.0000000E+02;  0.0000000E+00;  1.0000000E+02;  1.3669886E-03;  0.0000000E+00;  6.5555546E-06;  0.0000000E+00;
  6.0000002E-01;  9.9999998E-03;  1.4000000E+00;141;  0.0000000E+00;  0.0000000E+00;  0.0000000E+00;  1.0000000E+01;  4.0000001E-01;  0.0000000E+00;0;  0.0000000E+00;  0.0000000E+00;  0.0000000E+00;  0.0000000E+00;  0.0000000E+00;  0.0000000E+00;0;  9.9287147E-04;  1.0000000E+02;  0.0000000E+00;  0.0000000E+00;  1.0000000E+02;  0.0000000E+00;  1.0000000E+02;  9.8523404E-04;  0.0000000E+00;  7.6373844E-06;  0.0000000E+00;
  8.0000001E-01;  9.9999998E-03;  1.2000000E+00;150;  0.0000000E+00;  0.0000000E+00;  0.0000000E+00;  1.0000000E+01;  4.0000001E-01;  0.0000000E+00;0;  0.0000000E+00;  0.0000000E+00;  0.0000000E+00;  0.0000000E+00;  0.0000000E+00;  0.0000000E+00;0;  2.2175037E-03;  1.0000000E+02;  0.0000000E+00;  0.0000000E+00;  1.0000000E+02;  0.0000000E+00;  1.0000000E+02;  2.2267064E-03;  0.0000000E+00; -9.2027230E-06;  0.0000000E+00;
  8.0000001E-01;  9.9999998E-03;  1.4000000E+00;151;  0.0000000E+00;  0.0000000E+00;  0.0000000E+00;  1.0000000E+01;  4.0000001E-01;  0.0000000E+00;0;  0.0000000E+00;  0.0000000E+00;  0.0000000E+00;  0.0000000E+00;  0.0000000E+00;  0.0000000E+00;0;  1.6075039E-03;  1.0000000E+02;  0.0000000E+00;  0.0000000E+00;  1.0000000E+02;  0.0000000E+00;  1.0000000E+02;  1.6172286E-03;  0.0000000E+00; -9.7247175E-06;  0.0000000E+00;
  1.0000000E+00;  9.9999998E-03;  1.2000000E+00;160;  0.0000000E+00;  0.0000000E+00;  0.0000000E+00;  1.0000000E+01;  4.0000001E-01;  0.0000000E+00;0;  0.0000000E+00;  0.0000000E+00;  0.0000000E+00;  0.0000000E+00;  0.0000000E+00;  0.0000000E+00;0;  3.1036222E-03;  1.0000000E+02;  0.0000000E+00;  0.0000000E+00;  1.0000000E+02;  0.0000000E+00;  1.0000000E+02;  3.1325314E-03;  0.0000000E+00; -2.8909268E-05;  0.0000000E+00;
  1.0000000E+00;  9.9999998E-03;  1.4000000E+00;161;  0.0000000E+00;  0.0000000E+00;  0.0000000E+00;  1.0000000E+01;  4.0000001E-01;  0.0000000E+00;0;  0.0000000E+00;  0.0000000E+00;  0.0000000E+00;  0.0000000E+00;  0.0000000E+00;  0.0000000E+00;0;  2.2346168E-03;  1.0000000E+02;  0.0000000E+00;  0.0000000E+00;  1.0000000E+02;  0.0000000E+00;  1.0000000E+02;  2.2669756E-03;  0.0000000E+00; -3.2358825E-05;  0.0000000E+00;
 -1.0000000E+00;  9.9999998E-03;  1.6000000E+00;18;  0.0000000E+00;  0.0000000E+00;  0.0000000E+00;  1.0000038E+01;  4.0000001E-01;  4.1044201E-03;0;  0.0000000E+00;  0.0000000E+00;  0.0000000E+00;  0.0000000E+00;  0.0000000E+00;  0.0000000E+00;0; -1.5473431E-06;  1.0000000E+02;  0.0000000E+00;  0.0000000E+00;  1.0000000E+02;  0.0000000E+00;  1.0000000E+02; -1.6525270E-06;  0.0000000E+00;  1.0518391E-07;  0.0000000E+00;
 -1.0000000E+00;  9.9999998E-03;  1.8000000E+00;19;  0.0000000E+00;  0.0000000E+00;  0.0000000E+00;  1.0000000E+01;  4.0000001E-01;  0.0000000E+00;0;  0.0000000E+00;  0.0000000E+00;  0.0000000E+00;  0.0000000E+00;  0.0000000E+00;  0.0000000E+00;0; -8.2436213E-07;  1.0000000E+02;  0.0000000E+00;  0.0000000E+00;  1.0000000E+02;  0.0000000E+00;  1.0000000E+02; -8.2656896E-07;  0.0000000E+00;  2.2068201E-09;  0.0000000E+00;
 -1.0000000E+00;  9.9999998E-03;  2.0000000E+00;20;  0.0000000E+00;  0.0000000E+00;  0.0000000E+00;  1.0000000E+01;  4.0000001E-01;  0.0000000E+00;0;  0.0000000E+00;  0.0000000E+00;  0.0000000E+00;  0.0000000E+00;  0.0000000E+00;  0.0000000E+00;0; -3.2531577E-07;  1.0000000E+02;  0.0000000E+00;  0.0000000E+00;  1.0000000E+02;  0.0000000E+00;  1.0000000E+02; -2.9768901E-07;  0.0000000E+00; -2.7626745E-08;  0.0000000E+00;
 -8.0000001E-01;  9.9999998E-03;  1.6000000E+00;39;  0.0000000E+00;  0.0000000E+00;  0.0000000E+00;  1.0000361E+01;  4.0000001E-01;  3.8863722E-02;0;  0.0000000E+00;  0.0000000E+00;  0.0000000E+00;  0.0000000E+00;  0.0000000E+00;  0.0000000E+00;0; -3.0533670E-06;  1.0000000E+02;  0.0000000E+00;  0.0000000E+00;  1.0000000E+02;  0.0000000E+00;  1.0000000E+02; -3.7943003E-06;  0.0000000E+00;  7.4093316E-07;  0.0000000E+00;
 -8.0000001E-01;  9.9999998E-03;  1.8000000E+00;40;  0.0000000E+00;  0.0000000E+00;  0.0000000E+00;  1.0000087E+01;  4.0000001E-01;  9.3632070E-03;0;  0.0000000E+00;  0.0000000E+00;  0.0000000E+00;  0.0000000E+00;  0.0000000E+00;  0.0000000E+00;0; -1.7086700E-06;  1.0000000E+02;  0.0000000E+00;  0.0000000E+00;  1.0000000E+02;  0.0000000E+00;  1.0000000E+02; -2.0550310E-06;  0.0000000E+00;  3.4636099E-07;  0.0000000E+00;
 -8.0000001E-01;  9.9999998E-03;  2.0000000E+00;41;  0.0000000E+00;  0.0000000E+00;  0.0000000E+00;  1.0000000E+01;  4.0000001E-01;  0.0000000E+00;0;  0.0000000E+00;  0.0000000E+00;  0.0000000E+00;  0.0000000E+00;  0.0000000E+00;  0.0000000E+00;0; -8.0589689E-07;  1.0000000E+02;  0.0000000E+00;  0.0000000E+00;  1.0000000E+02;  0.0000000E+00;  1.0000000E+02; -8.7183213E-07;  0.0000000E+00;  6.5935239E-08;  0.0000000E+00;
 -6.0000002E-01;  9.9999998E-03;  1.6000000E+00;60;  0.0000000E+00;  0.0000000E+00;  0.0000000E+00;  1.0000634E+01;  4.0000001E-01;  6.8235949E-02;0;  0.0000000E+00;  0.0000000E+00;  0.0000000E+00;  0.0000000E+00;  0.0000000E+00;  0.0000000E+00;0; -3.3602432E-06;  1.0000000E+02;  0.0000000E+00;  0.0000000E+00;  1.0000000E+02;  0.0000000E+00;  1.0000000E+02; -5.7270327E-06;  0.0000000E+00;  2.3667894E-06;  0.0000000E+00;
 -6.0000002E-01;  9.9999998E-03;  1.8000000E+00;61;  0.0000000E+00;  0.0000000E+00;  0.0000000E+00;  1.0000278E+01;  4.0000001E-01;  3.0013556E-02;0;  0.0000000E+00;  0.0000000E+00;  0.0000000E+00;  0.0000000E+00;  0.0000000E+00;  0.0000000E+00;0; -1.9063881E-06;  1.0000000E+02;  0.0000000E+00;  0.0000000E+00;  1.0000000E+02;  0.0000000E+00;  1.0000000E+02; -3.2986686E-06;  0.0000000E+00;  1.3922805E-06;  0.0000000E+00;
 -6.0000002E-01;  9.9999998E-03;  2.0000000E+00;62;  0.0000000E+00;  0.0000000E+00;  0.0000000E+00;  1.0000000E+01;  4.0000001E-01;  0.0000000E+00;0;  0.0000000E+00;  0.0000000E+00;  0.0000000E+00;  0.0000000E+00;  0.0000000E+00;  0.0000000E+00;0; -1.0520960E-06;  1.0000000E+02;  0.0000000E+00;  0.0000000E+00;  1.0000000E+02;  0.0000000E+00;  1.0000000E+02; -1.5300786E-06;  0.0000000E+00;  4.7798272E-07;  0.0000000E+00;
 -4.0000001E-01;  9.9999998E-03;  1.6000000E+00;81;  0.0000000E+00;  0.0000000E+00;  0.0000000E+00;  1.0000803E+01;  4.0000001E-01;  8.6449243E-02;0;  0.0000000E+00;  0.0000000E+00;  0.0000000E+00;  0.0000000E+00;  0.0000000E+00;  0.0000000E+00;0;  1.3269168E-06;  1.0000000E+02;  0.0000000E+00;  0.0000000E+00;  1.0000000E+02;  0.0000000E+00;  1.0000000E+02; -4.1352641E-06;  0.0000000E+00;  5.4621810E-06;  0.0000000E+00;
 -4.0000001E-01;  9.9999998E-03;  1.8000000E+00;82;  0.0000000E+00;  0.0000000E+00;  0.0000000E+00;  1.0000381E+01;  4.0000001E-01;  4.0915888E-02;0;  0.0000000E+00;  0.0000000E+00;  0.0000000E+00;  0.0000000E+00;  0.0000000E+00;  0.0000000E+00;0;  3.4140339E-07;  1.0000000E+02;  0.0000000E+00;  0.0000000E+00;  1.0000000E+02;  0.0000000E+00;  1.0000000E+02; -3.2672217E-06;  0.0000000E+00;  3.6086251E-06;  0.0000000E+00;
 -4.0000001E-01;  9.9999998E-03;  2.0000000E+00;83;  0.0000000E+00;  0.0000000E+00;  0.0000000E+00;  1.0000092E+01;  4.0000001E-01;  9.8762484E-03;0;  0.0000000E+00;  0.0000000E+00;  0.0000000E+00;  0.0000000E+00;  0.0000000E+00;  0.0000000E+00;0; -3.2957701E-07;  1.0000000E+02;  0.0000000E+00;  0.0000000E+00;  1.0000000E+02;  0.0000000E+00;  1.0000000E+02; -1.8578248E-06;  0.0000000E+00;  1.5282478E-06;  0.0000000E+00;
 -2.0000000E-01;  9.9999998E-03;  1.6000000E+00;102;  0.0000000E+00;  0.0000000E+00;  0.0000000E+00;  1.0000818E+01;  4.0000001E-01;  8.7988243E-02;0;  0.0000000E+00;  0.0000000E+00;  0.0000000E+00;  0.0000000E+00;  0.0000000E+00;  0.0000000E+00;0;  1.9318486E-05;  1.0000000E+02;  0.0000000E+00;  0.0000000E+00;  1.0000000E+02;  0.0000000E+00;  1.0000000E+02;  9.3794415E-06;  0.0000000E+00;  9.9390454E-06;  0.0000000E+00;
 -2.0000000E-01;  9.9999998E-03;  1.8000000E+00;103;  0.0000000E+00;  0.0000000E+00;  0.0000000E+00;  1.0000424E+01;  4.0000001E-01;  4.5661539E-02;0;  0.0000000E+00;  0.0000000E+00;  0.0000000E+00;  0.0000000E+00;  0.0000000E+00;  0.0000000E+00;0;  9.8153314E-06;  1.0000000E+02;  0.0000000E+00;  0.0000000E+00;  1.0000000E+02;  0.0000000E+00;  1.0000000E+02;  2.7515227E-06;  0.0000000E+00;  7.0638089E-06;  0.0000000E+00;
 -2.0000000E-01;  9.9999998E-03;  2.0000000E+00;104;  0.0000000E+00;  0.0000000E+00;  0.0000000E+00;  1.0000140E+01;  4.0000001E-01;  1.5135004E-02;0;  0.0000000E+00;  0.0000000E+00;  0.0000000E+00;  0.0000000E+00;  0.0000000E+00;  0.0000000E+00;0;  3.0283927E-06;  1.0000000E+02;  0.0000000E+00;  0.0000000E+00;  1.0000000E+02;  0.0000000E+00;  1.0000000E+02; -3.8922019E-07;  0.0000000E+00;  3.4176130E-06;  0.0000000E+00;
  0.0000000E+00;  9.9999998E-03;  1.6000000E+00;112;  0.0000000E+00;  0.0000000E+00;  0.0000000E+00;  1.0000245E+01;  4.0000001E-01;  2.6422024E-02;0;  0.0000000E+00;  0.0000000E+00;  0.0000000E+00;  0.0000000E+00;  0.0000000E+00;  0.0000000E+00;0;  6.3763044E-05;  1.0000000E+02;  0.0000000E+00;  0.0000000E+00;  1.0000000E+02;  0.0000000E+00;  1.0000000E+02;  4.9033017E-05;  0.0000000E+00;  1.4730029E-05;  0.0000000E+00;
  0.0000000E+00;  9.9999998E-03;  1.8000000E+00;113;  0.0000000E+00;  0.0000000E+00;  0.0000000E+00;  1.0000056E+01;  4.0000001E-01;  6.0283258E-03;0;  0.0000000E+00;  0.0000000E+00;  0.0000000E+00;  0.0000000E+00;  0.0000000E+00;  0.0000000E+00;0;  3.4300421E-05;  1.0000000E+02;  0.0000000E+00;  0.0000000E+00;  1.0000000E+02;  0.0000000E+00;  1.0000000E+02;  2.3420567E-05;  0.0000000E+00;  1.0879854E-05;  0.0000000E+00;
  0.0000000E+00;  9.9999998E-03;  2.0000000E+00;114;  0.0000000E+00;  0.0000000E+00;  0.0000000E+00;  1.0000150E+01;  4.0000001E-01;  1.6161043E-02;0;  0.0000000E+00;  0.0000000E+00;  0.0000000E+00;  0.0000000E+00;  0.0000000E+00;  0.0000000E+00;0;  1.3502207E-05;  1.0000000E+02;  0.0000000E+00;  0.0000000E+00;  1.0000000E+02;  0.0000000E+00;  1.0000000E+02;  7.7645727E-06;  0.0000000E+00;  5.7376351E-06;  0.0000000E+00;
  2.0000000E-01;  9.9999998E-03;  1.6000000E+00;122;  0.0000000E+00;  0.0000000E+00;  0.0000000E+00;  1.0000000E+01;  4.0000001E-01;  0.0000000E+00;0;  0.0000000E+00;  0.0000000E+00;  0.0000000E+00;  0.0000000E+00;  0.0000000E+00;  0.0000000E+00;0;  1.5762544E-04;  1.0000000E+02;  0.0000000E+00;  0.0000000E+00;  1.0000000E+02;  0.0000000E+00;  1.0000000E+02;  1.3997646E-04;  0.0000000E+00;  1.7648988E-05;  0.0000000E+00;
  2.0000000E-01;  9.9999998E-03;  1.8000000E+00;123;  0.0000000E+00;  0.0000000E+00;  0.0000000E+00;  1.0000000E+01;  4.0000001E-01;  0.0000000E+00;0;  0.0000000E+00;  0.0000000E+00;  0.0000000E+00;  0.0000000E+00;  0.0000000E+00;  0.0000000E+00;0;  8.6787804E-05;  1.0000000E+02;  0.0000000E+00;  0.0000000E+00;  1.0000000E+02;  0.0000000E+00;  1.0000000E+02;  7.3509589E-05;  0.0000000E+00;  1.3278213E-05;  0.0000000E+00;
  2.0000000E-01;  9.9999998E-03;  2.0000000E+00;124;  0.0000000E+00;  0.0000000E+00;  0.0000000E+00;  1.0000000E+01;  4.0000001E-01;  0.0000000E+00;0;  0.0000000E+00;  0.0000000E+00;  0.0000000E+00;  0.0000000E+00;  0.0000000E+00;  0.0000000E+00;0;  3.7888829E-05;  1.0000000E+02;  0.0000000E+00;  0.0000000E+00;  1.0000000E+02;  0.0000000E+00;  1.0000000E+02;  3.0490357E-05;  0.0000000E+00;  7.3984702E-06;  0.0000000E+00;
  4.0000001E-01;  9.9999998E-03;  1.6000000E+00;132;  0.0000000E+00;  0.0000000E+00;  0.0000000E+00;  1.0000000E+01;  4.0000001E-01;  0.0000000E+00;0;  0.0000000E+00;  0.0000000E+00;  0.0000000E+00;  0.0000000E+00;  0.0000000E+00;  0.0000000E+00;0;  3.3720670E-04;  1.0000000E+02;  0.0000000E+00;  0.0000000E+00;  1.0000000E+02;  0.0000000E+00;  1.0000000E+02;  3.2132503E-04;  0.0000000E+00;  1.5881669E-05;  0.0000000E+00;
  4.0000001E-01;  9.9999998E-03;  1.8000000E+00;133;  0.0000000E+00;  0.0000000E+00;  0.0000000E+00;  1.0000000E+01;  4.0000001E-01;  0.0000000E+00;0;  0.0000000E+00;  0.0000000E+00;  0.0000000E+00;  0.0000000E+00;  0.0000000E+00;  0.0000000E+00;0;  1.8809210E-04;  1.0000000E+02;  0.0000000E+00;  0.0000000E+00;  1.0000000E+02;  0.0000000E+00;  1.0000000E+02;  1.7594930E-04;  0.0000000E+00;  1.2142798E-05;  0.0000000E+00;
  4.0000001E-01;  9.9999998E-03;  2.0000000E+00;134;  0.0000000E+00;  0.0000000E+00;  0.0000000E+00;  1.0000000E+01;  4.0000001E-01;  0.0000000E+00;0;  0.0000000E+00;  0.0000000E+00;  0.0000000E+00;  0.0000000E+00;  0.0000000E+00;  0.0000000E+00;0;  8.7216657E-05;  1.0000000E+02;  0.0000000E+00;  0.0000000E+00;  1.0000000E+02;  0.0000000E+00;  1.0000000E+02;  8.0132828E-05;  0.0000000E+00;  7.0838305E-06;  0.0000000E+00;
  6.0000002E-01;  9.9999998E-03;  1.6000000E+00;142;  0.0000000E+00;  0.0000000E+00;  0.0000000E+00;  1.0000000E+01;  4.0000001E-01;  0.0000000E+00;0;  0.0000000E+00;  0.0000000E+00;  0.0000000E+00;  0.0000000E+00;  0.0000000E+00;  0.0000000E+00;0;  6.3538970E-04;  1.0000000E+02;  0.0000000E+00;  0.0000000E+00;  1.0000000E+02;  0.0000000E+00;  1.0000000E+02;  6.2812032E-04;  0.0000000E+00;  7.2693870E-06;  0.0000000E+00;
  6.0000002E-01;  9.9999998E-03;  1.8000000E+00;143;  0.0000000E+00;  0.0000000E+00;  0.0000000E+00;  1.0000000E+01;  4.0000001E-01;  0.0000000E+00;0;  0.0000000E+00;  0.0000000E+00;  0.0000000E+00;  0.0000000E+00;  0.0000000E+00;  0.0000000E+00;0;  3.5971584E-04;  1.0000000E+02;  0.0000000E+00;  0.0000000E+00;  1.0000000E+02;  0.0000000E+00;  1.0000000E+02;  3.5385674E-04;  0.0000000E+00;  5.8591045E-06;  0.0000000E+00;
  6.0000002E-01;  9.9999998E-03;  2.0000000E+00;144;  0.0000000E+00;  0.0000000E+00;  0.0000000E+00;  1.0000000E+01;  4.0000001E-01;  0.0000000E+00;0;  0.0000000E+00;  0.0000000E+00;  0.0000000E+00;  0.0000000E+00;  0.0000000E+00;  0.0000000E+00;0;  1.7462387E-04;  1.0000000E+02;  0.0000000E+00;  0.0000000E+00;  1.0000000E+02;  0.0000000E+00;  1.0000000E+02;  1.7086924E-04;  0.0000000E+00;  3.7546276E-06;  0.0000000E+00;
  8.0000001E-01;  9.9999998E-03;  1.6000000E+00;152;  0.0000000E+00;  0.0000000E+00;  0.0000000E+00;  1.0000000E+01;  4.0000001E-01;  0.0000000E+00;0;  0.0000000E+00;  0.0000000E+00;  0.0000000E+00;  0.0000000E+00;  0.0000000E+00;  0.0000000E+00;0;  1.0292849E-03;  1.0000000E+02;  0.0000000E+00;  0.0000000E+00;  1.0000000E+02;  0.0000000E+00;  1.0000000E+02;  1.0377258E-03;  0.0000000E+00; -8.4409430E-06;  0.0000000E+00;
  8.0000001E-01;  9.9999998E-03;  1.8000000E+00;153;  0.0000000E+00;  0.0000000E+00;  0.0000000E+00;  1.0000000E+01;  4.0000001E-01;  0.0000000E+00;0;  0.0000000E+00;  0.0000000E+00;  0.0000000E+00;  0.0000000E+00;  0.0000000E+00;  0.0000000E+00;0;  5.9196143E-04;  1.0000000E+02;  0.0000000E+00;  0.0000000E+00;  1.0000000E+02;  0.0000000E+00;  1.0000000E+02;  5.9819664E-04;  0.0000000E+00; -6.2352060E-06;  0.0000000E+00;
  8.0000001E-01;  9.9999998E-03;  2.0000000E+00;154;  0.0000000E+00;  0.0000000E+00;  0.0000000E+00;  1.0000000E+01;  4.0000001E-01;  0.0000000E+00;0;  0.0000000E+00;  0.0000000E+00;  0.0000000E+00;  0.0000000E+00;  0.0000000E+00;  0.0000000E+00;0;  3.0220780E-04;  1.0000000E+02;  0.0000000E+00;  0.0000000E+00;  1.0000000E+02;  0.0000000E+00;  1.0000000E+02;  3.0585440E-04;  0.0000000E+00; -3.6466031E-06;  0.0000000E+00;
  1.0000000E+00;  9.9999998E-03;  1.6000000E+00;162;  0.0000000E+00;  0.0000000E+00;  0.0000000E+00;  1.0000000E+01;  4.0000001E-01;  0.0000000E+00;0;  0.0000000E+00;  0.0000000E+00;  0.0000000E+00;  0.0000000E+00;  0.0000000E+00;  0.0000000E+00;0;  1.4174725E-03;  1.0000000E+02;  0.0000000E+00;  0.0000000E+00;  1.0000000E+02;  0.0000000E+00;  1.0000000E+02;  1.4472991E-03;  0.0000000E+00; -2.9826673E-05;  0.0000000E+00;
  1.0000000E+00;  9.9999998E-03;  1.8000000E+00;163;  0.0000000E+00;  0.0000000E+00;  0.0000000E+00;  1.0000000E+01;  4.0000001E-01;  0.0000000E+00;0;  0.0000000E+00;  0.0000000E+00;  0.0000000E+00;  0.0000000E+00;  0.0000000E+00;  0.0000000E+00;0;  8.1722264E-04;  1.0000000E+02;  0.0000000E+00;  0.0000000E+00;  1.0000000E+02;  0.0000000E+00;  1.0000000E+02;  8.4153999E-04;  0.0000000E+00; -2.4317329E-05;  0.0000000E+00;
  1.0000000E+00;  9.9999998E-03;  2.0000000E+00;164;  0.0000000E+00;  0.0000000E+00;  0.0000000E+00;  1.0000000E+01;  4.0000001E-01;  0.0000000E+00;0;  0.0000000E+00;  0.0000000E+00;  0.0000000E+00;  0.0000000E+00;  0.0000000E+00;  0.0000000E+00;0;  4.3646179E-04;  1.0000000E+02;  0.0000000E+00;  0.0000000E+00;  1.0000000E+02;  0.0000000E+00;  1.0000000E+02;  4.5352688E-04;  0.0000000E+00; -1.7065078E-05;  0.0000000E+00;
 -4.7671265E-04;  9.9999998E-03; -1.0000615E+00;165; -5.0391260E-05;  0.0000000E+00; -1.0080342E-05;  9.9993820E+00;  3.9992529E-01; -6.6503987E-02;3; -1.5190774E-02;  0.0000000E+00; -5.5845142E-03;  0.0000000E+00;  0.0000000E+00;  0.0000000E+00;0;  1.6518089E-04;  1.0002464E+02;  0.0000000E+00; -1.8848378E-04;  1.0000000E+02;  0.0000000E+00;  1.0000066E+02;  1.5672635E-04;  0.0000000E+00;  8.4545281E-06;  0.0000000E+00;
 -5.0377368E-04;  9.9999998E-03; -8.0004436E-01;166; -2.8866520E-05;  0.0000000E+00; -5.5809633E-06;  9.9992800E+00;  3.9989302E-01; -7.7470407E-02;3; -2.0368926E-02;  0.0000000E+00; -3.3209154E-03;  0.0000000E+00;  0.0000000E+00;  0.0000000E+00;0;  1.8778293E-04;  1.0003902E+02;  0.0000000E+00; -1.3568992E-04;  1.0000000E+02;  0.0000000E+00;  1.0000000E+02;  1.8731388E-04;  0.0000000E+00;  4.6904893E-07;  0.0000000E+00;
 -5.2622036E-04;  9.9999998E-03; -6.0003388E-01;167; -8.4763878E-06;  0.0000000E+00;  7.1218096E-07;  9.9992924E+00;  3.9985585E-01; -7.6123655E-02;3; -2.4371214E-02;  0.0000000E+00;  5.4882799E-04;  0.0000000E+00;  0.0000000E+00;  0.0000000E+00;0;  2.0453392E-04;  1.0005573E+02;  0.0000000E+00; -6.1806953E-05;  1.0000000E+02;  0.0000000E+00;  9.9998749E+01;  2.1198709E-04;  0.0000000E+00; -7.4531667E-06;  0.0000000E+00;
 -5.4161670E-04;  9.9999998E-03; -4.0002385E-01;168;  2.2165212E-05;  0.0000000E+00;  7.9430138E-06;  9.9993067E+00;  3.9982462E-01; -7.4584506E-02;3; -2.8944014E-02;  0.0000000E+00;  2.0067920E-03;  0.0000000E+00;  0.0000000E+00;  0.0000000E+00;0;  2.1614146E-04;  1.0007220E+02;  0.0000000E+00; -1.5395037E-05;  1.0000000E+02;  0.0000000E+00;  1.0000222E+02;  2.3019590E-04;  0.0000000E+00; -1.4054450E-05;  0.0000000E+00;
 -5.4849708E-04;  9.9999998E-03; -2.0001242E-01;169;  4.9093607E-05;  0.0000000E+00;  5.2288469E-06;  9.9993258E+00;  3.9980084E-01; -7.2532311E-02;3; -3.3433814E-02;  0.0000000E+00;  1.6421690E-03;  0.0000000E+00;  0.0000000E+00;  0.0000000E+00;0;  2.2259944E-04;  1.0008447E+02;  0.0000000E+00; -1.3053238E-06;  1.0000000E+02;  0.0000000E+00;  1.0000188E+02;  2.4102723E-04;  0.0000000E+00; -1.8427787E-05;  0.0000000E+00;
  1.9940419E-01;  9.9999998E-03; -9.9995714E-01;176; -7.5252370E-05;  0.0000000E+00;  4.4807774E-05;  9.9984570E+00;  4.0002871E-01; -1.6603409E-01;3; -9.3955304E-03;  0.0000000E+00; -1.5656473E-02;  0.0000000E+00;  0.0000000E+00;  0.0000000E+00;0;  4.2220327E-04;  9.9954170E+01;  0.0000000E+00; -6.9171103E-04;  1.0000000E+02;  0.0000000E+00;  1.0000108E+02;  4.1591268E-04;  0.0000000E+00;  6.2905838E-06;  0.0000000E+00;
  1.9937125E-01;  9.9999998E-03; -7.9997581E-01;177; -5.0547693E-05;  0.0000000E+00;  3.3751257E-05;  9.9982080E+00;  4.0001845E-01; -1.9277655E-01;3; -1.2911917E-02;  0.0000000E+00; -1.1407503E-02;  0.0000000E+00;  0.0000000E+00;  0.0000000E+00;0;  4.9253949E-04;  9.9954262E+01;  0.0000000E+00; -5.8252137E-04;  1.0000000E+02;  0.0000000E+00;  9.9999870E+01;  4.9400172E-04;  0.0000000E+00; -1.4622201E-06;  0.0000000E+00;
  1.9934323E-01;  9.9999998E-03; -5.9999162E-01;178; -2.8687386E-05;  0.0000000E+00;  2.5422078E-05;  9.9980583E+00;  3.9999261E-01; -2.0893745E-01;3; -1.5110458E-02;  0.0000000E+00; -6.3962149E-03;  0.0000000E+00;  0.0000000E+00;  0.0000000E+00;0;  5.3926150E-04;  9.9963501E+01;  0.0000000E+00; -3.2828588E-04;  1.0000000E+02;  0.0000000E+00;  1.0000224E+02;  5.4944702E-04;  0.0000000E+00; -1.0185544E-05;  0.0000000E+00;
  1.9932289E-01;  9.9999998E-03; -4.0000057E-01;179; -5.3852705E-06;  0.0000000E+00;  1.8351717E-05;  9.9980440E+00;  3.9996031E-01; -2.1047659E-01;3; -1.5926920E-02;  0.0000000E+00; -2.6424008E-03;  0.0000000E+00;  0.0000000E+00;  0.0000000E+00;0;  5.6757953E-04;  9.9978065E+01;  0.0000000E+00; -1.1389291E-04;  1.0000000E+02;  0.0000000E+00;  1.0000208E+02;  5.8453961E-04;  0.0000000E+00; -1.6960112E-05;  0.0000000E+00;
  1.9931123E-01;  9.9999998E-03; -2.0000251E-01;180;  1.7384153E-05;  0.0000000E+00;  1.0794064E-05;  9.9980221E+00;  3.9993447E-01; -2.1278529E-01;3; -1.7449459E-02;  0.0000000E+00; -1.0247889E-03;  0.0000000E+00;  0.0000000E+00;  0.0000000E+00;0;  5.8200973E-04;  9.9991486E+01;  0.0000000E+00; -1.7586137E-05;  1.0000000E+02;  0.0000000E+00;  1.0000171E+02;  6.0303695E-04;  0.0000000E+00; -2.1027246E-05;  0.0000000E+00;
  3.9939007E-01;  9.9999998E-03; -9.9992979E-01;187; -6.2336316E-05;  0.0000000E+00;  8.1113947E-05;  9.9973001E+00;  4.0024689E-01; -2.9050612E-01;3; -4.0516213E-02;  0.0000000E+00; -1.0742565E-01;  0.0000000E+00;  0.0000000E+00;  0.0000000E+00;0;  9.0123178E-04;  9.9821541E+01;  0.0000000E+00; -1.1587301E-03;  1.0000000E+02;  0.0000000E+00;  1.0000108E+02;  9.0180407E-04;  0.0000000E+00; -5.7228317E-07;  0.0000000E+00;
  3.9929134E-01;  9.9999998E-03; -7.9993027E-01;188; -5.7981833E-05;  0.0000000E+00;  6.5446264E-05;  9.9968634E+00;  4.0027314E-01; -3.3744884E-01;3; -4.5365363E-02;  0.0000000E+00; -8.4698029E-02;  0.0000000E+00;  0.0000000E+00;  0.0000000E+00;0;  1.0378014E-03;  9.9800636E+01;  0.0000000E+00; -1.3614029E-03;  1.0000000E+02;  0.0000000E+00;  9.9999763E+01;  1.0434873E-03;  0.0000000E+00; -5.6859390E-06;  0.0000000E+00;
  3.9923257E-01;  9.9999998E-03; -5.9995604E-01;189; -4.0512317E-05;  0.0000000E+00;  4.3547985E-05;  9.9966688E+00;  4.0026426E-01; -3.5841915E-01;3; -4.9152341E-02;  0.0000000E+00; -5.6023337E-02;  0.0000000E+00;  0.0000000E+00;  0.0000000E+00;0;  1.1221224E-03;  9.9799202E+01;  0.0000000E+00; -9.8302169E-04;  1.0000000E+02;  0.0000000E+00;  1.0000253E+02;  1.1337443E-03;  0.0000000E+00; -1.1621874E-05;  0.0000000E+00;
  3.9919475E-01;  9.9999998E-03; -3.9997676E-01;190; -1.8217535E-05;  0.0000000E+00;  2.5545647E-05;  9.9965715E+00;  4.0023527E-01; -3.6887226E-01;3; -5.1437471E-02;  0.0000000E+00; -3.0810833E-02;  0.0000000E+00;  0.0000000E+00;  0.0000000E+00;0;  1.1692607E-03;  9.9811432E+01;  0.0000000E+00; -4.3183065E-04;  1.0000000E+02;  0.0000000E+00;  1.0000179E+02;  1.1847677E-03;  0.0000000E+00; -1.5506934E-05;  0.0000000E+00;
  3.9917451E-01;  9.9999998E-03; -1.9999017E-01;191;  6.3821624E-08;  0.0000000E+00;  1.2163990E-05;  9.9965544E+00;  4.0020621E-01; -3.7073198E-01;3; -5.2685779E-02;  0.0000000E+00; -1.3037679E-02;  0.0000000E+00;  0.0000000E+00;  0.0000000E+00;0;  1.1927211E-03;  9.9826202E+01;  0.0000000E+00; -8.9008659E-05;  1.0000000E+02;  0.0000000E+00;  1.0000164E+02;  1.2098994E-03;  0.0000000E+00; -1.7178389E-05;  0.0000000E+00;
  5.9947276E-01;  9.9999998E-03; -9.9992079E-01;198; -3.6487851E-05;  0.0000000E+00;  1.2234786E-04;  9.9960442E+00;  4.0061852E-01; -4.2560899E-01;3; -2.2544200E-02;  0.0000000E+00; -1.3156180E-01;  0.0000000E+00;  0.0000000E+00;  0.0000000E+00;0;  1.6540331E-03;  9.9610031E+01;  0.0000000E+00;  8.6784019E-04;  1.0000000E+02;  0.0000000E+00;  1.0000339E+02;  1.6732148E-03;  0.0000000E+00; -1.9181811E-05;  0.0000000E+00;
  5.9927487E-01;  9.9999998E-03; -7.9990464E-01;199; -7.2134899E-05;  0.0000000E+00;  8.8915403E-05;  9.9955463E+00;  4.0068299E-01; -4.7915483E-01;3; -2.4783464E-02;  0.0000000E+00; -1.0313889E-01;  0.0000000E+00;  0.0000000E+00;  0.0000000E+00;0;  1.8566155E-03;  9.9569054E+01;  0.0000000E+00; -1.3309981E-03;  1.0000000E+02;  0.0000000E+00;  1.0000243E+02;  1.8699648E-03;  0.0000000E+00; -1.3349210E-05;  0.0000000E+00;
  5.9917879E-01;  9.9999998E-03; -5.9993529E-01;200; -4.7782782E-05;  0.0000000E+00;  5.3082065E-05;  9.9953241E+00;  4.0069205E-01; -5.0307411E-01;3; -2.5386663E-02;  0.0000000E+00; -6.5740250E-02;  0.0000000E+00;  0.0000000E+00;  0.0000000E+00;0;  1.9679978E-03;  9.9558830E+01;  0.0000000E+00; -1.8387338E-03;  1.0000000E+02;  0.0000000E+00;  1.0000193E+02;  1.9783890E-03;  0.0000000E+00; -1.0391297E-05;  0.0000000E+00;
  5.9911716E-01;  9.9999998E-03; -3.9996186E-01;201; -1.7895525E-05;  0.0000000E+00;  2.7865290E-05;  9.9952154E+00;  4.0066633E-01; -5.1474518E-01;3; -2.6083313E-02;  0.0000000E+00; -3.5155524E-02;  0.0000000E+00;  0.0000000E+00;  0.0000000E+00;0;  2.0201376E-03;  9.9571877E+01;  0.0000000E+00; -1.0579018E-03;  1.0000000E+02;  0.0000000E+00;  1.0000114E+02;  2.0279135E-03;  0.0000000E+00; -7.7757313E-06;  0.0000000E+00;
  5.9908432E-01;  9.9999998E-03; -1.9998232E-01;202;  3.7094453E-06;  0.0000000E+00;  1.2470186E-05;  9.9952354E+00;  4.0062729E-01; -5.1262897E-01;3; -2.7050121E-02;  0.0000000E+00; -1.4694934E-02;  0.0000000E+00;  0.0000000E+00;  0.0000000E+00;0;  2.0418651E-03;  9.9591148E+01;  0.0000000E+00; -2.6211527E-04;  1.0000000E+02;  0.0000000E+00;  9.9999710E+01;  2.0470589E-03;  0.0000000E+00; -5.1936859E-06;  0.0000000E+00;
  7.9996794E-01;  9.9999998E-03; -9.9999332E-01;209;  4.0399571E-04;  0.0000000E+00;  4.0985924E-05;  9.9946451E+00;  4.0120336E-01; -5.7606071E-01;3;  3.1607449E-02;  0.0000000E+00; -1.1916585E-01;  0.0000000E+00;  0.0000000E+00;  0.0000000E+00;0;  2.8278155E-03;  9.9293938E+01;  0.0000000E+00;  9.0274187E-03;  1.0000000E+02;  0.0000000E+00;  1.0000100E+02;  2.8468133E-03;  0.0000000E+00; -1.8997869E-05;  0.0000000E+00;
  7.9943287E-01;  9.9999998E-03; -7.9996347E-01;210; -8.1994614E-05;  0.0000000E+00;  5.5587436E-05;  9.9944715E+00;  4.0126157E-01; -5.9472007E-01;3; -2.5040158E-03;  0.0000000E+00; -1.0044901E-01;  0.0000000E+00;  0.0000000E+00;  0.0000000E+00;0;  2.9092180E-03;  9.9260468E+01;  0.0000000E+00;  2.0541374E-03;  1.0000000E+02;  0.0000000E+00;  1.0000060E+02;  2.9236511E-03;  0.0000000E+00; -1.4433168E-05;  0.0000000E+00;
  7.9923236E-01;  9.9999998E-03; -5.9995782E-01;211; -5.9215683E-05;  0.0000000E+00;  2.9719309E-05;  9.9942551E+00;  4.0127847E-01; -6.1799592E-01;3; -1.0879941E-02;  0.0000000E+00; -6.5922953E-02;  0.0000000E+00;  0.0000000E+00;  0.0000000E+00;0;  3.0174209E-03;  9.9250397E+01;  0.0000000E+00; -2.0200678E-03;  1.0000000E+02;  0.0000000E+00;  9.9997978E+01;  3.0195096E-03;  0.0000000E+00; -2.0888274E-06;  0.0000000E+00;
  7.9910356E-01;  9.9999998E-03; -3.9996845E-01;212; -1.3876192E-05;  0.0000000E+00;  1.0386062E-05;  9.9942360E+00;  4.0124249E-01; -6.2004787E-01;3; -1.1241511E-02;  0.0000000E+00; -3.4592610E-02;  0.0000000E+00;  0.0000000E+00;  0.0000000E+00;0;  3.0467084E-03;  9.9269180E+01;  0.0000000E+00; -1.8505735E-03;  1.0000000E+02;  0.0000000E+00;  9.9997360E+01;  3.0398006E-03;  0.0000000E+00;  6.9079583E-06;  0.0000000E+00;
  7.9904842E-01;  9.9999998E-03; -1.9998462E-01;213;  3.2070748E-05;  0.0000000E+00;  4.7993190E-06;  9.9942732E+00;  4.0119091E-01; -6.1607242E-01;3; -1.2002273E-02;  0.0000000E+00; -1.4197374E-02;  0.0000000E+00;  0.0000000E+00;  0.0000000E+00;0;  3.0447848E-03;  9.9295464E+01;  0.0000000E+00; -5.3817203E-04;  1.0000000E+02;  0.0000000E+00;  9.9997437E+01;  3.0315430E-03;  0.0000000E+00;  1.3241710E-05;  0.0000000E+00;
  1.0029898E+00;  9.9999998E-03; -1.0001631E+00;220;  3.4584543E-03;  0.0000000E+00; -1.7800673E-04;  9.9916992E+00;  4.0235040E-01; -8.9275670E-01;3; -1.5685644E-02;  0.0000000E+00; -6.9424219E-02;  0.0000000E+00;  0.0000000E+00;  0.0000000E+00;0;  5.4638740E-03;  9.8687798E+01;  0.0000000E+00;  2.2592554E-03;  1.0000000E+02;  0.0000000E+00;  9.9985153E+01;  5.3870804E-03;  0.0000000E+00;  7.6793709E-05;  0.0000000E+00;
  1.0006425E+00;  9.9999998E-03; -8.0006987E-01;221;  3.5939677E-04;  0.0000000E+00; -1.2915599E-04;  9.9935741E+00;  4.0209302E-01; -6.9114202E-01;3;  1.6783301E-02;  0.0000000E+00; -6.9391839E-02;  0.0000000E+00;  0.0000000E+00;  0.0000000E+00;0;  4.2555099E-03;  9.8844887E+01;  0.0000000E+00;  6.1200527E-03;  1.0000000E+02;  0.0000000E+00;  9.9990173E+01;  4.2036488E-03;  0.0000000E+00;  5.1861018E-05;  0.0000000E+00;
  1.0012239E+00;  9.9999998E-03; -6.0010248E-01;222; -6.0844741E-05;  0.0000000E+00; -3.6170011E-06;  9.9935608E+00;  4.0211406E-01; -6.9255179E-01;3; -1.0698949E-02;  0.0000000E+00; -5.1155403E-02;  0.0000000E+00;  0.0000000E+00;  0.0000000E+00;0;  4.2017661E-03;  9.8836380E+01;  0.0000000E+00; -4.5518531E-03;  1.0000000E+02;  0.0000000E+00;  9.9987175E+01;  4.1853972E-03;  0.0000000E+00;  1.6368733E-05;  0.0000000E+00;
  1.0009983E+00;  9.9999998E-03; -4.0008959E-01;223;  1.1345395E-03;  0.0000000E+00; -1.0825296E-04;  9.9934778E+00;  4.0200901E-01; -7.0146292E-01;3; -8.3966414E-03;  0.0000000E+00; -2.8954105E-02;  0.0000000E+00;  0.0000000E+00;  0.0000000E+00;0;  4.2626518E-03;  9.8884247E+01;  0.0000000E+00; -3.5588481E-03;  1.0000000E+02;  0.0000000E+00;  9.9990875E+01;  4.2240270E-03;  0.0000000E+00;  3.8624617E-05;  0.0000000E+00;
  9.9980164E-01;  9.9999998E-03; -2.0005488E-01;224;  1.7182833E-03;  0.0000000E+00; -2.6660911E-05;  9.9936886E+00;  4.0191504E-01; -6.7883426E-01;3; -4.8140371E-03;  0.0000000E+00; -1.1796156E-02;  0.0000000E+00;  0.0000000E+00;  0.0000000E+00;0;  4.1662189E-03;  9.8930534E+01;  0.0000000E+00; -8.9394301E-04;  1.0000000E+02;  0.0000000E+00;  9.9992874E+01;  4.1327141E-03;  0.0000000E+00;  3.3504573E-05;  0.0000000E+00;
  1.2046392E+00;  9.9999998E-03; -1.0001773E+00;231;  4.3393713E-03;  0.0000000E+00; -1.1032345E-04;  9.9915152E+00;  4.0339679E-01; -9.1213745E-01;3; -4.4424750E-02;  0.0000000E+00; -2.9583672E-02;  0.0000000E+00;  0.0000000E+00;  0.0000000E+00;0;  6.9277915E-03;  9.8182838E+01;  0.0000000E+00; -1.6003400E-03;  1.0000000E+02;  0.0000000E+00;  9.9973526E+01;  6.8579121E-03;  0.0000000E+00;  6.9879476E-05;  0.0000000E+00;
  1.2029881E+00;  9.9999998E-03; -8.0009335E-01;232;  3.1164028E-03;  0.0000000E+00; -1.4194318E-04;  9.9923677E+00;  4.0313634E-01; -8.2051176E-01;3; -4.3729609E-03;  0.0000000E+00; -3.3468626E-02;  0.0000000E+00;  0.0000000E+00;  0.0000000E+00;0;  6.2311823E-03;  9.8320641E+01;  0.0000000E+00;  8.9596736E-04;  1.0000000E+02;  0.0000000E+00;  9.9978233E+01;  6.1306451E-03;  0.0000000E+00;  1.0053715E-04;  0.0000000E+00;
  1.2029985E+00;  9.9999998E-03; -6.0008913E-01;233;  1.2179617E-03;  0.0000000E+00; -4.3626956E-06;  9.9930019E+00;  4.0309238E-01; -7.5233334E-01;3; -1.2923732E-02;  0.0000000E+00; -3.3146933E-02;  0.0000000E+00;  0.0000000E+00;  0.0000000E+00;0;  5.6705019E-03;  9.8355598E+01;  0.0000000E+00; -7.9270992E-03;  1.0000000E+02;  0.0000000E+00;  9.9977646E+01;  5.6346934E-03;  0.0000000E+00;  3.5808323E-05;  0.0000000E+00;
  1.2030658E+00;  9.9999998E-03; -4.0015724E-01;234;  3.2458962E-03;  0.0000000E+00; -1.4327465E-04;  9.9930019E+00;  4.0298241E-01; -7.5233310E-01;3; -4.4052843E-03;  0.0000000E+00; -1.7921165E-02;  0.0000000E+00;  0.0000000E+00;  0.0000000E+00;0;  5.6963009E-03;  9.8405930E+01;  0.0000000E+00; -5.6146435E-03;  1.0000000E+02;  0.0000000E+00;  9.9980011E+01;  5.6280075E-03;  0.0000000E+00;  6.8293411E-05;  0.0000000E+00;
  1.2019559E+00;  9.9999998E-03; -2.0006692E-01;235;  3.7001334E-03;  0.0000000E+00; -1.1280533E-04;  9.9932299E+00;  4.0287650E-01; -7.2779417E-01;3; -1.1724391E-05;  0.0000000E+00; -8.7127620E-03;  0.0000000E+00;  0.0000000E+00;  0.0000000E+00;0;  5.4894621E-03;  9.8453873E+01;  0.0000000E+00; -1.3151575E-03;  1.0000000E+02;  0.0000000E+00;  9.9988808E+01;  5.4368456E-03;  0.0000000E+00;  5.2616298E-05;  0.0000000E+00;
  1.4061861E+00;  9.9999998E-03; -1.0001678E+00;242;  5.1491563E-03;  0.0000000E+00; -8.3569597E-05;  9.9918709E+00;  4.0441445E-01; -8.7297273E-01;3; -4.0767323E-02;  0.0000000E+00; -1.5261372E-02;  0.0000000E+00;  0.0000000E+00;  0.0000000E+00;0;  8.1278058E-03;  9.7703972E+01;  0.0000000E+00; -2.3706236E-03;  1.0000000E+02;  0.0000000E+00;  9.9965775E+01;  8.0495169E-03;  0.0000000E+00;  7.8289231E-05;  0.0000000E+00;
  1.4046743E+00;  9.9999998E-03; -8.0006713E-01;243;  4.2102565E-03;  0.0000000E+00; -6.6547283E-05;  9.9922256E+00;  4.0429342E-01; -8.3489597E-01;3; -1.0214968E-02;  0.0000000E+00; -1.7073700E-02;  0.0000000E+00;  0.0000000E+00;  0.0000000E+00;0;  7.7728704E-03;  9.7766884E+01;  0.0000000E+00; -7.9908135E-04;  1.0000000E+02;  0.0000000E+00;  9.9967354E+01;  7.6740519E-03;  0.0000000E+00;  9.8818418E-05;  0.0000000E+00;
  1.4044333E+00;  9.9999998E-03; -6.0002756E-01;244;  3.2636763E-03;  0.0000000E+00; -4.4826098E-05;  9.9924583E+00;  4.0429282E-01; -8.0993307E-01;3; -8.4368587E-03;  0.0000000E+00; -1.8557761E-02;  0.0000000E+00;  0.0000000E+00;  0.0000000E+00;0;  7.5291074E-03;  9.7771004E+01;  0.0000000E+00; -8.4356405E-03;  1.0000000E+02;  0.0000000E+00;  9.9967400E+01;  7.4401679E-03;  0.0000000E+00;  8.8939647E-05;  0.0000000E+00;
  1.4039143E+00;  9.9999998E-03; -4.0009764E-01;245;  3.9808187E-03;  0.0000000E+00; -1.3748178E-04;  9.9925117E+00;  4.0424755E-01; -8.0417526E-01;3; -1.2359022E-03;  0.0000000E+00; -1.0371054E-02;  0.0000000E+00;  0.0000000E+00;  0.0000000E+00;0;  7.4497703E-03;  9.7791695E+01;  0.0000000E+00; -5.1515647E-03;  1.0000000E+02;  0.0000000E+00;  9.9969826E+01;  7.3542055E-03;  0.0000000E+00;  9.5564727E-05;  0.0000000E+00;
  1.4028435E+00;  9.9999998E-03; -2.0003363E-01;246;  3.8057452E-03;  0.0000000E+00; -1.7496712E-04;  9.9926825E+00;  4.0418968E-01; -7.8587413E-01;3;  1.3459459E-03;  0.0000000E+00; -5.7448237E-03;  0.0000000E+00;  0.0000000E+00;  0.0000000E+00;0;  7.2751143E-03;  9.7809799E+01;  0.0000000E+00; -1.1894065E-03;  1.0000000E+02;  0.0000000E+00;  9.9982590E+01;  7.2080586E-03;  0.0000000E+00;  6.7055662E-05;  0.0000000E+00;
  1.6082472E+00;  9.9999998E-03; -1.0002085E+00;253;  6.3875895E-03;  0.0000000E+00; -8.4914129E-05;  9.9920864E+00;  4.0563914E-01; -8.4791052E-01;3; -2.5581615E-02;  0.0000000E+00; -1.0193701E-02;  0.0000000E+00;  0.0000000E+00;  0.0000000E+00;0;  9.6122790E-03;  9.7129471E+01;  0.0000000E+00; -2.8140876E-03;  1.0000000E+02;  0.0000000E+00;  9.9955482E+01;  9.5106205E-03;  0.0000000E+00;  1.0165825E-04;  0.0000000E+00;
  1.6067536E+00;  9.9999998E-03; -8.0005008E-01;254;  5.5901739E-03;  0.0000000E+00; -1.6971613E-05;  9.9920120E+00;  4.0573153E-01; -8.5591429E-01;3; -8.4558921E-03;  0.0000000E+00; -9.7721508E-03;  0.0000000E+00;  0.0000000E+00;  0.0000000E+00;0;  9.6797105E-03;  9.7083839E+01;  0.0000000E+00; -1.3300333E-03;  1.0000000E+02;  0.0000000E+00;  9.9953522E+01;  9.5718317E-03;  0.0000000E+00;  1.0787855E-04;  0.0000000E+00;
  1.6057318E+00;  9.9999998E-03; -5.9990531E-01;255;  4.3194001E-03;  0.0000000E+00;  4.3641314E-05;  9.9919653E+00;  4.0584904E-01; -8.6091006E-01;3; -2.6956280E-03;  0.0000000E+00; -1.0405585E-02;  0.0000000E+00;  0.0000000E+00;  0.0000000E+00;0;  9.7274045E-03;  9.7024307E+01;  0.0000000E+00; -4.6108128E-03;  1.0000000E+02;  0.0000000E+00;  9.9955399E+01;  9.6287550E-03;  0.0000000E+00;  9.8648983E-05;  0.0000000E+00;
  1.6045399E+00;  9.9999998E-03; -3.9990175E-01;256;  4.0727863E-03;  0.0000000E+00;  6.4802912E-06;  9.9918652E+00;  4.0593594E-01; -8.7165636E-01;3; -3.0527890E-04;  0.0000000E+00; -5.8663809E-03;  0.0000000E+00;  0.0000000E+00;  0.0000000E+00;0;  9.8345987E-03;  9.6979881E+01;  0.0000000E+00; -2.7573693E-03;  1.0000000E+02;  0.0000000E+00;  9.9956253E+01;  9.7341845E-03;  0.0000000E+00;  1.0041423E-04;  0.0000000E+00;
  1.6034894E+00;  9.9999998E-03; -1.9990405E-01;257;  3.7680075E-03;  0.0000000E+00;  1.9660249E-06;  9.9918346E+00;  4.0598065E-01; -8.7492841E-01;3;  1.5067478E-03;  0.0000000E+00; -2.9165451E-03;  0.0000000E+00;  0.0000000E+00;  0.0000000E+00;0;  9.8428372E-03;  9.6948898E+01;  0.0000000E+00; -6.5660762E-04;  1.0000000E+02;  0.0000000E+00;  9.9966042E+01;  9.7742379E-03;  0.0000000E+00;  6.8599409E-05;  0.0000000E+00;
  1.8111420E+00;  9.9999998E-03; -1.0003701E+00;264;  8.2264282E-03;  0.0000000E+00; -1.4429762E-04;  9.9920902E+00;  4.0720248E-01; -8.4323990E-01;3; -9.1017084E-03;  0.0000000E+00; -6.6282549E-03;  0.0000000E+00;  0.0000000E+00;  0.0000000E+00;0;  1.1588600E-02;  9.6410309E+01;  0.0000000E+00; -3.2129372E-03;  1.0000000E+02;  0.0000000E+00;  9.9927696E+01;  1.1420712E-02;  0.0000000E+00;  1.6788731E-04;  0.0000000E+00;
  1.8097950E+00;  9.9999998E-03; -8.0010146E-01;265;  7.7141887E-03;  0.0000000E+00; -2.1509948E-05;  9.9916849E+00;  4.0751818E-01; -8.8649207E-01;3; -3.8876738E-03;  0.0000000E+00; -6.0610152E-03;  0.0000000E+00;  0.0000000E+00;  0.0000000E+00;0;  1.2119151E-02;  9.6255913E+01;  0.0000000E+00; -2.0580760E-03;  1.0000000E+02;  0.0000000E+00;  9.9924088E+01;  1.1945320E-02;  0.0000000E+00;  1.7383022E-04;  0.0000000E+00;
  1.8083439E+00;  9.9999998E-03; -5.9982163E-01;266;  5.9774988E-03;  0.0000000E+00;  8.1198494E-05;  9.9913788E+00;  4.0780649E-01; -9.1920197E-01;3; -8.6656131E-04;  0.0000000E+00; -5.0125029E-03;  0.0000000E+00;  0.0000000E+00;  0.0000000E+00;0;  1.2569739E-02;  9.6113991E+01;  0.0000000E+00; -2.1251317E-03;  1.0000000E+02;  0.0000000E+00;  9.9923828E+01;  1.2392898E-02;  0.0000000E+00;  1.7684023E-04;  0.0000000E+00;
  1.8059245E+00;  9.9999998E-03; -3.9967543E-01;267;  4.8765163E-03;  0.0000000E+00;  1.6605029E-04;  9.9910994E+00;  4.0804443E-01; -9.4908649E-01;3;  2.8928561E-04;  0.0000000E+00; -2.5551135E-03;  0.0000000E+00;  0.0000000E+00;  0.0000000E+00;0;  1.2942629E-02;  9.5999542E+01;  0.0000000E+00; -7.4440212E-04;  1.0000000E+02;  0.0000000E+00;  9.9921349E+01;  1.2795017E-02;  0.0000000E+00;  1.4761172E-04;  0.0000000E+00;
  1.8045818E+00;  9.9999998E-03; -1.9981089E-01;268;  3.9500729E-03;  0.0000000E+00;  1.0222883E-04;  9.9909010E+00;  4.0821901E-01; -9.7029543E-01;3;  8.1035774E-04;  0.0000000E+00; -8.9716521E-04;  0.0000000E+00;  0.0000000E+00;  0.0000000E+00;0;  1.3204418E-02;  9.5915428E+01;  0.0000000E+00; -1.8646894E-04;  1.0000000E+02;  0.0000000E+00;  9.9919785E+01;  1.3068754E-02;  0.0000000E+00;  1.3566406E-04;  0.0000000E+00;
  2.0151532E+00;  9.9999998E-03; -1.0007532E+00;275;  1.1175278E-02;  0.0000000E+00; -2.8834536E-04;  9.9920053E+00;  4.0906686E-01; -8.4350741E-01;3;  1.6187537E-03;  0.0000000E+00; -3.2305215E-03;  0.0000000E+00;  0.0000000E+00;  0.0000000E+00;0;  1.3932120E-02;  9.5594315E+01;  0.0000000E+00; -3.4614403E-03;  1.0000000E+02;  0.0000000E+00;  9.9862892E+01;  1.3648532E-02;  0.0000000E+00;  2.8358793E-04;  0.0000000E+00;
  2.0166116E+00;  9.9999998E-03; -8.0030543E-01;276;  1.1048553E-02;  0.0000000E+00; -7.6171331E-05;  9.9914932E+00;  4.0955278E-01; -8.9743537E-01;3;  8.0365004E-05;  0.0000000E+00; -3.4885847E-03;  0.0000000E+00;  0.0000000E+00;  0.0000000E+00;0;  1.4818335E-02;  9.5358643E+01;  0.0000000E+00; -7.7713453E-03;  1.0000000E+02;  0.0000000E+00;  9.9860374E+01;  1.4523402E-02;  0.0000000E+00;  2.9493336E-04;  0.0000000E+00;
  2.0142174E+00;  9.9999998E-03; -5.9978473E-01;277;  1.1015529E-02;  0.0000000E+00;  1.3191887E-04;  9.9909811E+00;  4.0995485E-01; -9.5161033E-01;3;  2.2735314E-03;  0.0000000E+00; -2.1168622E-03;  0.0000000E+00;  0.0000000E+00;  0.0000000E+00;0;  1.5690584E-02;  9.5164879E+01;  0.0000000E+00; -1.9673153E-03;  1.0000000E+02;  0.0000000E+00;  9.9860001E+01;  1.5373826E-02;  0.0000000E+00;  3.1675724E-04;  0.0000000E+00;
  2.0096033E+00;  9.9999998E-03; -3.9951441E-01;278;  6.5501705E-03;  0.0000000E+00;  3.4692694E-04;  9.9905663E+00;  4.1035497E-01; -9.9570239E-01;3;  7.1366742E-04;  0.0000000E+00; -5.5076380E-04;  0.0000000E+00;  0.0000000E+00;  0.0000000E+00;0;  1.6358493E-02;  9.4989288E+01;  0.0000000E+00; -1.6605084E-04;  1.0000000E+02;  0.0000000E+00;  9.9839127E+01;  1.6062986E-02;  0.0000000E+00;  2.9550673E-04;  0.0000000E+00;
  2.0079110E+00;  9.9999998E-03; -1.9974400E-01;279;  5.4850560E-03;  0.0000000E+00;  1.9399209E-04;  9.9902306E+00;  4.1065973E-01; -1.0312419E+00;3;  4.4038380E-04;  0.0000000E+00; -5.2288069E-05;  0.0000000E+00;  0.0000000E+00;  0.0000000E+00;0;  1.6925126E-02;  9.4859016E+01;  0.0000000E+00; -3.7517482E-05;  1.0000000E+02;  0.0000000E+00;  9.9822113E+01;  1.6593521E-02;  0.0000000E+00;  3.3160447E-04;  0.0000000E+00;
  2.2230020E+00;  9.9999998E-03; -1.0015095E+00;286;  1.4912828E-02;  0.0000000E+00; -6.2942348E-04;  9.9919710E+00;  4.1111645E-01; -8.3023071E-01;3;  4.7863623E-06;  0.0000000E+00; -8.4014551E-04;  0.0000000E+00;  0.0000000E+00;  0.0000000E+00;0;  1.6480733E-02;  9.4774338E+01;  0.0000000E+00; -5.6841434E-03;  1.0000000E+02;  0.0000000E+00;  9.9722832E+01;  1.5905369E-02;  0.0000000E+00;  5.7536282E-04;  0.0000000E+00;
  2.2216802E+00;  9.9999998E-03; -8.0084497E-01;287;  1.5251561E-02;  0.0000000E+00; -2.9688963E-04;  9.9915104E+00;  4.1155663E-01; -8.7802070E-01;3;  2.5756292E-03;  0.0000000E+00; -6.4322312E-04;  0.0000000E+00;  0.0000000E+00;  0.0000000E+00;0;  1.7440662E-02;  9.4567505E+01;  0.0000000E+00; -2.0946481E-03;  1.0000000E+02;  0.0000000E+00;  9.9718971E+01;  1.6837848E-02;  0.0000000E+00;  6.0281419E-04;  0.0000000E+00;
  2.2203975E+00;  9.9999998E-03; -6.0006034E-01;288;  1.4392641E-02;  0.0000000E+00;  6.7575071E-05;  9.9909983E+00;  4.1203311E-01; -9.3112373E-01;3;  1.5943290E-03;  0.0000000E+00; -3.1886948E-04;  0.0000000E+00;  0.0000000E+00;  0.0000000E+00;0;  1.8509177E-02;  9.4341087E+01;  0.0000000E+00; -5.1474368E-04;  1.0000000E+02;  0.0000000E+00;  9.9715851E+01;  1.7870603E-02;  0.0000000E+00;  6.3857436E-04;  0.0000000E+00;
  2.2197592E+00;  9.9999998E-03; -3.9954698E-01;289;  1.3648678E-02;  0.0000000E+00;  3.8049454E-04;  9.9905024E+00;  4.1254973E-01; -9.8249948E-01;3; -3.8767335E-04;  0.0000000E+00; -1.8398017E-05;  0.0000000E+00;  0.0000000E+00;  0.0000000E+00;0;  1.9536929E-02;  9.4128098E+01;  0.0000000E+00; -7.5160002E-05;  1.0000000E+02;  0.0000000E+00;  9.9683006E+01;  1.8859969E-02;  0.0000000E+00;  6.7696004E-04;  0.0000000E+00;
  2.2195427E+00;  9.9999998E-03; -1.9974849E-01;290;  1.3028072E-02;  0.0000000E+00;  2.1596561E-04;  9.9901199E+00;  4.1293198E-01; -1.0221132E+00;3; -2.2339975E-03;  0.0000000E+00;  4.6542587E-05;  0.0000000E+00;  0.0000000E+00;  0.0000000E+00;0;  2.0331278E-02;  9.3974953E+01;  0.0000000E+00;  2.9319351E-06;  1.0000000E+02;  0.0000000E+00;  9.9651817E+01;  1.9576263E-02;  0.0000000E+00;  7.5501588E-04;  0.0000000E+00;
  2.4235203E+00;  9.9999998E-03; -1.0027660E+00;297;  1.4874451E-02;  0.0000000E+00; -1.2431521E-03;  9.9918423E+00;  4.1337514E-01; -8.1798196E-01;3;  1.4741558E-03;  0.0000000E+00;  2.5569016E-05;  0.0000000E+00;  0.0000000E+00;  0.0000000E+00;0;  1.9468933E-02;  9.3975876E+01;  0.0000000E+00;  3.3086521E-04;  1.0000000E+02;  0.0000000E+00;  9.9473152E+01;  1.8321615E-02;  0.0000000E+00;  1.1473187E-03;  0.0000000E+00;
  2.4245739E+00;  9.9999998E-03; -8.0187130E-01;298;  1.5502633E-02;  0.0000000E+00; -7.9295348E-04;  9.9915199E+00;  4.1372257E-01; -8.5015708E-01;3;  3.9859378E-04;  0.0000000E+00; -1.6110345E-04;  0.0000000E+00;  0.0000000E+00;  0.0000000E+00;0;  2.0292522E-02;  9.3818588E+01;  0.0000000E+00; -3.5244109E-05;  1.0000000E+02;  0.0000000E+00;  9.9466400E+01;  1.9072268E-02;  0.0000000E+00;  1.2202539E-03;  0.0000000E+00;
  2.4269526E+00;  9.9999998E-03; -6.0083073E-01;299;  1.8019892E-02;  0.0000000E+00; -1.9513158E-04;  9.9911947E+00;  4.1409957E-01; -8.8241035E-01;3;  1.1360470E-03;  0.0000000E+00; -7.0626085E-04;  0.0000000E+00;  0.0000000E+00;  0.0000000E+00;0;  2.1143647E-02;  9.3644524E+01;  0.0000000E+00; -7.6772376E-06;  1.0000000E+02;  0.0000000E+00;  9.9462906E+01;  1.9926598E-02;  0.0000000E+00;  1.2170479E-03;  0.0000000E+00;
  2.4301479E+00;  9.9999998E-03; -3.9988145E-01;300;  2.1298125E-02;  0.0000000E+00;  2.3237507E-04;  9.9908257E+00;  4.1449225E-01; -9.1885954E-01;3;  2.0924977E-03;  0.0000000E+00;  2.5890264E-04;  0.0000000E+00;  0.0000000E+00;  0.0000000E+00;0;  2.2080623E-02;  9.3481659E+01;  0.0000000E+00;  1.9232328E-05;  1.0000000E+02;  0.0000000E+00;  9.9440117E+01;  2.0741817E-02;  0.0000000E+00;  1.3388059E-03;  0.0000000E+00;
  2.4326146E+00;  9.9999998E-03; -1.9987559E-01;301;  2.3625394E-02;  0.0000000E+00;  1.7756203E-04;  9.9905577E+00;  4.1482705E-01; -9.4530571E-01;3;  1.6883423E-03;  0.0000000E+00;  2.8541777E-04;  0.0000000E+00;  0.0000000E+00;  0.0000000E+00;0;  2.2791324E-02;  9.3364349E+01;  0.0000000E+00;  4.0194818E-06;  1.0000000E+02;  0.0000000E+00;  9.9397507E+01;  2.1333901E-02;  0.0000000E+00;  1.4574231E-03;  0.0000000E+00;
  2.6273201E+00;  9.9999998E-03; -1.0045885E+00;308;  1.5789581E-02;  0.0000000E+00; -2.2586526E-03;  9.9914026E+00;  4.1620806E-01; -8.2979685E-01;3; -1.1546083E-03;  0.0000000E+00;  6.2026194E-04;  0.0000000E+00;  0.0000000E+00;  0.0000000E+00;0;  2.3629058E-02;  9.3047829E+01;  0.0000000E+00;  2.2548121E-04;  1.0000000E+02;  0.0000000E+00;  9.9093102E+01;  2.1437194E-02;  0.0000000E+00;  2.1918637E-03;  0.0000000E+00;
  2.6297152E+00;  9.9999998E-03; -8.0344075E-01;309;  1.7871382E-02;  0.0000000E+00; -1.6585521E-03;  9.9912949E+00;  4.1632542E-01; -8.3983356E-01;3; -4.0389452E-04;  0.0000000E+00;  1.1067241E-03;  0.0000000E+00;  0.0000000E+00;  0.0000000E+00;0;  2.3976279E-02;  9.2996933E+01;  0.0000000E+00;  1.1468578E-05;  1.0000000E+02;  0.0000000E+00;  9.9089363E+01;  2.1717627E-02;  0.0000000E+00;  2.2586521E-03;  0.0000000E+00;
  2.6326129E+00;  9.9999998E-03; -6.0222787E-01;310;  2.1123558E-02;  0.0000000E+00; -9.7277190E-04;  9.9911928E+00;  4.1645247E-01; -8.4920740E-01;3;  2.3275285E-03;  0.0000000E+00;  8.3785719E-04;  0.0000000E+00;  0.0000000E+00;  0.0000000E+00;0;  2.4320310E-02;  9.2940315E+01;  0.0000000E+00;  3.8529033E-05;  1.0000000E+02;  0.0000000E+00;  9.9087189E+01;  2.2037275E-02;  0.0000000E+00;  2.2830351E-03;  0.0000000E+00;
  2.6362638E+00;  9.9999998E-03; -4.0089363E-01;311;  2.4839988E-02;  0.0000000E+00;  6.4523716E-05;  9.9911442E+00;  4.1655385E-01; -8.5333973E-01;3;  3.1457671E-03;  0.0000000E+00;  4.4606750E-05;  0.0000000E+00;  0.0000000E+00;  0.0000000E+00;0;  2.4539350E-02;  9.2888123E+01;  0.0000000E+00;  7.7112218E-06;  1.0000000E+02;  0.0000000E+00;  9.9091766E+01;  2.2341412E-02;  0.0000000E+00;  2.1979387E-03;  0.0000000E+00;
  2.6393683E+00;  9.9999998E-03; -2.0005052E-01;312;  2.8237389E-02;  0.0000000E+00;  7.5581651E-05;  9.9910145E+00;  4.1667306E-01; -8.6530340E-01;3;  4.3072137E-03;  0.0000000E+00;  1.6940682E-04;  0.0000000E+00;  0.0000000E+00;  0.0000000E+00;0;  2.4962127E-02;  9.2851852E+01;  0.0000000E+00; -2.8007137E-06;  1.0000000E+02;  0.0000000E+00;  9.9071648E+01;  2.2552840E-02;  0.0000000E+00;  2.4092868E-03;  0.0000000E+00;
  2.8353634E+00;  9.9999998E-03; -1.0068017E+00;319;  2.1076187E-02;  0.0000000E+00; -3.6548907E-03;  9.9907494E+00;  4.1963008E-01; -8.6222398E-01;3; -4.2558595E-04;  0.0000000E+00;  5.0700521E-05;  0.0000000E+00;  0.0000000E+00;  0.0000000E+00;0;  2.8990908E-02;  9.1957588E+01;  0.0000000E+00; -3.1272045E-04;  1.0000000E+02;  0.0000000E+00;  9.8626556E+01;  2.5289975E-02;  0.0000000E+00;  3.7009330E-03;  0.0000000E+00;
  2.8369901E+00;  9.9999998E-03; -8.0535120E-01;320;  2.2395296E-02;  0.0000000E+00; -2.7812927E-03;  9.9908819E+00;  4.1948202E-01; -8.4969455E-01;3;  6.5551692E-05;  0.0000000E+00; -1.4672333E-03;  0.0000000E+00;  0.0000000E+00;  0.0000000E+00;0;  2.8614562E-02;  9.2014771E+01;  0.0000000E+00; -2.3113559E-04;  1.0000000E+02;  0.0000000E+00;  9.8637756E+01;  2.5047304E-02;  0.0000000E+00;  3.5672584E-03;  0.0000000E+00;
  2.8387156E+00;  9.9999998E-03; -6.0389858E-01;321;  2.4236687E-02;  0.0000000E+00; -2.0109788E-03;  9.9909716E+00;  4.1930467E-01; -8.4110224E-01;3;  1.2263093E-03;  0.0000000E+00; -5.9514877E-04;  0.0000000E+00;  0.0000000E+00;  0.0000000E+00;0;  2.8378336E-02;  9.2079521E+01;  0.0000000E+00; -1.3138353E-05;  1.0000000E+02;  0.0000000E+00;  9.8652573E+01;  2.4773750E-02;  0.0000000E+00;  3.6045851E-03;  0.0000000E+00;
  2.8410010E+00;  9.9999998E-03; -4.0250993E-01;322;  2.6929032E-02;  0.0000000E+00; -1.1688736E-03;  9.9910583E+00;  4.1914499E-01; -8.3278245E-01;3;  4.9436437E-03;  0.0000000E+00;  9.5868157E-04;  0.0000000E+00;  0.0000000E+00;  0.0000000E+00;0;  2.8106168E-02;  9.2141396E+01;  0.0000000E+00;  3.0512912E-05;  1.0000000E+02;  0.0000000E+00;  9.8662666E+01;  2.4519471E-02;  0.0000000E+00;  3.5866962E-03;  0.0000000E+00;
  2.8431485E+00;  9.9999998E-03; -2.0083724E-01;323;  2.9475801E-02;  0.0000000E+00;  1.4877670E-05;  9.9911489E+00;  4.1900760E-01; -8.2409650E-01;3;  5.2017607E-03;  0.0000000E+00;  1.6466857E-04;  0.0000000E+00;  0.0000000E+00;  0.0000000E+00;0;  2.7873794E-02;  9.2187469E+01;  0.0000000E+00;  9.8642831E-06;  1.0000000E+02;  0.0000000E+00;  9.8680649E+01;  2.4333300E-02;  0.0000000E+00;  3.5404928E-03;  0.0000000E+00;
  3.0460579E+00;  9.9999998E-03; -1.0090851E+00;330;  2.8588844E-02;  0.0000000E+00; -5.1625366E-03;  9.9901266E+00;  4.2338932E-01; -8.9884782E-01;3;  1.3588247E-03;  0.0000000E+00; -2.1876958E-03;  0.0000000E+00;  0.0000000E+00;  0.0000000E+00;0;  3.4835927E-02;  9.0753937E+01;  0.0000000E+00; -4.0988697E-04;  1.0000000E+02;  0.0000000E+00;  9.8156006E+01;  2.9532116E-02;  0.0000000E+00;  5.3038117E-03;  0.0000000E+00;
  3.0464718E+00;  9.9999998E-03; -8.0730832E-01;331;  2.8918853E-02;  0.0000000E+00; -4.0419833E-03;  9.9903469E+00;  4.2305011E-01; -8.7874073E-01;3;  1.5630779E-03;  0.0000000E+00; -3.1543541E-04;  0.0000000E+00;  0.0000000E+00;  0.0000000E+00;0;  3.3960450E-02;  9.0881508E+01;  0.0000000E+00; -2.3828016E-04;  1.0000000E+02;  0.0000000E+00;  9.8179550E+01;  2.8932452E-02;  0.0000000E+00;  5.0279996E-03;  0.0000000E+00;
  3.0468194E+00;  9.9999998E-03; -6.0558325E-01;332;  2.9524123E-02;  0.0000000E+00; -3.0072839E-03;  9.9905815E+00;  4.2266452E-01; -8.5739195E-01;3;  2.3056322E-03;  0.0000000E+00; -8.4036076E-04;  0.0000000E+00;  0.0000000E+00;  0.0000000E+00;0;  3.3178724E-02;  9.1023354E+01;  0.0000000E+00; -5.7692732E-06;  1.0000000E+02;  0.0000000E+00;  9.8209114E+01;  2.8262261E-02;  0.0000000E+00;  4.9164612E-03;  0.0000000E+00;
  3.0475957E+00;  9.9999998E-03; -4.0390712E-01;333;  3.0666418E-02;  0.0000000E+00; -2.5184266E-03;  9.9907150E+00;  4.2230356E-01; -8.4518379E-01;3;  3.5920122E-03;  0.0000000E+00;  7.8813365E-04;  0.0000000E+00;  0.0000000E+00;  0.0000000E+00;0;  3.2718115E-02;  9.1156639E+01;  0.0000000E+00;  5.9566410E-05;  1.0000000E+02;  0.0000000E+00;  9.8235580E+01;  2.7635116E-02;  0.0000000E+00;  5.0829966E-03;  0.0000000E+00;
  3.0484104E+00;  9.9999998E-03; -2.0219740E-01;334;  3.1893790E-02;  0.0000000E+00; -9.9015736E-04;  9.9909029E+00;  4.2204240E-01; -8.2798356E-01;3;  4.9078353E-03;  0.0000000E+00;  5.0578185E-04;  0.0000000E+00;  0.0000000E+00;  0.0000000E+00;0;  3.2073583E-02;  9.1254311E+01;  0.0000000E+00;  2.3303437E-05;  1.0000000E+02;  0.0000000E+00;  9.8256424E+01;  2.7178962E-02;  0.0000000E+00;  4.8946212E-03;  0.0000000E+00;
  3.2588892E+00;  9.9999998E-03; -1.0111735E+00;341;  3.7310954E-02;  0.0000000E+00; -6.4575863E-03;  9.9897404E+00;  4.2706183E-01; -9.2212778E-01;3;  3.0058015E-03;  0.0000000E+00; -2.9241007E-03;  0.0000000E+00;  0.0000000E+00;  0.0000000E+00;0;  4.0063418E-02;  8.9568359E+01;  0.0000000E+00;  1.9472820E-04;  1.0000000E+02;  0.0000000E+00;  9.7744362E+01;  3.3498235E-02;  0.0000000E+00;  6.5651829E-03;  0.0000000E+00;
  3.2583501E+00;  9.9999998E-03; -8.0906332E-01;342;  3.6978018E-02;  0.0000000E+00; -5.2348697E-03;  9.9899263E+00;  4.2667830E-01; -9.0543360E-01;3;  3.0474185E-03;  0.0000000E+00;  3.2685470E-04;  0.0000000E+00;  0.0000000E+00;  0.0000000E+00;0;  3.9236080E-02;  8.9707680E+01;  0.0000000E+00;  3.5158964E-04;  1.0000000E+02;  0.0000000E+00;  9.7771469E+01;  3.2833785E-02;  0.0000000E+00;  6.4022965E-03;  0.0000000E+00;
  3.2576945E+00;  9.9999998E-03; -6.0704237E-01;343;  3.6794621E-02;  0.0000000E+00; -3.9702477E-03;  9.9901686E+00;  4.2625111E-01; -8.8365334E-01;3;  3.5109895E-03;  0.0000000E+00;  2.0896553E-04;  0.0000000E+00;  0.0000000E+00;  0.0000000E+00;0;  3.8285673E-02;  8.9862228E+01;  0.0000000E+00;  3.2870218E-04;  1.0000000E+02;  0.0000000E+00;  9.7803307E+01;  3.2091584E-02;  0.0000000E+00;  6.1940895E-03;  0.0000000E+00;
  3.2573318E+00;  9.9999998E-03; -4.0500605E-01;344;  3.6925785E-02;  0.0000000E+00; -3.4638280E-03;  9.9903040E+00;  4.2583632E-01; -8.7150502E-01;3;  4.2745806E-03;  0.0000000E+00; -1.5680009E-03;  0.0000000E+00;  0.0000000E+00;  0.0000000E+00;0;  3.7792403E-02;  9.0007484E+01;  0.0000000E+00;  2.0115094E-04;  1.0000000E+02;  0.0000000E+00;  9.7838707E+01;  3.1388011E-02;  0.0000000E+00;  6.4043924E-03;  0.0000000E+00;
  3.2571068E+00;  9.9999998E-03; -2.0299956E-01;345;  3.7164103E-02;  0.0000000E+00; -1.9592221E-03;  9.9904842E+00;  4.2554635E-01; -8.5533333E-01;3;  5.0108251E-03;  0.0000000E+00; -5.1533565E-04;  0.0000000E+00;  0.0000000E+00;  0.0000000E+00;0;  3.7082653E-02;  9.0113838E+01;  0.0000000E+00;  5.8480946E-05;  1.0000000E+02;  0.0000000E+00;  9.7859734E+01;  3.0869700E-02;  0.0000000E+00;  6.2129539E-03;  0.0000000E+00;
  3.4730096E+00;  9.9999998E-03; -1.0129347E+00;352;  4.6341933E-02;  0.0000000E+00; -7.4703787E-03;  9.9896441E+00;  4.3028745E-01; -9.2508483E-01;3;  4.1195992E-03;  0.0000000E+00; -2.2411013E-03;  0.0000000E+00;  0.0000000E+00;  0.0000000E+00;0;  4.4054300E-02;  8.8525665E+01;  0.0000000E+00;  6.3073874E-04;  1.0000000E+02;  0.0000000E+00;  9.7416817E+01;  3.6590863E-02;  0.0000000E+00;  7.4634380E-03;  0.0000000E+00;
  3.4720109E+00;  9.9999998E-03; -8.1050199E-01;353;  4.5805119E-02;  0.0000000E+00; -6.1656069E-03;  9.9897394E+00;  4.2999175E-01; -9.1658270E-01;3;  4.1749850E-03;  0.0000000E+00;  6.3679827E-04;  0.0000000E+00;  0.0000000E+00;  0.0000000E+00;0;  4.3583050E-02;  8.8629723E+01;  0.0000000E+00;  9.3930319E-04;  1.0000000E+02;  0.0000000E+00;  9.7437752E+01;  3.6115002E-02;  0.0000000E+00;  7.4680466E-03;  0.0000000E+00;
  3.4708431E+00;  9.9999998E-03; -6.0815990E-01;354;  4.5311660E-02;  0.0000000E+00; -4.7501298E-03;  9.9899044E+00;  4.2966363E-01; -9.0190643E-01;3;  4.4981926E-03;  0.0000000E+00;  1.3033181E-03;  0.0000000E+00;  0.0000000E+00;  0.0000000E+00;0;  4.2865213E-02;  8.8746933E+01;  0.0000000E+00;  7.0789375E-04;  1.0000000E+02;  0.0000000E+00;  9.7461136E+01;  3.5574831E-02;  0.0000000E+00;  7.2903833E-03;  0.0000000E+00;
  3.4698231E+00;  9.9999998E-03; -4.0574563E-01;355;  4.4912167E-02;  0.0000000E+00; -3.7928501E-03;  9.9900112E+00;  4.2932561E-01; -8.9233899E-01;3;  4.8840656E-03;  0.0000000E+00; -2.5363339E-03;  0.0000000E+00;  0.0000000E+00;  0.0000000E+00;0;  4.2446878E-02;  8.8858864E+01;  0.0000000E+00;  3.5303828E-04;  1.0000000E+02;  0.0000000E+00;  9.7493202E+01;  3.5050023E-02;  0.0000000E+00;  7.3968535E-03;  0.0000000E+00;
  3.4689412E+00;  9.9999998E-03; -2.0335203E-01;356;  4.4531170E-02;  0.0000000E+00; -2.4009601E-03;  9.9901199E+00;  4.2909259E-01; -8.8266253E-01;3;  5.1259110E-03;  0.0000000E+00; -1.0285410E-03;  0.0000000E+00;  0.0000000E+00;  0.0000000E+00;0;  4.1963413E-02;  8.8941750E+01;  0.0000000E+00;  9.1171154E-05;  1.0000000E+02;  0.0000000E+00;  9.7510536E+01;  3.4653880E-02;  0.0000000E+00;  7.3095355E-03;  0.0000000E+00;
  3.6875353E+00;  9.9999998E-03; -1.0143785E+00;363;  5.5186577E-02;  0.0000000E+00; -8.1870053E-03;  9.9897566E+00;  4.3299341E-01; -9.1258460E-01;3;  4.9459948E-03;  0.0000000E+00; -9.8143204E-04;  0.0000000E+00;  0.0000000E+00;  0.0000000E+00;0;  4.6685454E-02;  8.7652428E+01;  0.0000000E+00;  5.1028607E-04;  1.0000000E+02;  0.0000000E+00;  9.7163300E+01;  3.8666084E-02;  0.0000000E+00;  8.0193700E-03;  0.0000000E+00;
  3.6865127E+00;  9.9999998E-03; -8.1163841E-01;364;  5.4787677E-02;  0.0000000E+00; -6.8059633E-03;  9.9897575E+00;  4.3282774E-01; -9.1248602E-01;3;  5.1796124E-03;  0.0000000E+00;  6.1350857E-04;  0.0000000E+00;  0.0000000E+00;  0.0000000E+00;0;  4.6672940E-02;  8.7708542E+01;  0.0000000E+00;  9.2903338E-04;  1.0000000E+02;  0.0000000E+00;  9.7175133E+01;  3.8474705E-02;  0.0000000E+00;  8.1982370E-03;  0.0000000E+00;
  3.6852794E+00;  9.9999998E-03; -6.0894513E-01;365;  5.4331169E-02;  0.0000000E+00; -5.2545667E-03;  9.9898224E+00;  4.3264344E-01; -9.0670717E-01;3;  5.4726717E-03;  0.0000000E+00;  2.1862169E-03;  0.0000000E+00;  0.0000000E+00;  0.0000000E+00;0;  4.6349715E-02;  8.7774323E+01;  0.0000000E+00;  6.9524668E-04;  1.0000000E+02;  0.0000000E+00;  9.7186646E+01;  3.8243268E-02;  0.0000000E+00;  8.1064487E-03;  0.0000000E+00;
  3.6840854E+00;  9.9999998E-03; -4.0609375E-01;366;  5.3795196E-02;  0.0000000E+00; -3.6827198E-03;  9.9898882E+00;  4.3243062E-01; -9.0087491E-01;3;  5.6454763E-03;  0.0000000E+00; -2.1943762E-03;  0.0000000E+00;  0.0000000E+00;  0.0000000E+00;0;  4.6085998E-02;  8.7840202E+01;  0.0000000E+00;  3.2076571E-04;  1.0000000E+02;  0.0000000E+00;  9.7209999E+01;  3.8004160E-02;  0.0000000E+00;  8.0818376E-03;  0.0000000E+00;
  3.6829355E+00;  9.9999998E-03; -2.0309883E-01;367;  5.3142969E-02;  0.0000000E+00; -2.1421735E-03;  9.9899206E+00;  4.3227983E-01; -8.9796287E-01;3;  5.5454788E-03;  0.0000000E+00; -8.0142071E-04;  0.0000000E+00;  0.0000000E+00;  0.0000000E+00;0;  4.5916900E-02;  8.7891304E+01;  0.0000000E+00;  7.5376767E-05;  1.0000000E+02;  0.0000000E+00;  9.7221909E+01;  3.7812632E-02;  0.0000000E+00;  8.1042666E-03;  0.0000000E+00;
  3.9016979E+00;  9.9999998E-03; -1.0156097E+00;374;  6.3596331E-02;  0.0000000E+00; -8.6915381E-03;  9.9898987E+00;  4.3541709E-01; -8.9883387E-01;3;  5.9771342E-03;  0.0000000E+00;  6.2846881E-04;  0.0000000E+00;  0.0000000E+00;  0.0000000E+00;0;  4.8434012E-02;  8.6871429E+01;  0.0000000E+00;  3.5975844E-04;  1.0000000E+02;  0.0000000E+00;  9.6950653E+01;  4.0061440E-02;  0.0000000E+00;  8.3725732E-03;  0.0000000E+00;
  3.9009523E+00;  9.9999998E-03; -8.1259209E-01;375;  6.3477933E-02;  0.0000000E+00; -7.2288029E-03;  9.9898434E+00;  4.3532604E-01; -9.0376884E-01;3;  6.4175925E-03;  0.0000000E+00;  4.9342803E-04;  0.0000000E+00;  0.0000000E+00;  0.0000000E+00;0;  4.8764199E-02;  8.6899963E+01;  0.0000000E+00;  5.8478944E-04;  1.0000000E+02;  0.0000000E+00;  9.6957687E+01;  4.0091630E-02;  0.0000000E+00;  8.6725699E-03;  0.0000000E+00;
  3.9000449E+00;  9.9999998E-03; -6.0955209E-01;376;  6.3274220E-02;  0.0000000E+00; -5.5794660E-03;  9.9898281E+00;  4.3523595E-01; -9.0515065E-01;3;  6.7853960E-03;  0.0000000E+00;  2.5289082E-03;  0.0000000E+00;  0.0000000E+00;  0.0000000E+00;0;  4.8805147E-02;  8.6932129E+01;  0.0000000E+00;  4.0719582E-04;  1.0000000E+02;  0.0000000E+00;  9.6962288E+01;  4.0114313E-02;  0.0000000E+00;  8.6908350E-03;  0.0000000E+00;
  3.8991427E+00;  9.9999998E-03; -4.0621981E-01;377;  6.2955491E-02;  0.0000000E+00; -3.5337058E-03;  9.9898558E+00;  4.3511420E-01; -9.0266073E-01;3;  6.9474047E-03;  0.0000000E+00; -1.5103361E-03;  0.0000000E+00;  0.0000000E+00;  0.0000000E+00;0;  4.8711505E-02;  8.6966286E+01;  0.0000000E+00;  1.6750734E-04;  1.0000000E+02;  0.0000000E+00;  9.6978905E+01;  4.0121425E-02;  0.0000000E+00;  8.5900798E-03;  0.0000000E+00;
  3.8981948E+00;  9.9999998E-03; -2.0242421E-01;378;  6.2456071E-02;  0.0000000E+00; -1.5226626E-03;  9.9898424E+00;  4.3502554E-01; -9.0388376E-01;3;  6.8154153E-03;  0.0000000E+00; -1.8065600E-04;  0.0000000E+00;  0.0000000E+00;  0.0000000E+00;0;  4.8767373E-02;  8.6994987E+01;  0.0000000E+00;  3.4064975E-05;  1.0000000E+02;  0.0000000E+00;  9.6986366E+01;  4.0114835E-02;  0.0000000E+00;  8.6525362E-03;  0.0000000E+00;
  4.1148500E+00;  9.9999998E-03; -1.0167384E+00;385;  7.1264781E-02;  0.0000000E+00; -9.0937419E-03;  9.9898996E+00;  4.3788773E-01; -8.9832866E-01;3;  7.4900170E-03;  0.0000000E+00;  2.3301551E-03;  0.0000000E+00;  0.0000000E+00;  0.0000000E+00;0;  4.9987663E-02;  8.6076309E+01;  0.0000000E+00;  2.2785015E-04;  1.0000000E+02;  0.0000000E+00;  9.6744453E+01;  4.1298632E-02;  0.0000000E+00;  8.6890301E-03;  0.0000000E+00;
  4.1146464E+00;  9.9999998E-03; -8.1351060E-01;386;  7.1503550E-02;  0.0000000E+00; -7.5613549E-03;  9.9898329E+00;  4.3777615E-01; -9.0426618E-01;3;  8.0154557E-03;  0.0000000E+00;  3.3464425E-04;  0.0000000E+00;  0.0000000E+00;  0.0000000E+00;0;  5.0441794E-02;  8.6110237E+01;  0.0000000E+00;  3.0205408E-04;  1.0000000E+02;  0.0000000E+00;  9.6754326E+01;  4.1406475E-02;  0.0000000E+00;  9.0353172E-03;  0.0000000E+00;
  4.1144385E+00;  9.9999998E-03; -6.1021793E-01;387;  7.1738198E-02;  0.0000000E+00; -5.8532306E-03;  9.9897842E+00;  4.3768096E-01; -9.0856040E-01;3;  8.5073244E-03;  0.0000000E+00;  2.0820608E-03;  0.0000000E+00;  0.0000000E+00;  0.0000000E+00;0;  5.0656565E-02;  8.6142220E+01;  0.0000000E+00;  2.1122771E-04;  1.0000000E+02;  0.0000000E+00;  9.6760208E+01;  4.1534800E-02;  0.0000000E+00;  9.1217645E-03;  0.0000000E+00;
  4.1143069E+00;  9.9999998E-03; -4.0651441E-01;388;  7.1985483E-02;  0.0000000E+00; -3.6393802E-03;  9.9897890E+00;  4.3756551E-01; -9.0813649E-01;3;  8.8577727E-03;  0.0000000E+00; -1.3196447E-03;  0.0000000E+00;  0.0000000E+00;  0.0000000E+00;0;  5.0677989E-02;  8.6173241E+01;  0.0000000E+00;  8.5570144E-05;  1.0000000E+02;  0.0000000E+00;  9.6776184E+01;  4.1655391E-02;  0.0000000E+00;  9.0225972E-03;  0.0000000E+00;
  4.1140614E+00;  9.9999998E-03; -2.0206517E-01;389;  7.2090425E-02;  0.0000000E+00; -1.2418814E-03;  9.9897614E+00;  4.3749222E-01; -9.1062826E-01;3;  9.0662623E-03;  0.0000000E+00;  3.3775275E-04;  0.0000000E+00;  0.0000000E+00;  0.0000000E+00;0;  5.0818443E-02;  8.6197540E+01;  0.0000000E+00;  1.7023131E-05;  1.0000000E+02;  0.0000000E+00;  9.6781113E+01;  4.1742116E-02;  0.0000000E+00;  9.0763262E-03;  0.0000000E+00;
  4.3297219E+00;  9.9999998E-03; -2.0279120E-01;400;  8.1427932E-02;  0.0000000E+00; -1.7756314E-03;  9.9895906E+00;  4.3974829E-01; -9.2558813E-01;3;  1.1730099E-02;  0.0000000E+00;  3.8824754E-04;  0.0000000E+00;  0.0000000E+00;  0.0000000E+00;0;  5.2294485E-02;  8.5476326E+01;  0.0000000E+00;  2.5763484E-05;  1.0000000E+02;  0.0000000E+00;  9.6595505E+01;  4.2861275E-02;  0.0000000E+00;  9.4332118E-03;  0.0000000E+00;
  4.3277969E+00;  9.9999998E-03; -8.1442773E-01;397;  7.8945905E-02;  0.0000000E+00; -7.8642964E-03;  9.9896479E+00;  4.4022563E-01; -9.2050129E-01;3;  9.7960522E-03;  0.0000000E+00;  3.0541100E-04;  0.0000000E+00;  0.0000000E+00;  0.0000000E+00;0;  5.1978849E-02;  8.5326294E+01;  0.0000000E+00; -2.5433529E-04;  1.0000000E+02;  0.0000000E+00;  9.6556580E+01;  4.2613726E-02;  0.0000000E+00;  9.3651218E-03;  0.0000000E+00;
  4.3284364E+00;  9.9999998E-03; -6.1106342E-01;398;  7.9684749E-02;  0.0000000E+00; -6.1453274E-03;  9.9896135E+00;  4.4003940E-01; -9.2357486E-01;3;  1.0358987E-02;  0.0000000E+00;  1.0342480E-03;  0.0000000E+00;  0.0000000E+00;  0.0000000E+00;0;  5.2143354E-02;  8.5385704E+01;  0.0000000E+00; -9.7059847E-06;  1.0000000E+02;  0.0000000E+00;  9.6570251E+01;  4.2698245E-02;  0.0000000E+00;  9.4451075E-03;  0.0000000E+00;
  4.3291726E+00;  9.9999998E-03; -4.0729129E-01;399;  8.0576137E-02;  0.0000000E+00; -4.0782155E-03;  9.9896135E+00;  4.3985492E-01; -9.2357451E-01;3;  1.0965874E-02;  0.0000000E+00; -1.7930602E-03;  0.0000000E+00;  0.0000000E+00;  0.0000000E+00;0;  5.2182630E-02;  8.5438972E+01;  0.0000000E+00;  4.8310027E-05;  1.0000000E+02;  0.0000000E+00;  9.6591034E+01;  4.2787299E-02;  0.0000000E+00;  9.3953293E-03;  0.0000000E+00;
  4.3273993E+00;  9.9999998E-03; -1.0177579E+00;396;  7.8329459E-02;  0.0000000E+00; -9.4411885E-03;  9.9896946E+00;  4.4042480E-01; -9.1636753E-01;3;  9.3258461E-03;  0.0000000E+00;  3.8454167E-03;  0.0000000E+00;  0.0000000E+00;  0.0000000E+00;0;  5.1600926E-02;  8.5265472E+01;  0.0000000E+00; -8.3638396E-04;  1.0000000E+02;  0.0000000E+00;  9.6539444E+01;  4.2550303E-02;  0.0000000E+00;  9.0506226E-03;  0.0000000E+00;
  4.5428658E+00;  9.9999998E-03; -1.0184728E+00;407;  8.6708546E-02;  0.0000000E+00; -9.6586775E-03;  9.9893513E+00;  4.4245124E-01; -9.4680756E-01;3;  1.1284932E-02;  0.0000000E+00;  4.9377913E-03;  0.0000000E+00;  0.0000000E+00;  0.0000000E+00;0;  5.2721720E-02;  8.4622177E+01;  0.0000000E+00; -1.8984351E-03;  1.0000000E+02;  0.0000000E+00;  9.6378204E+01;  4.3347817E-02;  0.0000000E+00;  9.3739042E-03;  0.0000000E+00;
  4.5429153E+00;  9.9999998E-03; -8.1515294E-01;408;  8.7242812E-02;  0.0000000E+00; -8.0699101E-03;  9.9893417E+00;  4.4218060E-01; -9.4765550E-01;3;  1.1584873E-02;  0.0000000E+00;  2.8824460E-04;  0.0000000E+00;  0.0000000E+00;  0.0000000E+00;0;  5.2929934E-02;  8.4705452E+01;  0.0000000E+00; -4.6629173E-04;  1.0000000E+02;  0.0000000E+00;  9.6400925E+01;  4.3321185E-02;  0.0000000E+00;  9.6087484E-03;  0.0000000E+00;
  4.5433521E+00;  9.9999998E-03; -6.1190546E-01;409;  8.7966464E-02;  0.0000000E+00; -6.3661602E-03;  9.9893513E+00;  4.4188866E-01; -9.4680744E-01;3;  1.2114119E-02;  0.0000000E+00;  2.7993944E-04;  0.0000000E+00;  0.0000000E+00;  0.0000000E+00;0;  5.2881919E-02;  8.4798347E+01;  0.0000000E+00; -3.3268708E-04;  1.0000000E+02;  0.0000000E+00;  9.6422241E+01;  4.3277051E-02;  0.0000000E+00;  9.6048694E-03;  0.0000000E+00;
  4.5441012E+00;  9.9999998E-03; -4.0841371E-01;410;  8.8965163E-02;  0.0000000E+00; -4.5269215E-03;  9.9893723E+00;  4.4161344E-01; -9.4489944E-01;3;  1.2802038E-02;  0.0000000E+00; -2.7389047E-03;  0.0000000E+00;  0.0000000E+00;  0.0000000E+00;0;  5.2815966E-02;  8.4880676E+01;  0.0000000E+00; -2.5480575E-04;  1.0000000E+02;  0.0000000E+00;  9.6449135E+01;  4.3243472E-02;  0.0000000E+00;  9.5724957E-03;  0.0000000E+00;
  4.5448380E+00;  9.9999998E-03; -2.0469141E-01;411;  9.0047039E-02;  0.0000000E+00; -2.8897626E-03;  9.9893589E+00;  4.4145852E-01; -9.4611812E-01;3;  1.3887412E-02;  0.0000000E+00; -1.6898342E-05;  0.0000000E+00;  0.0000000E+00;  0.0000000E+00;0;  5.2866731E-02;  8.4936501E+01;  0.0000000E+00; -5.7719233E-05;  1.0000000E+02;  0.0000000E+00;  9.6453255E+01;  4.3228120E-02;  0.0000000E+00;  9.6386122E-03;  0.0000000E+00;
  4.7678590E+00;  9.9999998E-03; -1.0185667E+00;418;  1.0030955E-01;  0.0000000E+00; -9.5847119E-03;  9.9890347E+00;  4.4301391E-01; -9.7490859E-01;3;  1.3720745E-02;  0.0000000E+00;  5.2475324E-03;  0.0000000E+00;  0.0000000E+00;  0.0000000E+00;0;  5.2194390E-02;  8.4441673E+01;  0.0000000E+00;  8.8091515E-04;  1.0000000E+02;  0.0000000E+00;  9.6332970E+01;  4.2725570E-02;  0.0000000E+00;  9.4688209E-03;  0.0000000E+00;
  4.7652912E+00;  9.9999998E-03; -8.1531638E-01;419;  9.9502869E-02;  0.0000000E+00; -7.9881232E-03;  9.9890785E+00;  4.4270241E-01; -9.7098750E-01;3;  1.3776153E-02;  0.0000000E+00; -4.2374147E-04;  0.0000000E+00;  0.0000000E+00;  0.0000000E+00;0;  5.2190747E-02;  8.4539024E+01;  0.0000000E+00; -2.0038791E-04;  1.0000000E+02;  0.0000000E+00;  9.6358772E+01;  4.2611275E-02;  0.0000000E+00;  9.5794722E-03;  0.0000000E+00;
  4.7625918E+00;  9.9999998E-03; -6.1225230E-01;420;  9.8642610E-02;  0.0000000E+00; -6.3109756E-03;  9.9891386E+00;  4.4235554E-01; -9.6563542E-01;3;  1.4065278E-02;  0.0000000E+00; -6.3573360E-05;  0.0000000E+00;  0.0000000E+00;  0.0000000E+00;0;  5.1923618E-02;  8.4650810E+01;  0.0000000E+00;  1.2869290E-04;  1.0000000E+02;  0.0000000E+00;  9.6383003E+01;  4.2450987E-02;  0.0000000E+00;  9.4726291E-03;  0.0000000E+00;
  4.7610359E+00;  9.9999998E-03; -4.0919515E-01;421;  9.8426193E-02;  0.0000000E+00; -4.8477454E-03;  9.9891796E+00;  4.4204608E-01; -9.6203208E-01;3;  1.4419694E-02;  0.0000000E+00; -3.2560099E-03;  0.0000000E+00;  0.0000000E+00;  0.0000000E+00;0;  5.1794726E-02;  8.4745544E+01;  0.0000000E+00; -2.1802358E-04;  1.0000000E+02;  0.0000000E+00;  9.6410858E+01;  4.2304762E-02;  0.0000000E+00;  9.4899647E-03;  0.0000000E+00;
  4.7598495E+00;  9.9999998E-03; -2.0659876E-01;422;  9.8377235E-02;  0.0000000E+00; -3.4905130E-03;  9.9892073E+00;  4.4186756E-01; -9.5954162E-01;3;  1.5173270E-02;  0.0000000E+00; -6.5870368E-04;  0.0000000E+00;  0.0000000E+00;  0.0000000E+00;0;  5.1675323E-02;  8.4811363E+01;  0.0000000E+00; -1.4392404E-04;  1.0000000E+02;  0.0000000E+00;  9.6414352E+01;  4.2191081E-02;  0.0000000E+00;  9.4842417E-03;  0.0000000E+00;
  5.0023694E+00;  9.9999998E-03; -1.0179402E+00;429;  1.1607620E-01;  0.0000000E+00; -9.1152154E-03;  9.9888163E+00;  4.4198871E-01; -9.9428725E-01;3;  1.4683160E-02;  0.0000000E+00;  4.9879272E-03;  0.0000000E+00;  0.0000000E+00;  0.0000000E+00;0;  4.9319729E-02;  8.4761261E+01;  0.0000000E+00;  2.5975527E-02;  1.0000000E+02;  0.0000000E+00;  9.6412491E+01;  4.0097907E-02;  0.0000000E+00;  9.2218239E-03;  0.0000000E+00;
  4.9982395E+00;  9.9999998E-03; -8.1471330E-01;430;  1.1644277E-01;  0.0000000E+00; -7.5554186E-03;  9.9889250E+00;  4.4137564E-01; -9.8464292E-01;3;  1.4565917E-02;  0.0000000E+00; -1.6032052E-03;  0.0000000E+00;  0.0000000E+00;  0.0000000E+00;0;  4.9102169E-02;  8.4953674E+01;  0.0000000E+00; -1.6172145E-02;  1.0000000E+02;  0.0000000E+00;  9.6462601E+01;  3.9849658E-02;  0.0000000E+00;  9.2525119E-03;  0.0000000E+00;
  4.9887958E+00;  9.9999998E-03; -6.1166197E-01;431;  1.1281021E-01;  0.0000000E+00; -5.8078272E-03;  9.9891167E+00;  4.4074827E-01; -9.6757990E-01;3;  1.6090084E-02;  0.0000000E+00; -1.3321991E-03;  0.0000000E+00;  0.0000000E+00;  0.0000000E+00;0;  4.8406795E-02;  8.5157188E+01;  0.0000000E+00; -5.2268612E-03;  1.0000000E+02;  0.0000000E+00;  9.6509254E+01;  3.9462700E-02;  0.0000000E+00;  8.9440932E-03;  0.0000000E+00;
  4.9832106E+00;  9.9999998E-03; -4.0887389E-01;432;  1.1118616E-01;  0.0000000E+00; -4.3739118E-03;  9.9892044E+00;  4.4040546E-01; -9.5979035E-01;3;  1.6855594E-02;  0.0000000E+00; -1.0005942E-03;  0.0000000E+00;  0.0000000E+00;  0.0000000E+00;0;  4.8134707E-02;  8.5271049E+01;  0.0000000E+00;  1.1655535E-03;  1.0000000E+02;  0.0000000E+00;  9.6532280E+01;  3.9228451E-02;  0.0000000E+00;  8.9062573E-03;  0.0000000E+00;
  4.9787340E+00;  9.9999998E-03; -2.0633842E-01;433;  1.0918587E-01;  0.0000000E+00; -2.9921366E-03;  9.9892731E+00;  4.4019121E-01; -9.5369649E-01;3;  1.6422013E-02;  0.0000000E+00; -2.0205884E-03;  0.0000000E+00;  0.0000000E+00;  0.0000000E+00;0;  4.7918141E-02;  8.5338417E+01;  0.0000000E+00;  9.3688758E-04;  1.0000000E+02;  0.0000000E+00;  9.6551102E+01;  3.9057720E-02;  0.0000000E+00;  8.8604223E-03;  0.0000000E+00;
  5.2068906E+00;  9.9999998E-03; -1.0162736E+00;440;  1.1602359E-01;  0.0000000E+00; -8.0844369E-03;  9.9893017E+00;  4.3770906E-01; -9.5114607E-01;3;  1.5253128E-02;  0.0000000E+00;  2.6166136E-03;  0.0000000E+00;  0.0000000E+00;  0.0000000E+00;0;  4.2589605E-02;  8.6132416E+01;  0.0000000E+00;  3.8793020E-02;  1.0000000E+02;  0.0000000E+00;  9.6750824E+01;  3.4422100E-02;  0.0000000E+00;  8.1675043E-03;  0.0000000E+00;
  5.2111473E+00;  9.9999998E-03; -8.1325823E-01;441;  1.2310338E-01;  0.0000000E+00; -6.5453164E-03;  9.9890146E+00;  4.3782270E-01; -9.7663498E-01;3;  1.8677946E-02;  0.0000000E+00; -2.2621767E-03;  0.0000000E+00;  0.0000000E+00;  0.0000000E+00;0;  4.3733761E-02;  8.6087616E+01;  0.0000000E+00; -1.4200009E-02;  1.0000000E+02;  0.0000000E+00;  9.6744843E+01;  3.5481744E-02;  0.0000000E+00;  8.2520191E-03;  0.0000000E+00;
  5.2104769E+00;  9.9999998E-03; -6.1028796E-01;442;  1.2039685E-01;  0.0000000E+00; -4.9111266E-03;  9.9893141E+00;  4.3743095E-01; -9.5003325E-01;3;  1.5224111E-02;  0.0000000E+00; -2.8184212E-03;  0.0000000E+00;  0.0000000E+00;  0.0000000E+00;0;  4.2545184E-02;  8.6218285E+01;  0.0000000E+00; -1.5791805E-02;  1.0000000E+02;  0.0000000E+00;  9.6776993E+01;  3.4478966E-02;  0.0000000E+00;  8.0662183E-03;  0.0000000E+00;
  5.2114921E+00;  9.9999998E-03; -4.0764308E-01;443;  1.2652896E-01;  0.0000000E+00; -3.6029464E-03;  9.9892836E+00;  4.3713447E-01; -9.5273578E-01;3;  1.8989509E-02;  0.0000000E+00; -7.6432945E-04;  0.0000000E+00;  0.0000000E+00;  0.0000000E+00;0;  4.2629380E-02;  8.6315903E+01;  0.0000000E+00; -5.9399316E-03;  1.0000000E+02;  0.0000000E+00;  9.6797638E+01;  3.4612782E-02;  0.0000000E+00;  8.0165975E-03;  0.0000000E+00;
  5.2067213E+00;  9.9999998E-03; -2.0440939E-01;444;  1.2542957E-01;  0.0000000E+00; -2.1657185E-03;  9.9894762E+00;  4.3662113E-01; -9.3561953E-01;3;  1.7841833E-02;  0.0000000E+00; -4.0119588E-03;  0.0000000E+00;  0.0000000E+00;  0.0000000E+00;0;  4.1985493E-02;  8.6472343E+01;  0.0000000E+00;  1.1811780E-03;  1.0000000E+02;  0.0000000E+00;  9.6853378E+01;  3.4101021E-02;  0.0000000E+00;  7.8844735E-03;  0.0000000E+00;
  5.4126492E+00;  9.9999998E-03; -1.0138729E+00;451;  1.2341015E-01;  0.0000000E+00; -7.1567371E-03;  9.9892569E+00;  4.3142542E-01; -9.5511788E-01;3;  2.0023411E-02;  0.0000000E+00;  2.6924261E-03;  0.0000000E+00;  0.0000000E+00;  0.0000000E+00;0;  3.6956519E-02;  8.8191750E+01;  0.0000000E+00;  1.3982695E-02;  1.0000000E+02;  0.0000000E+00;  9.7262032E+01;  2.9526196E-02;  0.0000000E+00;  7.4303206E-03;  0.0000000E+00;
  5.4222956E+00;  9.9999998E-03; -8.1140608E-01;452;  1.2751986E-01;  0.0000000E+00; -5.7510608E-03;  9.9889441E+00;  4.3335918E-01; -9.8293829E-01;3;  1.6130896E-02;  0.0000000E+00; -4.6994924E-03;  0.0000000E+00;  0.0000000E+00;  0.0000000E+00;0;  3.7865307E-02;  8.7535629E+01;  0.0000000E+00;  1.3809728E-03;  1.0000000E+02;  0.0000000E+00;  9.7113068E+01;  3.0301372E-02;  0.0000000E+00;  7.5639370E-03;  0.0000000E+00;
  5.4222527E+00;  9.9999998E-03; -6.0845238E-01;453;  1.2701216E-01;  0.0000000E+00; -3.8235660E-03;  9.9893875E+00;  4.3289506E-01; -9.4351280E-01;3;  1.7638382E-02;  0.0000000E+00; -2.6495077E-03;  0.0000000E+00;  0.0000000E+00;  0.0000000E+00;0;  3.6197506E-02;  8.7698441E+01;  0.0000000E+00; -9.7642727E-03;  1.0000000E+02;  0.0000000E+00;  9.7149025E+01;  2.9249655E-02;  0.0000000E+00;  6.9478508E-03;  0.0000000E+00;
  5.4239292E+00;  9.9999998E-03; -4.0591142E-01;454;  1.2939207E-01;  0.0000000E+00; -2.1036970E-03;  9.9894695E+00;  4.3272617E-01; -9.3619984E-01;3;  1.6976360E-02;  0.0000000E+00;  1.9042031E-04;  0.0000000E+00;  0.0000000E+00;  0.0000000E+00;0;  3.5826750E-02;  8.7754822E+01;  0.0000000E+00; -4.0077616E-04;  1.0000000E+02;  0.0000000E+00;  9.7164627E+01;  2.9142790E-02;  0.0000000E+00;  6.6839620E-03;  0.0000000E+00;
  5.4235024E+00;  9.9999998E-03; -2.0356454E-01;455;  1.2939726E-01;  0.0000000E+00; -1.2893835E-03;  9.9896345E+00;  4.3229684E-01; -9.2152119E-01;3;  1.5570750E-02;  0.0000000E+00;  1.9302964E-04;  0.0000000E+00;  0.0000000E+00;  0.0000000E+00;0;  3.5278603E-02;  8.7896545E+01;  0.0000000E+00;  2.2108853E-03;  1.0000000E+02;  0.0000000E+00;  9.7203766E+01;  2.8514910E-02;  0.0000000E+00;  6.7636943E-03;  0.0000000E+00;
  5.6210151E+00;  9.9999998E-03; -1.0112689E+00;462;  1.2657951E-01;  0.0000000E+00; -6.3085058E-03;  9.9893446E+00;  4.2530504E-01; -9.4732708E-01;3;  1.5118295E-02;  0.0000000E+00; -4.3720747E-03;  0.0000000E+00;  0.0000000E+00;  0.0000000E+00;0;  2.9924678E-02;  9.0267899E+01;  0.0000000E+00;  6.6528642E-03;  1.0000000E+02;  0.0000000E+00;  9.7781715E+01;  2.3003161E-02;  0.0000000E+00;  6.9215167E-03;  0.0000000E+00;
  5.6272035E+00;  9.9999998E-03; -8.0904388E-01;463;  1.2744184E-01;  0.0000000E+00; -4.2028092E-03;  9.9898491E+00;  4.2723003E-01; -9.0244329E-01;3;  1.7564405E-02;  0.0000000E+00; -5.6568962E-03;  0.0000000E+00;  0.0000000E+00;  0.0000000E+00;0;  2.8145760E-02;  8.9610146E+01;  0.0000000E+00;  2.3365624E-02;  1.0000000E+02;  0.0000000E+00;  9.7624290E+01;  2.2394024E-02;  0.0000000E+00;  5.7517374E-03;  0.0000000E+00;
  5.6285357E+00;  9.9999998E-03; -6.0633081E-01;464;  1.2945440E-01;  0.0000000E+00; -2.7874790E-03;  9.9895029E+00;  4.2725402E-01; -9.3323129E-01;3;  1.4421363E-02;  0.0000000E+00; -5.3445529E-03;  0.0000000E+00;  0.0000000E+00;  0.0000000E+00;0;  2.8904170E-02;  8.9594330E+01;  0.0000000E+00;  4.5195189E-03;  1.0000000E+02;  0.0000000E+00;  9.7623444E+01;  2.3187725E-02;  0.0000000E+00;  5.7164459E-03;  0.0000000E+00;
  5.6276999E+00;  9.9999998E-03; -4.0349162E-01;465;  1.2969632E-01;  0.0000000E+00; -1.5883809E-03;  9.9897003E+00;  4.2673552E-01; -9.1569114E-01;3;  1.8326979E-02;  0.0000000E+00; -3.9527407E-03;  0.0000000E+00;  0.0000000E+00;  0.0000000E+00;0;  2.8435515E-02;  8.9774162E+01;  0.0000000E+00;  2.0407828E-02;  1.0000000E+02;  0.0000000E+00;  9.7668457E+01;  2.2732435E-02;  0.0000000E+00;  5.7030800E-03;  0.0000000E+00;
  5.6270490E+00;  9.9999998E-03; -2.0065036E-01;466;  1.2998284E-01;  0.0000000E+00;  1.6145517E-05;  9.9898672E+00;  4.2640331E-01; -9.0085357E-01;3;  1.7536696E-02;  0.0000000E+00;  1.0235235E-04;  0.0000000E+00;  0.0000000E+00;  0.0000000E+00;0;  2.7946692E-02;  8.9894691E+01;  0.0000000E+00;  1.2063571E-02;  1.0000000E+02;  0.0000000E+00;  9.7692619E+01;  2.2453325E-02;  0.0000000E+00;  5.4933676E-03;  0.0000000E+00;
  5.8301511E+00;  9.9999998E-03; -8.0640799E-01;473;  1.3118659E-01;  0.0000000E+00; -3.4558997E-03;  9.9886169E+00;  4.2017469E-01; -1.0120291E+00;3;  6.5856408E-03;  0.0000000E+00; -1.8721443E-02;  0.0000000E+00;  0.0000000E+00;  0.0000000E+00;0;  2.3421688E-02;  9.2045471E+01;  0.0000000E+00; -1.3016068E-02;  1.0000000E+02;  0.0000000E+00;  9.8235733E+01;  1.8427873E-02;  0.0000000E+00;  4.9938150E-03;  0.0000000E+00;
  5.8306327E+00;  9.9999998E-03; -6.0382116E-01;474;  1.2937154E-01;  0.0000000E+00; -1.7362761E-03;  9.9904318E+00;  4.1997313E-01; -8.5067034E-01;3;  1.6183352E-02;  0.0000000E+00; -5.1542167E-03;  0.0000000E+00;  0.0000000E+00;  0.0000000E+00;0;  1.9588275E-02;  9.2154190E+01;  0.0000000E+00; -1.3784723E-02;  1.0000000E+02;  0.0000000E+00;  9.8249451E+01;  1.5287196E-02;  0.0000000E+00;  4.3010786E-03;  0.0000000E+00;
  5.8297958E+00;  9.9999998E-03; -4.0097201E-01;475;  1.2975290E-01;  0.0000000E+00; -1.6605096E-04;  9.9904680E+00;  4.1950759E-01; -8.4743786E-01;3;  1.7778654E-02;  0.0000000E+00;  5.2680727E-05;  0.0000000E+00;  0.0000000E+00;  0.0000000E+00;0;  1.9385962E-02;  9.2328636E+01;  0.0000000E+00;  1.6608523E-02;  1.0000000E+02;  0.0000000E+00;  9.8282967E+01;  1.5361882E-02;  0.0000000E+00;  4.0240805E-03;  0.0000000E+00;
  5.8330355E+00;  9.9999998E-03; -1.9996242E-01;476;  1.3233264E-01;  0.0000000E+00;  2.1488871E-04;  9.9890747E+00;  4.2111686E-01; -9.7133172E-01;3;  1.2379680E-02;  0.0000000E+00;  1.2272969E-04;  0.0000000E+00;  0.0000000E+00;  0.0000000E+00;0;  2.1927152E-02;  9.1750931E+01;  0.0000000E+00;  9.0263905E-03;  1.0000000E+02;  0.0000000E+00;  9.8119942E+01;  1.7492564E-02;  0.0000000E+00;  4.4345884E-03;  0.0000000E+00;
  6.0338054E+00;  9.9999998E-03; -3.9991626E-01;483;  1.3198207E-01;  0.0000000E+00;  9.7794175E-05;  9.9885349E+00;  4.1381460E-01; -1.0192887E+00;3;  1.4117013E-02;  0.0000000E+00;  7.7644922E-04;  0.0000000E+00;  0.0000000E+00;  0.0000000E+00;0;  1.4036449E-02;  9.4394997E+01;  0.0000000E+00; -4.8293225E-02;  1.0000000E+02;  0.0000000E+00;  9.8757240E+01;  1.1014534E-02;  0.0000000E+00;  3.0219147E-03;  0.0000000E+00;
  6.0353222E+00;  9.9999998E-03; -6.0251701E-01;482;  1.3332672E-01;  0.0000000E+00; -1.5847256E-03;  9.9852200E+00;  4.1516954E-01; -1.3140266E+00;3; -4.1016946E-03;  0.0000000E+00; -1.8618222E-02;  0.0000000E+00;  0.0000000E+00;  0.0000000E+00;0;  1.7640080E-02;  9.3815697E+01;  0.0000000E+00; -5.1460903E-02;  1.0000000E+02;  0.0000000E+00;  9.8654808E+01;  1.3782515E-02;  0.0000000E+00;  3.8575653E-03;  0.0000000E+00;
  6.0367093E+00;  9.9999998E-03; -1.9939928E-01;484;  1.3355954E-01;  0.0000000E+00;  4.4000358E-04;  9.9866457E+00;  4.1581392E-01; -1.1872712E+00;3;  1.2196491E-02;  0.0000000E+00;  4.4677407E-05;  0.0000000E+00;  0.0000000E+00;  0.0000000E+00;0;  1.6230514E-02;  9.3663986E+01;  0.0000000E+00; -7.2447173E-03;  1.0000000E+02;  0.0000000E+00;  9.8537697E+01;  1.2799007E-02;  0.0000000E+00;  3.4315069E-03;  0.0000000E+00;
  6.2365499E+00;  9.9999998E-03; -3.9985436E-01;489;  1.3417479E-01;  0.0000000E+00; -3.5897037E-04;  9.9709501E+00;  4.0902033E-01; -2.5826921E+00;3;  5.2419305E-03;  0.0000000E+00;  2.6535243E-05;  0.0000000E+00;  0.0000000E+00;  0.0000000E+00;0;  1.2184681E-02;  9.6011650E+01;  0.0000000E+00; -1.0941457E-01;  1.0000000E+02;  0.0000000E+00;  9.9039215E+01;  9.3383137E-03;  0.0000000E+00;  2.8463681E-03;  0.0000000E+00;
  6.2371645E+00;  9.9999998E-03; -1.9832511E-01;490;  1.3373512E-01;  0.0000000E+00;  7.8878494E-04;  9.9743814E+00;  4.0932065E-01; -2.2776210E+00;3;  1.0275561E-02;  0.0000000E+00;  9.4805844E-05;  0.0000000E+00;  0.0000000E+00;  0.0000000E+00;0;  1.0404825E-02;  9.5987801E+01;  0.0000000E+00; -5.1750790E-02;  1.0000000E+02;  0.0000000E+00;  9.8986961E+01;  7.9466403E-03;  0.0000000E+00;  2.4581845E-03;  0.0000000E+00;
 -5.5015960E-04;  9.9999998E-03; -9.1502838E-12;170;  5.9214828E-05;  0.0000000E+00; -7.8832413E-10;  9.9993525E+00;  3.9979073E-01; -6.9646411E-02;3; -3.5172340E-02;  0.0000000E+00; -7.9400436E-08;  0.0000000E+00;  0.0000000E+00;  0.0000000E+00;0;  2.2460453E-04;  1.0008913E+02;  0.0000000E+00;  4.4631897E-16;  1.0000000E+02;  0.0000000E+00;  1.0000163E+02;  2.4456502E-04;  0.0000000E+00; -1.9960487E-05;  0.0000000E+00;
 -5.4849713E-04;  9.9999998E-03;  2.0001242E-01;171;  4.9093491E-05;  0.0000000E+00; -5.2305013E-06;  9.9993258E+00;  3.9980084E-01; -7.2532311E-02;3; -3.3433896E-02;  0.0000000E+00; -1.6423294E-03;  0.0000000E+00;  0.0000000E+00;  0.0000000E+00;0;  2.2259909E-04;  1.0008447E+02;  0.0000000E+00; -1.3052993E-06;  1.0000000E+02;  0.0000000E+00;  1.0000188E+02;  2.4102657E-04;  0.0000000E+00; -1.8427487E-05;  0.0000000E+00;
 -5.4161670E-04;  9.9999998E-03;  4.0002385E-01;172;  2.2164983E-05;  0.0000000E+00; -7.9445517E-06;  9.9993067E+00;  3.9982462E-01; -7.4584506E-02;3; -2.8944176E-02;  0.0000000E+00; -2.0069894E-03;  0.0000000E+00;  0.0000000E+00;  0.0000000E+00;0;  2.1614069E-04;  1.0007220E+02;  0.0000000E+00; -1.5395077E-05;  1.0000000E+02;  0.0000000E+00;  1.0000222E+02;  2.3019458E-04;  0.0000000E+00; -1.4053897E-05;  0.0000000E+00;
 -5.2622048E-04;  9.9999998E-03;  6.0003388E-01;173; -8.4768826E-06;  0.0000000E+00; -7.1283176E-07;  9.9992924E+00;  3.9985585E-01; -7.6123655E-02;3; -2.4371462E-02;  0.0000000E+00; -5.4903468E-04;  0.0000000E+00;  0.0000000E+00;  0.0000000E+00;0;  2.0453280E-04;  1.0005573E+02;  0.0000000E+00; -6.1807048E-05;  1.0000000E+02;  0.0000000E+00;  9.9998749E+01;  2.1198527E-04;  0.0000000E+00; -7.4524705E-06;  0.0000000E+00;
 -5.0377386E-04;  9.9999998E-03;  8.0004436E-01;174; -2.8867109E-05;  0.0000000E+00;  5.5807900E-06;  9.9992800E+00;  3.9989302E-01; -7.7470407E-02;3; -2.0369239E-02;  0.0000000E+00;  3.3208495E-03;  0.0000000E+00;  0.0000000E+00;  0.0000000E+00;0;  1.8778151E-04;  1.0003902E+02;  0.0000000E+00; -1.3569005E-04;  1.0000000E+02;  0.0000000E+00;  1.0000000E+02;  1.8731174E-04;  0.0000000E+00;  4.6977061E-07;  0.0000000E+00;
 -4.7671280E-04;  9.9999998E-03;  1.0000615E+00;175; -5.0391787E-05;  0.0000000E+00;  1.0080455E-05;  9.9993820E+00;  3.9992529E-01; -6.6503987E-02;3; -1.5191076E-02;  0.0000000E+00;  5.5845818E-03;  0.0000000E+00;  0.0000000E+00;  0.0000000E+00;0;  1.6517931E-04;  1.0002464E+02;  0.0000000E+00; -1.8848361E-04;  1.0000000E+02;  0.0000000E+00;  1.0000066E+02;  1.5672414E-04;  0.0000000E+00;  8.4551730E-06;  0.0000000E+00;
  1.9930778E-01;  9.9999998E-03;  2.9861835E-11;181;  2.8234404E-05;  0.0000000E+00; -8.8240809E-10;  9.9980221E+00;  3.9992318E-01; -2.1278529E-01;3; -1.8636184E-02;  0.0000000E+00; -1.1818271E-07;  0.0000000E+00;  0.0000000E+00;  0.0000000E+00;0;  5.8637199E-04;  9.9996964E+01;  0.0000000E+00;  2.7780312E-16;  1.0000000E+02;  0.0000000E+00;  1.0000154E+02;  6.0873351E-04;  0.0000000E+00; -2.2361502E-05;  0.0000000E+00;
  1.9931123E-01;  9.9999998E-03;  2.0000251E-01;182;  1.7384014E-05;  0.0000000E+00; -1.0795821E-05;  9.9980221E+00;  3.9993447E-01; -2.1278529E-01;3; -1.7449537E-02;  0.0000000E+00;  1.0245560E-03;  0.0000000E+00;  0.0000000E+00;  0.0000000E+00;0;  5.8200903E-04;  9.9991486E+01;  0.0000000E+00; -1.7586115E-05;  1.0000000E+02;  0.0000000E+00;  1.0000171E+02;  6.0303597E-04;  0.0000000E+00; -2.1026914E-05;  0.0000000E+00;
  1.9932289E-01;  9.9999998E-03;  4.0000057E-01;183; -5.3854769E-06;  0.0000000E+00; -1.8353292E-05;  9.9980440E+00;  3.9996031E-01; -2.1047659E-01;3; -1.5927108E-02;  0.0000000E+00;  2.6421449E-03;  0.0000000E+00;  0.0000000E+00;  0.0000000E+00;0;  5.6757795E-04;  9.9978065E+01;  0.0000000E+00; -1.1389305E-04;  1.0000000E+02;  0.0000000E+00;  1.0000208E+02;  5.8453745E-04;  0.0000000E+00; -1.6959482E-05;  0.0000000E+00;
  1.9934323E-01;  9.9999998E-03;  5.9999162E-01;184; -2.8687986E-05;  0.0000000E+00; -2.5423304E-05;  9.9980583E+00;  3.9999261E-01; -2.0893745E-01;3; -1.5110737E-02;  0.0000000E+00;  6.3959877E-03;  0.0000000E+00;  0.0000000E+00;  0.0000000E+00;0;  5.3925900E-04;  9.9963501E+01;  0.0000000E+00; -3.2828597E-04;  1.0000000E+02;  0.0000000E+00;  1.0000224E+02;  5.4944365E-04;  0.0000000E+00; -1.0184668E-05;  0.0000000E+00;
  1.9937125E-01;  9.9999998E-03;  7.9997581E-01;185; -5.0548566E-05;  0.0000000E+00; -3.3752149E-05;  9.9982080E+00;  4.0001845E-01; -1.9277655E-01;3; -1.2912290E-02;  0.0000000E+00;  1.1407346E-02;  0.0000000E+00;  0.0000000E+00;  0.0000000E+00;0;  4.9253640E-04;  9.9954262E+01;  0.0000000E+00; -5.8252114E-04;  1.0000000E+02;  0.0000000E+00;  9.9999870E+01;  4.9399765E-04;  0.0000000E+00; -1.4612451E-06;  0.0000000E+00;
  1.9940419E-01;  9.9999998E-03;  9.9995714E-01;186; -7.5253178E-05;  0.0000000E+00; -4.4808188E-05;  9.9984570E+00;  4.0002871E-01; -1.6603409E-01;3; -9.3959123E-03;  0.0000000E+00;  1.5656445E-02;  0.0000000E+00;  0.0000000E+00;  0.0000000E+00;0;  4.2219993E-04;  9.9954170E+01;  0.0000000E+00; -6.9171004E-04;  1.0000000E+02;  0.0000000E+00;  1.0000108E+02;  4.1590841E-04;  0.0000000E+00;  6.2915078E-06;  0.0000000E+00;
  3.9916855E-01;  9.9999998E-03;  1.0154557E-10;192;  9.0025878E-06;  0.0000000E+00; -7.4295253E-10;  9.9965496E+00;  4.0019423E-01; -3.7124503E-01;3; -5.3456541E-02;  0.0000000E+00; -1.0868390E-07;  0.0000000E+00;  0.0000000E+00;  0.0000000E+00;0;  1.1998760E-03;  9.9832779E+01;  0.0000000E+00;  3.1676104E-17;  1.0000000E+02;  0.0000000E+00;  1.0000163E+02;  1.2174443E-03;  0.0000000E+00; -1.7568336E-05;  0.0000000E+00;
  3.9917451E-01;  9.9999998E-03;  1.9999017E-01;193;  6.3625407E-08;  0.0000000E+00; -1.2165871E-05;  9.9965544E+00;  4.0020621E-01; -3.7073198E-01;3; -5.2685864E-02;  0.0000000E+00;  1.3037378E-02;  0.0000000E+00;  0.0000000E+00;  0.0000000E+00;0;  1.1927194E-03;  9.9826202E+01;  0.0000000E+00; -8.9008892E-05;  1.0000000E+02;  0.0000000E+00;  1.0000164E+02;  1.2098976E-03;  0.0000000E+00; -1.7178088E-05;  0.0000000E+00;
  3.9919475E-01;  9.9999998E-03;  3.9997676E-01;194; -1.8217899E-05;  0.0000000E+00; -2.5547442E-05;  9.9965715E+00;  4.0023527E-01; -3.6887226E-01;3; -5.1437598E-02;  0.0000000E+00;  3.0810557E-02;  0.0000000E+00;  0.0000000E+00;  0.0000000E+00;0;  1.1692577E-03;  9.9811432E+01;  0.0000000E+00; -4.3183105E-04;  1.0000000E+02;  0.0000000E+00;  1.0000179E+02;  1.1847640E-03;  0.0000000E+00; -1.5506293E-05;  0.0000000E+00;
  3.9923257E-01;  9.9999998E-03;  5.9995604E-01;195; -4.0513114E-05;  0.0000000E+00; -4.3549480E-05;  9.9966688E+00;  4.0026426E-01; -3.5841915E-01;3; -4.9152564E-02;  0.0000000E+00;  5.6023106E-02;  0.0000000E+00;  0.0000000E+00;  0.0000000E+00;0;  1.1221180E-03;  9.9799202E+01;  0.0000000E+00; -9.8302215E-04;  1.0000000E+02;  0.0000000E+00;  1.0000253E+02;  1.1337389E-03;  0.0000000E+00; -1.1620879E-05;  0.0000000E+00;
  3.9929134E-01;  9.9999998E-03;  7.9993027E-01;196; -5.7982998E-05;  0.0000000E+00; -6.5447479E-05;  9.9968634E+00;  4.0027314E-01; -3.3744884E-01;3; -4.5365717E-02;  0.0000000E+00;  8.4697805E-02;  0.0000000E+00;  0.0000000E+00;  0.0000000E+00;0;  1.0377964E-03;  9.9800636E+01;  0.0000000E+00; -1.3614034E-03;  1.0000000E+02;  0.0000000E+00;  9.9999763E+01;  1.0434811E-03;  0.0000000E+00; -5.6846839E-06;  0.0000000E+00;
  3.9939007E-01;  9.9999998E-03;  9.9992979E-01;197; -6.2337684E-05;  0.0000000E+00; -8.1114340E-05;  9.9973001E+00;  4.0024689E-01; -2.9050612E-01;3; -4.0516656E-02;  0.0000000E+00;  1.0742560E-01;  0.0000000E+00;  0.0000000E+00;  0.0000000E+00;0;  9.0122607E-04;  9.9821541E+01;  0.0000000E+00; -1.1587280E-03;  1.0000000E+02;  0.0000000E+00;  1.0000108E+02;  9.0179691E-04;  0.0000000E+00; -5.7086800E-07;  0.0000000E+00;
  5.9907484E-01;  9.9999998E-03;  1.4039374E-10;203;  1.0673125E-05;  0.0000000E+00; -8.3381152E-10;  9.9952307E+00;  4.0061048E-01; -5.1314199E-01;3; -2.7633402E-02;  0.0000000E+00; -1.4763604E-07;  0.0000000E+00;  0.0000000E+00;  0.0000000E+00;0;  2.0476296E-03;  9.9599869E+01;  0.0000000E+00; -1.1499643E-15;  1.0000000E+02;  0.0000000E+00;  9.9999451E+01;  2.0516906E-03;  0.0000000E+00; -4.0611280E-06;  0.0000000E+00;
  5.9908432E-01;  9.9999998E-03;  1.9998232E-01;204;  3.7092166E-06;  0.0000000E+00; -1.2472176E-05;  9.9952354E+00;  4.0062729E-01; -5.1262897E-01;3; -2.7050152E-02;  0.0000000E+00;  1.4694552E-02;  0.0000000E+00;  0.0000000E+00;  0.0000000E+00;0;  2.0418640E-03;  9.9591148E+01;  0.0000000E+00; -2.6211567E-04;  1.0000000E+02;  0.0000000E+00;  9.9999718E+01;  2.0470575E-03;  0.0000000E+00; -5.1934858E-06;  0.0000000E+00;
  5.9911716E-01;  9.9999998E-03;  3.9996186E-01;205; -1.7896136E-05;  0.0000000E+00; -2.7867005E-05;  9.9952154E+00;  4.0066633E-01; -5.1474518E-01;3; -2.6083395E-02;  0.0000000E+00;  3.5155166E-02;  0.0000000E+00;  0.0000000E+00;  0.0000000E+00;0;  2.0201344E-03;  9.9571877E+01;  0.0000000E+00; -1.0579014E-03;  1.0000000E+02;  0.0000000E+00;  1.0000114E+02;  2.0279095E-03;  0.0000000E+00; -7.7751429E-06;  0.0000000E+00;
  5.9917879E-01;  9.9999998E-03;  5.9993529E-01;206; -4.7783982E-05;  0.0000000E+00; -5.3083390E-05;  9.9953241E+00;  4.0069205E-01; -5.0307411E-01;3; -2.5386838E-02;  0.0000000E+00;  6.5739937E-02;  0.0000000E+00;  0.0000000E+00;  0.0000000E+00;0;  1.9679929E-03;  9.9558830E+01;  0.0000000E+00; -1.8387351E-03;  1.0000000E+02;  0.0000000E+00;  1.0000193E+02;  1.9783829E-03;  0.0000000E+00; -1.0390117E-05;  0.0000000E+00;
  5.9927487E-01;  9.9999998E-03;  7.9990464E-01;207; -7.2136492E-05;  0.0000000E+00; -8.8916495E-05;  9.9955463E+00;  4.0068299E-01; -4.7915483E-01;3; -2.4783738E-02;  0.0000000E+00;  1.0313854E-01;  0.0000000E+00;  0.0000000E+00;  0.0000000E+00;0;  1.8566097E-03;  9.9569054E+01;  0.0000000E+00; -1.3309970E-03;  1.0000000E+02;  0.0000000E+00;  1.0000243E+02;  1.8699572E-03;  0.0000000E+00; -1.3347428E-05;  0.0000000E+00;
  5.9947276E-01;  9.9999998E-03;  9.9992079E-01;208; -3.6490204E-05;  0.0000000E+00; -1.2234742E-04;  9.9960442E+00;  4.0061852E-01; -4.2560899E-01;3; -2.2544576E-02;  0.0000000E+00;  1.3156161E-01;  0.0000000E+00;  0.0000000E+00;  0.0000000E+00;0;  1.6540267E-03;  9.9610031E+01;  0.0000000E+00;  8.6784491E-04;  1.0000000E+02;  0.0000000E+00;  1.0000339E+02;  1.6732061E-03;  0.0000000E+00; -1.9179424E-05;  0.0000000E+00;
  7.9904306E-01;  9.9999998E-03;  1.4194852E-10;214;  1.0999374E-04;  0.0000000E+00; -5.6728683E-10;  9.9942865E+00;  4.0116796E-01; -6.1466175E-01;3; -1.2263929E-02;  0.0000000E+00; -1.7497150E-07;  0.0000000E+00;  0.0000000E+00;  0.0000000E+00;0;  3.0405980E-03;  9.9307495E+01;  0.0000000E+00;  1.9602529E-16;  1.0000000E+02;  0.0000000E+00;  9.9997322E+01;  3.0248840E-03;  0.0000000E+00;  1.5713897E-05;  0.0000000E+00;
  7.9904842E-01;  9.9999998E-03;  1.9998462E-01;215;  3.2069038E-05;  0.0000000E+00; -4.8003540E-06;  9.9942732E+00;  4.0119091E-01; -6.1607242E-01;3; -1.2002289E-02;  0.0000000E+00;  1.4197022E-02;  0.0000000E+00;  0.0000000E+00;  0.0000000E+00;0;  3.0447836E-03;  9.9295464E+01;  0.0000000E+00; -5.3817139E-04;  1.0000000E+02;  0.0000000E+00;  9.9997437E+01;  3.0315416E-03;  0.0000000E+00;  1.3242006E-05;  0.0000000E+00;
  7.9910356E-01;  9.9999998E-03;  3.9996845E-01;216; -1.3877562E-05;  0.0000000E+00; -1.0387044E-05;  9.9942360E+00;  4.0124249E-01; -6.2004787E-01;3; -1.1241515E-02;  0.0000000E+00;  3.4592316E-02;  0.0000000E+00;  0.0000000E+00;  0.0000000E+00;0;  3.0467070E-03;  9.9269180E+01;  0.0000000E+00; -1.8505722E-03;  1.0000000E+02;  0.0000000E+00;  9.9997360E+01;  3.0397982E-03;  0.0000000E+00;  6.9087441E-06;  0.0000000E+00;
  7.9923236E-01;  9.9999998E-03;  5.9995782E-01;217; -5.9217273E-05;  0.0000000E+00; -2.9719671E-05;  9.9942551E+00;  4.0127847E-01; -6.1799592E-01;3; -1.0879982E-02;  0.0000000E+00;  6.5922707E-02;  0.0000000E+00;  0.0000000E+00;  0.0000000E+00;0;  3.0174174E-03;  9.9250397E+01;  0.0000000E+00; -2.0200645E-03;  1.0000000E+02;  0.0000000E+00;  9.9997978E+01;  3.0195045E-03;  0.0000000E+00; -2.0872003E-06;  0.0000000E+00;
  7.9943287E-01;  9.9999998E-03;  7.9996347E-01;218; -8.1996383E-05;  0.0000000E+00; -5.5587960E-05;  9.9944715E+00;  4.0126157E-01; -5.9472007E-01;3; -2.5041050E-03;  0.0000000E+00;  1.0044868E-01;  0.0000000E+00;  0.0000000E+00;  0.0000000E+00;0;  2.9092138E-03;  9.9260475E+01;  0.0000000E+00;  2.0541465E-03;  1.0000000E+02;  0.0000000E+00;  1.0000060E+02;  2.9236441E-03;  0.0000000E+00; -1.4430465E-05;  0.0000000E+00;
  7.9996794E-01;  9.9999998E-03;  9.9999332E-01;219;  4.0399047E-04;  0.0000000E+00; -4.0972911E-05;  9.9946451E+00;  4.0120336E-01; -5.7606071E-01;3;  3.1606182E-02;  0.0000000E+00;  1.1917869E-01;  0.0000000E+00;  0.0000000E+00;  0.0000000E+00;0;  2.8278097E-03;  9.9293938E+01;  0.0000000E+00;  9.0274187E-03;  1.0000000E+02;  0.0000000E+00;  1.0000100E+02;  2.8468007E-03;  0.0000000E+00; -1.8991157E-05;  0.0000000E+00;
  9.9956352E-01;  9.9999998E-03;  4.5445912E-13;225;  1.8348097E-03;  0.0000000E+00; -6.1594757E-10;  9.9937563E+00;  4.0188503E-01; -6.7152631E-01;3; -2.6201727E-03;  0.0000000E+00; -2.2950448E-07;  0.0000000E+00;  0.0000000E+00;  0.0000000E+00;0;  4.1229706E-03;  9.8945366E+01;  0.0000000E+00;  1.3735871E-15;  1.0000000E+02;  0.0000000E+00;  9.9994095E+01;  4.0880446E-03;  0.0000000E+00;  3.4926168E-05;  0.0000000E+00;
  9.9980164E-01;  9.9999998E-03;  2.0005488E-01;226;  1.7182883E-03;  0.0000000E+00;  2.6658863E-05;  9.9936886E+00;  4.0191504E-01; -6.7883426E-01;3; -4.8141805E-03;  0.0000000E+00;  1.1795684E-02;  0.0000000E+00;  0.0000000E+00;  0.0000000E+00;0;  4.1662189E-03;  9.8930527E+01;  0.0000000E+00; -8.9393801E-04;  1.0000000E+02;  0.0000000E+00;  9.9992874E+01;  4.1327137E-03;  0.0000000E+00;  3.3505177E-05;  0.0000000E+00;
  1.0009983E+00;  9.9999998E-03;  4.0008959E-01;227;  1.1345481E-03;  0.0000000E+00;  1.0824845E-04;  9.9934778E+00;  4.0200901E-01; -7.0146292E-01;3; -8.3969682E-03;  0.0000000E+00;  2.8953625E-02;  0.0000000E+00;  0.0000000E+00;  0.0000000E+00;0;  4.2626555E-03;  9.8884247E+01;  0.0000000E+00; -3.5588448E-03;  1.0000000E+02;  0.0000000E+00;  9.9990875E+01;  4.2240298E-03;  0.0000000E+00;  3.8625698E-05;  0.0000000E+00;
  1.0012239E+00;  9.9999998E-03;  6.0010248E-01;228; -6.0847211E-05;  0.0000000E+00;  3.6164106E-06;  9.9935608E+00;  4.0211406E-01; -6.9255179E-01;3; -1.0698895E-02;  0.0000000E+00;  5.1155124E-02;  0.0000000E+00;  0.0000000E+00;  0.0000000E+00;0;  4.2017694E-03;  9.8836380E+01;  0.0000000E+00; -4.5518703E-03;  1.0000000E+02;  0.0000000E+00;  9.9987175E+01;  4.1853981E-03;  0.0000000E+00;  1.6371270E-05;  0.0000000E+00;
  1.0006425E+00;  9.9999998E-03;  8.0006987E-01;229;  3.5936749E-04;  0.0000000E+00;  1.2915235E-04;  9.9935741E+00;  4.0209302E-01; -6.9114202E-01;3;  1.6783234E-02;  0.0000000E+00;  6.9391310E-02;  0.0000000E+00;  0.0000000E+00;  0.0000000E+00;0;  4.2555039E-03;  9.8844887E+01;  0.0000000E+00;  6.1200182E-03;  1.0000000E+02;  0.0000000E+00;  9.9990173E+01;  4.2036399E-03;  0.0000000E+00;  5.1863877E-05;  0.0000000E+00;
  1.0029898E+00;  9.9999998E-03;  1.0001631E+00;230;  3.4584289E-03;  0.0000000E+00;  1.7800582E-04;  9.9916992E+00;  4.0235040E-01; -8.9275670E-01;3; -1.5685309E-02;  0.0000000E+00;  6.9424421E-02;  0.0000000E+00;  0.0000000E+00;  0.0000000E+00;0;  5.4638642E-03;  9.8687790E+01;  0.0000000E+00;  2.2592486E-03;  1.0000000E+02;  0.0000000E+00;  9.9985161E+01;  5.3870655E-03;  0.0000000E+00;  7.6798911E-05;  0.0000000E+00;
  1.2012341E+00;  9.9999998E-03; -1.5687729E-10;236;  3.6868737E-03;  0.0000000E+00; -1.8230752E-09;  9.9933329E+00;  4.0284204E-01; -7.1677452E-01;3;  5.0566864E-04;  0.0000000E+00; -1.6159176E-07;  0.0000000E+00;  0.0000000E+00;  0.0000000E+00;0;  5.4007750E-03;  9.8469917E+01;  0.0000000E+00;  5.7238040E-16;  1.0000000E+02;  0.0000000E+00;  9.9992027E+01;  5.3556371E-03;  0.0000000E+00;  4.5137873E-05;  0.0000000E+00;
  1.2019559E+00;  9.9999998E-03;  2.0006692E-01;237;  3.7001332E-03;  0.0000000E+00;  1.1279816E-04;  9.9932299E+00;  4.0287650E-01; -7.2779417E-01;3; -1.1901487E-05;  0.0000000E+00;  8.7124659E-03;  0.0000000E+00;  0.0000000E+00;  0.0000000E+00;0;  5.4894672E-03;  9.8453873E+01;  0.0000000E+00; -1.3151423E-03;  1.0000000E+02;  0.0000000E+00;  9.9988808E+01;  5.4368498E-03;  0.0000000E+00;  5.2617328E-05;  0.0000000E+00;
  1.2030658E+00;  9.9999998E-03;  4.0015724E-01;238;  3.2458918E-03;  0.0000000E+00;  1.4326685E-04;  9.9930019E+00;  4.0298241E-01; -7.5233310E-01;3; -4.4056736E-03;  0.0000000E+00;  1.7920543E-02;  0.0000000E+00;  0.0000000E+00;  0.0000000E+00;0;  5.6963111E-03;  9.8405930E+01;  0.0000000E+00; -5.6146150E-03;  1.0000000E+02;  0.0000000E+00;  9.9980011E+01;  5.6280158E-03;  0.0000000E+00;  6.8295107E-05;  0.0000000E+00;
  1.2029985E+00;  9.9999998E-03;  6.0008913E-01;239;  1.2179567E-03;  0.0000000E+00;  4.3613963E-06;  9.9930019E+00;  4.0309238E-01; -7.5233334E-01;3; -1.2923857E-02;  0.0000000E+00;  3.3146378E-02;  0.0000000E+00;  0.0000000E+00;  0.0000000E+00;0;  5.6705177E-03;  9.8355591E+01;  0.0000000E+00; -7.9271095E-03;  1.0000000E+02;  0.0000000E+00;  9.9977646E+01;  5.6347051E-03;  0.0000000E+00;  3.5812547E-05;  0.0000000E+00;
  1.2029881E+00;  9.9999998E-03;  8.0009335E-01;240;  3.1163490E-03;  0.0000000E+00;  1.4192142E-04;  9.9923677E+00;  4.0313634E-01; -8.2051176E-01;3; -4.3733083E-03;  0.0000000E+00;  3.3468667E-02;  0.0000000E+00;  0.0000000E+00;  0.0000000E+00;0;  6.2311683E-03;  9.8320641E+01;  0.0000000E+00;  8.9590449E-04;  1.0000000E+02;  0.0000000E+00;  9.9978233E+01;  6.1306381E-03;  0.0000000E+00;  1.0053038E-04;  0.0000000E+00;
  1.2046392E+00;  9.9999998E-03;  1.0001773E+00;241;  4.3393401E-03;  0.0000000E+00;  1.1030502E-04;  9.9915152E+00;  4.0339679E-01; -9.1213745E-01;3; -4.4424530E-02;  0.0000000E+00;  2.9583691E-02;  0.0000000E+00;  0.0000000E+00;  0.0000000E+00;0;  6.9277799E-03;  9.8182838E+01;  0.0000000E+00; -1.6003527E-03;  1.0000000E+02;  0.0000000E+00;  9.9973526E+01;  6.8579069E-03;  0.0000000E+00;  6.9873109E-05;  0.0000000E+00;
  1.4023508E+00;  9.9999998E-03;  7.8617174E-10;247;  3.6636146E-03;  0.0000000E+00; -4.4782391E-09;  9.9927435E+00;  4.0417439E-01; -7.7928376E-01;3;  1.4917812E-03;  0.0000000E+00;  4.5964725E-08;  0.0000000E+00;  0.0000000E+00;  0.0000000E+00;0;  7.1970653E-03;  9.7815033E+01;  0.0000000E+00;  2.2663815E-15;  1.0000000E+02;  0.0000000E+00;  9.9986786E+01;  7.1519352E-03;  0.0000000E+00;  4.5130226E-05;  0.0000000E+00;
  1.4028435E+00;  9.9999998E-03;  2.0003363E-01;248;  3.8057435E-03;  0.0000000E+00;  1.7495154E-04;  9.9926825E+00;  4.0418968E-01; -7.8587413E-01;3;  1.3457431E-03;  0.0000000E+00;  5.7448149E-03;  0.0000000E+00;  0.0000000E+00;  0.0000000E+00;0;  7.2751213E-03;  9.7809799E+01;  0.0000000E+00; -1.1893853E-03;  1.0000000E+02;  0.0000000E+00;  9.9982605E+01;  7.2080642E-03;  0.0000000E+00;  6.7056884E-05;  0.0000000E+00;
  1.4039143E+00;  9.9999998E-03;  4.0009764E-01;249;  3.9808145E-03;  0.0000000E+00;  1.3746534E-04;  9.9925117E+00;  4.0424755E-01; -8.0417526E-01;3; -1.2363129E-03;  0.0000000E+00;  1.0370981E-02;  0.0000000E+00;  0.0000000E+00;  0.0000000E+00;0;  7.4497843E-03;  9.7791695E+01;  0.0000000E+00; -5.1515233E-03;  1.0000000E+02;  0.0000000E+00;  9.9969826E+01;  7.3542180E-03;  0.0000000E+00;  9.5566043E-05;  0.0000000E+00;
  1.4044333E+00;  9.9999998E-03;  6.0002756E-01;250;  3.2636691E-03;  0.0000000E+00;  4.4815479E-05;  9.9924583E+00;  4.0429282E-01; -8.0993307E-01;3; -8.4372777E-03;  0.0000000E+00;  1.8557452E-02;  0.0000000E+00;  0.0000000E+00;  0.0000000E+00;0;  7.5291279E-03;  9.7771004E+01;  0.0000000E+00; -8.4356144E-03;  1.0000000E+02;  0.0000000E+00;  9.9967392E+01;  7.4401856E-03;  0.0000000E+00;  8.8942012E-05;  0.0000000E+00;
  1.4046744E+00;  9.9999998E-03;  8.0006713E-01;251;  4.2102290E-03;  0.0000000E+00;  6.6524284E-05;  9.9922256E+00;  4.0429342E-01; -8.3489597E-01;3; -1.0215744E-02;  0.0000000E+00;  1.7073411E-02;  0.0000000E+00;  0.0000000E+00;  0.0000000E+00;0;  7.7728764E-03;  9.7766907E+01;  0.0000000E+00; -7.9914916E-04;  1.0000000E+02;  0.0000000E+00;  9.9967354E+01;  7.6740677E-03;  0.0000000E+00;  9.8808800E-05;  0.0000000E+00;
  1.4061861E+00;  9.9999998E-03;  1.0001678E+00;252;  5.1490674E-03;  0.0000000E+00;  8.3540079E-05;  9.9918709E+00;  4.0441445E-01; -8.7297273E-01;3; -4.0767688E-02;  0.0000000E+00;  1.5262058E-02;  0.0000000E+00;  0.0000000E+00;  0.0000000E+00;0;  8.1277722E-03;  9.7703972E+01;  0.0000000E+00; -2.3706877E-03;  1.0000000E+02;  0.0000000E+00;  9.9965767E+01;  8.0495048E-03;  0.0000000E+00;  7.8267374E-05;  0.0000000E+00;
  1.6031426E+00;  9.9999998E-03; -1.4954404E-10;258;  3.6255454E-03;  0.0000000E+00; -5.7623510E-09;  9.9918203E+00;  4.0599734E-01; -8.7646616E-01;3;  1.6115585E-03;  0.0000000E+00;  1.9565626E-07;  0.0000000E+00;  0.0000000E+00;  0.0000000E+00;0;  9.8409522E-03;  9.6937134E+01;  0.0000000E+00;  7.9257991E-15;  1.0000000E+02;  0.0000000E+00;  9.9969559E+01;  9.7857006E-03;  0.0000000E+00;  5.5251818E-05;  0.0000000E+00;
  1.6034894E+00;  9.9999998E-03;  1.9990405E-01;259;  3.7680073E-03;  0.0000000E+00; -1.9770912E-06;  9.9918346E+00;  4.0598065E-01; -8.7492841E-01;3;  1.5065063E-03;  0.0000000E+00;  2.9169102E-03;  0.0000000E+00;  0.0000000E+00;  0.0000000E+00;0;  9.8428503E-03;  9.6948898E+01;  0.0000000E+00; -6.5658992E-04;  1.0000000E+02;  0.0000000E+00;  9.9966042E+01;  9.7742481E-03;  0.0000000E+00;  6.8602450E-05;  0.0000000E+00;
  1.6045399E+00;  9.9999998E-03;  3.9990175E-01;260;  4.0727919E-03;  0.0000000E+00; -6.4906694E-06;  9.9918652E+00;  4.0593594E-01; -8.7165636E-01;3; -3.0576676E-04;  0.0000000E+00;  5.8666551E-03;  0.0000000E+00;  0.0000000E+00;  0.0000000E+00;0;  9.8346202E-03;  9.6979881E+01;  0.0000000E+00; -2.7573355E-03;  1.0000000E+02;  0.0000000E+00;  9.9956253E+01;  9.7342003E-03;  0.0000000E+00;  1.0041975E-04;  0.0000000E+00;
  1.6057318E+00;  9.9999998E-03;  5.9990531E-01;261;  4.3194219E-03;  0.0000000E+00; -4.3650645E-05;  9.9919653E+00;  4.0584907E-01; -8.6091006E-01;3; -2.6964534E-03;  0.0000000E+00;  1.0405738E-02;  0.0000000E+00;  0.0000000E+00;  0.0000000E+00;0;  9.7274370E-03;  9.7024307E+01;  0.0000000E+00; -4.6107951E-03;  1.0000000E+02;  0.0000000E+00;  9.9955399E+01;  9.6287820E-03;  0.0000000E+00;  9.8654979E-05;  0.0000000E+00;
  1.6067536E+00;  9.9999998E-03;  8.0005008E-01;262;  5.5901879E-03;  0.0000000E+00;  1.6953574E-05;  9.9920120E+00;  4.0573153E-01; -8.5591429E-01;3; -8.4568113E-03;  0.0000000E+00;  9.7721834E-03;  0.0000000E+00;  0.0000000E+00;  0.0000000E+00;0;  9.6797328E-03;  9.7083824E+01;  0.0000000E+00; -1.3301169E-03;  1.0000000E+02;  0.0000000E+00;  9.9953522E+01;  9.5718605E-03;  0.0000000E+00;  1.0787241E-04;  0.0000000E+00;
  1.6082472E+00;  9.9999998E-03;  1.0002085E+00;263;  6.3875518E-03;  0.0000000E+00;  8.4890635E-05;  9.9920864E+00;  4.0563914E-01; -8.4791052E-01;3; -2.5582785E-02;  0.0000000E+00;  1.0194224E-02;  0.0000000E+00;  0.0000000E+00;  0.0000000E+00;0;  9.6122790E-03;  9.7129478E+01;  0.0000000E+00; -2.8142335E-03;  1.0000000E+02;  0.0000000E+00;  9.9955482E+01;  9.5106410E-03;  0.0000000E+00;  1.0163810E-04;  0.0000000E+00;
  1.8042654E+00;  9.9999998E-03; -8.2376894E-10;269;  3.7891928E-03;  0.0000000E+00; -6.4878694E-09;  9.9908323E+00;  4.0827662E-01; -9.7761524E-01;3;  1.0958853E-03;  0.0000000E+00;  3.3111868E-07;  0.0000000E+00;  0.0000000E+00;  0.0000000E+00;0;  1.3296180E-02;  9.5884514E+01;  0.0000000E+00;  1.9123868E-14;  1.0000000E+02;  0.0000000E+00;  9.9921394E+01;  1.3170606E-02;  0.0000000E+00;  1.2557482E-04;  0.0000000E+00;
  1.8045818E+00;  9.9999998E-03;  1.9981089E-01;270;  3.9500776E-03;  0.0000000E+00; -1.0224230E-04;  9.9909010E+00;  4.0821901E-01; -9.7029543E-01;3;  8.1012608E-04;  0.0000000E+00;  8.9784624E-04;  0.0000000E+00;  0.0000000E+00;  0.0000000E+00;0;  1.3204438E-02;  9.5915428E+01;  0.0000000E+00; -1.8646018E-04;  1.0000000E+02;  0.0000000E+00;  9.9919785E+01;  1.3068769E-02;  0.0000000E+00;  1.3566822E-04;  0.0000000E+00;
  1.8059245E+00;  9.9999998E-03;  3.9967543E-01;271;  4.8765414E-03;  0.0000000E+00; -1.6606346E-04;  9.9910994E+00;  4.0804440E-01; -9.4908649E-01;3;  2.8894862E-04;  0.0000000E+00;  2.5557310E-03;  0.0000000E+00;  0.0000000E+00;  0.0000000E+00;0;  1.2942652E-02;  9.5999542E+01;  0.0000000E+00; -7.4438093E-04;  1.0000000E+02;  0.0000000E+00;  9.9921349E+01;  1.2795033E-02;  0.0000000E+00;  1.4761899E-04;  0.0000000E+00;
  1.8083439E+00;  9.9999998E-03;  5.9982163E-01;272;  5.9775477E-03;  0.0000000E+00; -8.1204023E-05;  9.9913788E+00;  4.0780649E-01; -9.1920197E-01;3; -8.6706912E-04;  0.0000000E+00;  5.0129239E-03;  0.0000000E+00;  0.0000000E+00;  0.0000000E+00;0;  1.2569773E-02;  9.6113991E+01;  0.0000000E+00; -2.1250898E-03;  1.0000000E+02;  0.0000000E+00;  9.9923828E+01;  1.2392920E-02;  0.0000000E+00;  1.7685277E-04;  0.0000000E+00;
  1.8097950E+00;  9.9999998E-03;  8.0010146E-01;273;  7.7142678E-03;  0.0000000E+00;  2.1496669E-05;  9.9916849E+00;  4.0751821E-01; -8.8649207E-01;3; -3.8881954E-03;  0.0000000E+00;  6.0610371E-03;  0.0000000E+00;  0.0000000E+00;  0.0000000E+00;0;  1.2119186E-02;  9.6255920E+01;  0.0000000E+00; -2.0580520E-03;  1.0000000E+02;  0.0000000E+00;  9.9924088E+01;  1.1945357E-02;  0.0000000E+00;  1.7382939E-04;  0.0000000E+00;
  1.8111420E+00;  9.9999998E-03;  1.0003701E+00;274;  8.2264449E-03;  0.0000000E+00;  1.4427307E-04;  9.9920902E+00;  4.0720248E-01; -8.4323990E-01;3; -9.1030095E-03;  0.0000000E+00;  6.6282060E-03;  0.0000000E+00;  0.0000000E+00;  0.0000000E+00;0;  1.1588602E-02;  9.6410309E+01;  0.0000000E+00; -3.2131784E-03;  1.0000000E+02;  0.0000000E+00;  9.9927696E+01;  1.1420743E-02;  0.0000000E+00;  1.6786015E-04;  0.0000000E+00;
  2.0075347E+00;  9.9999998E-03; -1.3406719E-09;280;  5.1261676E-03;  0.0000000E+00; -1.1447376E-08;  9.9901171E+00;  4.1075817E-01; -1.0432863E+00;3;  5.9705292E-04;  0.0000000E+00;  3.5507128E-07;  0.0000000E+00;  0.0000000E+00;  0.0000000E+00;0;  1.7115856E-02;  9.4811234E+01;  0.0000000E+00;  1.4861695E-14;  1.0000000E+02;  0.0000000E+00;  9.9822319E+01;  1.6787518E-02;  0.0000000E+00;  3.2833693E-04;  0.0000000E+00;
  2.0079110E+00;  9.9999998E-03;  1.9974400E-01;281;  5.4850802E-03;  0.0000000E+00; -1.9400910E-04;  9.9902306E+00;  4.1065973E-01; -1.0312419E+00;3;  4.4038627E-04;  0.0000000E+00;  5.2913711E-05;  0.0000000E+00;  0.0000000E+00;  0.0000000E+00;0;  1.6925136E-02;  9.4859016E+01;  0.0000000E+00; -3.7515543E-05;  1.0000000E+02;  0.0000000E+00;  9.9822113E+01;  1.6593527E-02;  0.0000000E+00;  3.3160869E-04;  0.0000000E+00;
  2.0096030E+00;  9.9999998E-03;  3.9951441E-01;282;  6.5502059E-03;  0.0000000E+00; -3.4694883E-04;  9.9905663E+00;  4.1035497E-01; -9.9570239E-01;3;  7.1393303E-04;  0.0000000E+00;  5.5138220E-04;  0.0000000E+00;  0.0000000E+00;  0.0000000E+00;0;  1.6358510E-02;  9.4989288E+01;  0.0000000E+00; -1.6604159E-04;  1.0000000E+02;  0.0000000E+00;  9.9839134E+01;  1.6062997E-02;  0.0000000E+00;  2.9551212E-04;  0.0000000E+00;
  2.0142174E+00;  9.9999998E-03;  5.9978473E-01;283;  1.1015474E-02;  0.0000000E+00; -1.3194363E-04;  9.9909811E+00;  4.0995485E-01; -9.5161033E-01;3;  2.2738411E-03;  0.0000000E+00;  2.1174110E-03;  0.0000000E+00;  0.0000000E+00;  0.0000000E+00;0;  1.5690593E-02;  9.5164879E+01;  0.0000000E+00; -1.9672662E-03;  1.0000000E+02;  0.0000000E+00;  9.9860001E+01;  1.5373836E-02;  0.0000000E+00;  3.1675654E-04;  0.0000000E+00;
  2.0166113E+00;  9.9999998E-03;  8.0030543E-01;284;  1.1048612E-02;  0.0000000E+00;  7.6434968E-05;  9.9914942E+00;  4.0955272E-01; -8.9730960E-01;3;  8.0853511E-05;  0.0000000E+00;  3.4777944E-03;  0.0000000E+00;  0.0000000E+00;  0.0000000E+00;0;  1.4818723E-02;  9.5358635E+01;  0.0000000E+00; -7.7712080E-03;  1.0000000E+02;  0.0000000E+00;  9.9860382E+01;  1.4523421E-02;  0.0000000E+00;  2.9530190E-04;  0.0000000E+00;
  2.0151532E+00;  9.9999998E-03;  1.0007532E+00;285;  1.1175301E-02;  0.0000000E+00;  2.8831905E-04;  9.9920053E+00;  4.0906695E-01; -8.4350741E-01;3;  1.6189420E-03;  0.0000000E+00;  3.2240509E-03;  0.0000000E+00;  0.0000000E+00;  0.0000000E+00;0;  1.3932121E-02;  9.5594315E+01;  0.0000000E+00; -3.4616217E-03;  1.0000000E+02;  0.0000000E+00;  9.9862892E+01;  1.3648557E-02;  0.0000000E+00;  2.8356485E-04;  0.0000000E+00;
  2.2194860E+00;  9.9999998E-03;  1.1035666E-09;291;  1.2793721E-02;  0.0000000E+00; -1.9248395E-08;  9.9899902E+00;  4.1305563E-01; -1.0355629E+00;3; -2.9399605E-03;  0.0000000E+00; -1.3179093E-07;  0.0000000E+00;  0.0000000E+00;  0.0000000E+00;0;  2.0596590E-02;  9.3919128E+01;  0.0000000E+00;  2.7746347E-15;  1.0000000E+02;  0.0000000E+00;  9.9649239E+01;  1.9838026E-02;  0.0000000E+00;  7.5856445E-04;  0.0000000E+00;
  2.2195427E+00;  9.9999998E-03;  1.9974849E-01;292;  1.3028068E-02;  0.0000000E+00; -2.1600100E-04;  9.9901199E+00;  4.1293198E-01; -1.0221132E+00;3; -2.2337073E-03;  0.0000000E+00; -4.6742578E-05;  0.0000000E+00;  0.0000000E+00;  0.0000000E+00;0;  2.0331277E-02;  9.3974953E+01;  0.0000000E+00;  2.9319422E-06;  1.0000000E+02;  0.0000000E+00;  9.9651825E+01;  1.9576259E-02;  0.0000000E+00;  7.5501692E-04;  0.0000000E+00;
  2.2197592E+00;  9.9999998E-03;  3.9954698E-01;293;  1.3648664E-02;  0.0000000E+00; -3.8053261E-04;  9.9905024E+00;  4.1254973E-01; -9.8249948E-01;3; -3.8709541E-04;  0.0000000E+00;  1.8124472E-05;  0.0000000E+00;  0.0000000E+00;  0.0000000E+00;0;  1.9536935E-02;  9.4128098E+01;  0.0000000E+00; -7.5159747E-05;  1.0000000E+02;  0.0000000E+00;  9.9683006E+01;  1.8859979E-02;  0.0000000E+00;  6.7695661E-04;  0.0000000E+00;
  2.2203975E+00;  9.9999998E-03;  6.0006034E-01;294;  1.4392626E-02;  0.0000000E+00; -6.7638488E-05;  9.9909983E+00;  4.1203311E-01; -9.3112373E-01;3;  1.5952218E-03;  0.0000000E+00;  3.1850077E-04;  0.0000000E+00;  0.0000000E+00;  0.0000000E+00;0;  1.8509155E-02;  9.4341095E+01;  0.0000000E+00; -5.1473873E-04;  1.0000000E+02;  0.0000000E+00;  9.9715851E+01;  1.7870616E-02;  0.0000000E+00;  6.3853984E-04;  0.0000000E+00;
  2.2216802E+00;  9.9999998E-03;  8.0084497E-01;295;  1.5251595E-02;  0.0000000E+00;  2.9682243E-04;  9.9915104E+00;  4.1155663E-01; -8.7802070E-01;3;  2.5768431E-03;  0.0000000E+00;  6.4154970E-04;  0.0000000E+00;  0.0000000E+00;  0.0000000E+00;0;  1.7440584E-02;  9.4567497E+01;  0.0000000E+00; -2.0946355E-03;  1.0000000E+02;  0.0000000E+00;  9.9718971E+01;  1.6837845E-02;  0.0000000E+00;  6.0273975E-04;  0.0000000E+00;
  2.2230020E+00;  9.9999998E-03;  1.0015095E+00;296;  1.4912914E-02;  0.0000000E+00;  6.2944571E-04;  9.9919710E+00;  4.1111642E-01; -8.3023071E-01;3;  6.1867436E-06;  0.0000000E+00;  8.3912123E-04;  0.0000000E+00;  0.0000000E+00;  0.0000000E+00;0;  1.6480787E-02;  9.4774323E+01;  0.0000000E+00; -5.6841979E-03;  1.0000000E+02;  0.0000000E+00;  9.9722855E+01;  1.5905377E-02;  0.0000000E+00;  5.7541032E-04;  0.0000000E+00;
  2.4335549E+00;  9.9999998E-03; -1.1560908E-08;302;  2.4519293E-02;  0.0000000E+00;  4.7092095E-09;  9.9904661E+00;  4.1493264E-01; -9.5427448E-01;3;  1.9028940E-03;  0.0000000E+00;  4.7948123E-07;  0.0000000E+00;  0.0000000E+00;  0.0000000E+00;0;  2.3027673E-02;  9.3321320E+01;  0.0000000E+00; -2.5104526E-15;  1.0000000E+02;  0.0000000E+00;  9.9391052E+01;  2.1550965E-02;  0.0000000E+00;  1.4767095E-03;  0.0000000E+00;
  2.4326146E+00;  9.9999998E-03;  1.9987556E-01;303;  2.3625402E-02;  0.0000000E+00; -1.7755515E-04;  9.9905577E+00;  4.1482708E-01; -9.4530571E-01;3;  1.6889523E-03;  0.0000000E+00; -2.8469032E-04;  0.0000000E+00;  0.0000000E+00;  0.0000000E+00;0;  2.2791319E-02;  9.3364349E+01;  0.0000000E+00;  4.0196119E-06;  1.0000000E+02;  0.0000000E+00;  9.9397507E+01;  2.1333892E-02;  0.0000000E+00;  1.4574272E-03;  0.0000000E+00;
  2.4301476E+00;  9.9999998E-03;  3.9988142E-01;304;  2.1298124E-02;  0.0000000E+00; -2.3236549E-04;  9.9908257E+00;  4.1449225E-01; -9.1885954E-01;3;  2.0931587E-03;  0.0000000E+00; -2.5800255E-04;  0.0000000E+00;  0.0000000E+00;  0.0000000E+00;0;  2.2080623E-02;  9.3481659E+01;  0.0000000E+00;  1.9233012E-05;  1.0000000E+02;  0.0000000E+00;  9.9440117E+01;  2.0741807E-02;  0.0000000E+00;  1.3388155E-03;  0.0000000E+00;
  2.4269526E+00;  9.9999998E-03;  6.0083073E-01;305;  1.8019913E-02;  0.0000000E+00;  1.9518047E-04;  9.9911938E+00;  4.1409948E-01; -8.8247007E-01;3;  1.1370399E-03;  0.0000000E+00;  7.0751284E-04;  0.0000000E+00;  0.0000000E+00;  0.0000000E+00;0;  2.1143697E-02;  9.3644516E+01;  0.0000000E+00; -7.6767537E-06;  1.0000000E+02;  0.0000000E+00;  9.9462883E+01;  1.9926606E-02;  0.0000000E+00;  1.2170910E-03;  0.0000000E+00;
  2.4245739E+00;  9.9999998E-03;  8.0187130E-01;306;  1.5502673E-02;  0.0000000E+00;  7.9287455E-04;  9.9915199E+00;  4.1372263E-01; -8.5015708E-01;3;  3.9978774E-04;  0.0000000E+00;  1.5575242E-04;  0.0000000E+00;  0.0000000E+00;  0.0000000E+00;0;  2.0292427E-02;  9.3818588E+01;  0.0000000E+00; -3.5247478E-05;  1.0000000E+02;  0.0000000E+00;  9.9466400E+01;  1.9072266E-02;  0.0000000E+00;  1.2201617E-03;  0.0000000E+00;
  2.4235203E+00;  9.9999998E-03;  1.0027660E+00;307;  1.4874535E-02;  0.0000000E+00;  1.2430825E-03;  9.9918423E+00;  4.1337526E-01; -8.1798196E-01;3;  1.4756895E-03;  0.0000000E+00; -7.8789290E-06;  0.0000000E+00;  0.0000000E+00;  0.0000000E+00;0;  1.9468768E-02;  9.3975883E+01;  0.0000000E+00;  3.3085817E-04;  1.0000000E+02;  0.0000000E+00;  9.9473167E+01;  1.8321602E-02;  0.0000000E+00;  1.1471667E-03;  0.0000000E+00;
  2.6405654E+00;  9.9999998E-03;  1.8776638E-09;313;  2.9456744E-02;  0.0000000E+00;  1.4556127E-09;  9.9909830E+00;  4.1672772E-01; -8.6815274E-01;3;  4.4064629E-03;  0.0000000E+00; -1.0668570E-07;  0.0000000E+00;  0.0000000E+00;  0.0000000E+00;0;  2.5077647E-02;  9.2839111E+01;  0.0000000E+00;  1.7650413E-14;  1.0000000E+02;  0.0000000E+00;  9.9058693E+01;  2.2628462E-02;  0.0000000E+00;  2.4491842E-03;  0.0000000E+00;
  2.6393683E+00;  9.9999998E-03;  2.0005052E-01;314;  2.8237417E-02;  0.0000000E+00; -7.5579504E-05;  9.9910145E+00;  4.1667306E-01; -8.6530340E-01;3;  4.3072728E-03;  0.0000000E+00; -1.6958934E-04;  0.0000000E+00;  0.0000000E+00;  0.0000000E+00;0;  2.4962125E-02;  9.2851845E+01;  0.0000000E+00; -2.8010816E-06;  1.0000000E+02;  0.0000000E+00;  9.9071648E+01;  2.2552835E-02;  0.0000000E+00;  2.4092898E-03;  0.0000000E+00;
  2.6362638E+00;  9.9999998E-03;  4.0089363E-01;315;  2.4840027E-02;  0.0000000E+00; -6.4526626E-05;  9.9911442E+00;  4.1655388E-01; -8.5333973E-01;3;  3.1461462E-03;  0.0000000E+00; -4.4821765E-05;  0.0000000E+00;  0.0000000E+00;  0.0000000E+00;0;  2.4539338E-02;  9.2888123E+01;  0.0000000E+00;  7.7114200E-06;  1.0000000E+02;  0.0000000E+00;  9.9091759E+01;  2.2341397E-02;  0.0000000E+00;  2.1979418E-03;  0.0000000E+00;
  2.6326129E+00;  9.9999998E-03;  6.0222787E-01;316;  2.1123720E-02;  0.0000000E+00;  9.7276433E-04;  9.9911928E+00;  4.1645220E-01; -8.4920740E-01;3;  2.3274163E-03;  0.0000000E+00; -8.3663478E-04;  0.0000000E+00;  0.0000000E+00;  0.0000000E+00;0;  2.4320295E-02;  9.2940315E+01;  0.0000000E+00;  3.8526847E-05;  1.0000000E+02;  0.0000000E+00;  9.9087204E+01;  2.2037266E-02;  0.0000000E+00;  2.2830290E-03;  0.0000000E+00;
  2.6297152E+00;  9.9999998E-03;  8.0344081E-01;317;  1.7871367E-02;  0.0000000E+00;  1.6584945E-03;  9.9912949E+00;  4.1632542E-01; -8.3983356E-01;3; -4.0285115E-04;  0.0000000E+00; -1.1088020E-03;  0.0000000E+00;  0.0000000E+00;  0.0000000E+00;0;  2.3976192E-02;  9.2996925E+01;  0.0000000E+00;  1.1469941E-05;  1.0000000E+02;  0.0000000E+00;  9.9089363E+01;  2.1717615E-02;  0.0000000E+00;  2.2585755E-03;  0.0000000E+00;
  2.6273201E+00;  9.9999998E-03;  1.0045885E+00;318;  1.5789608E-02;  0.0000000E+00;  2.2586461E-03;  9.9914026E+00;  4.1620809E-01; -8.2979685E-01;3; -1.1538125E-03;  0.0000000E+00; -6.2031095E-04;  0.0000000E+00;  0.0000000E+00;  0.0000000E+00;0;  2.3629013E-02;  9.3047821E+01;  0.0000000E+00;  2.2548549E-04;  1.0000000E+02;  0.0000000E+00;  9.9093124E+01;  2.1437164E-02;  0.0000000E+00;  2.1918486E-03;  0.0000000E+00;
  2.8440442E+00;  9.9999998E-03; -6.5762668E-10;324;  3.0526431E-02;  0.0000000E+00; -2.8108307E-09;  9.9911509E+00;  4.1898268E-01; -8.2377136E-01;3;  6.0699806E-03;  0.0000000E+00;  1.3559510E-08;  0.0000000E+00;  0.0000000E+00;  0.0000000E+00;0;  2.7883040E-02;  9.2204880E+01;  0.0000000E+00;  4.4403846E-14;  1.0000000E+02;  0.0000000E+00;  9.8674057E+01;  2.4264375E-02;  0.0000000E+00;  3.6186657E-03;  0.0000000E+00;
  2.8431485E+00;  9.9999998E-03;  2.0083722E-01;325;  2.9475816E-02;  0.0000000E+00; -1.4883101E-05;  9.9911489E+00;  4.1900760E-01; -8.2409650E-01;3;  5.2018333E-03;  0.0000000E+00; -1.6460435E-04;  0.0000000E+00;  0.0000000E+00;  0.0000000E+00;0;  2.7873794E-02;  9.2187469E+01;  0.0000000E+00;  9.8651672E-06;  1.0000000E+02;  0.0000000E+00;  9.8680656E+01;  2.4333302E-02;  0.0000000E+00;  3.5404915E-03;  0.0000000E+00;
  2.8410010E+00;  9.9999998E-03;  4.0250993E-01;326;  2.6929060E-02;  0.0000000E+00;  1.1688679E-03;  9.9910583E+00;  4.1914499E-01; -8.3278245E-01;3;  4.9438770E-03;  0.0000000E+00; -9.5892401E-04;  0.0000000E+00;  0.0000000E+00;  0.0000000E+00;0;  2.8106151E-02;  9.2141396E+01;  0.0000000E+00;  3.0515437E-05;  1.0000000E+02;  0.0000000E+00;  9.8662666E+01;  2.4519457E-02;  0.0000000E+00;  3.5866951E-03;  0.0000000E+00;
  2.8387158E+00;  9.9999998E-03;  6.0389858E-01;327;  2.4236789E-02;  0.0000000E+00;  2.0110237E-03;  9.9909716E+00;  4.1930467E-01; -8.4110224E-01;3;  1.2265190E-03;  0.0000000E+00;  5.9439900E-04;  0.0000000E+00;  0.0000000E+00;  0.0000000E+00;0;  2.8378351E-02;  9.2079514E+01;  0.0000000E+00; -1.3130712E-05;  1.0000000E+02;  0.0000000E+00;  9.8652550E+01;  2.4773734E-02;  0.0000000E+00;  3.6046163E-03;  0.0000000E+00;
  2.8369901E+00;  9.9999998E-03;  8.0535120E-01;328;  2.2395298E-02;  0.0000000E+00;  2.7814533E-03;  9.9908819E+00;  4.1948205E-01; -8.4969455E-01;3;  6.5839668E-05;  0.0000000E+00;  1.4701784E-03;  0.0000000E+00;  0.0000000E+00;  0.0000000E+00;0;  2.8614733E-02;  9.2014763E+01;  0.0000000E+00; -2.3112536E-04;  1.0000000E+02;  0.0000000E+00;  9.8637711E+01;  2.5047276E-02;  0.0000000E+00;  3.5674563E-03;  0.0000000E+00;
  2.8353636E+00;  9.9999998E-03;  1.0068017E+00;329;  2.1076163E-02;  0.0000000E+00;  3.6549147E-03;  9.9907494E+00;  4.1963011E-01; -8.6222398E-01;3; -4.2529046E-04;  0.0000000E+00; -5.1867406E-05;  0.0000000E+00;  0.0000000E+00;  0.0000000E+00;0;  2.8990917E-02;  9.1957581E+01;  0.0000000E+00; -3.1270369E-04;  1.0000000E+02;  0.0000000E+00;  9.8626572E+01;  2.5289953E-02;  0.0000000E+00;  3.7009635E-03;  0.0000000E+00;
  3.0487623E+00;  9.9999998E-03; -3.0585617E-10;335;  3.2435857E-02;  0.0000000E+00; -4.9067626E-09;  9.9909525E+00;  4.2193264E-01; -8.2345682E-01;3;  5.4886658E-03;  0.0000000E+00;  4.9937995E-08;  0.0000000E+00;  0.0000000E+00;  0.0000000E+00;0;  3.1906597E-02;  9.1290482E+01;  0.0000000E+00;  5.0309170E-14;  1.0000000E+02;  0.0000000E+00;  9.8269302E+01;  2.7010147E-02;  0.0000000E+00;  4.8964499E-03;  0.0000000E+00;
  3.0484104E+00;  9.9999998E-03;  2.0219739E-01;336;  3.1893793E-02;  0.0000000E+00;  9.9014863E-04;  9.9909029E+00;  4.2204240E-01; -8.2798356E-01;3;  4.9078506E-03;  0.0000000E+00; -5.0568313E-04;  0.0000000E+00;  0.0000000E+00;  0.0000000E+00;0;  3.2073572E-02;  9.1254303E+01;  0.0000000E+00;  2.3307965E-05;  1.0000000E+02;  0.0000000E+00;  9.8256424E+01;  2.7178954E-02;  0.0000000E+00;  4.8946179E-03;  0.0000000E+00;
  3.0475957E+00;  9.9999998E-03;  4.0390712E-01;337;  3.0666433E-02;  0.0000000E+00;  2.5184597E-03;  9.9907150E+00;  4.2230356E-01; -8.4518379E-01;3;  3.5920402E-03;  0.0000000E+00; -7.8819215E-04;  0.0000000E+00;  0.0000000E+00;  0.0000000E+00;0;  3.2718115E-02;  9.1156647E+01;  0.0000000E+00;  5.9575068E-05;  1.0000000E+02;  0.0000000E+00;  9.8235573E+01;  2.7635109E-02;  0.0000000E+00;  5.0830054E-03;  0.0000000E+00;
  3.0468197E+00;  9.9999998E-03;  6.0558325E-01;338;  2.9524121E-02;  0.0000000E+00;  3.0073409E-03;  9.9905815E+00;  4.2266455E-01; -8.5739195E-01;3;  2.3056662E-03;  0.0000000E+00;  8.3835609E-04;  0.0000000E+00;  0.0000000E+00;  0.0000000E+00;0;  3.3178754E-02;  9.1023354E+01;  0.0000000E+00; -5.7543612E-06;  1.0000000E+02;  0.0000000E+00;  9.8209099E+01;  2.8262259E-02;  0.0000000E+00;  4.9164928E-03;  0.0000000E+00;
  3.0464718E+00;  9.9999998E-03;  8.0730832E-01;339;  2.8918821E-02;  0.0000000E+00;  4.0419535E-03;  9.9903469E+00;  4.2305011E-01; -8.7874073E-01;3;  1.5631256E-03;  0.0000000E+00;  3.1641198E-04;  0.0000000E+00;  0.0000000E+00;  0.0000000E+00;0;  3.3960376E-02;  9.0881508E+01;  0.0000000E+00; -2.3826938E-04;  1.0000000E+02;  0.0000000E+00;  9.8179550E+01;  2.8932437E-02;  0.0000000E+00;  5.0279396E-03;  0.0000000E+00;
  3.0460579E+00;  9.9999998E-03;  1.0090851E+00;340;  2.8588796E-02;  0.0000000E+00;  5.1625078E-03;  9.9901266E+00;  4.2338932E-01; -8.9884782E-01;3;  1.3588805E-03;  0.0000000E+00;  2.1860963E-03;  0.0000000E+00;  0.0000000E+00;  0.0000000E+00;0;  3.4835849E-02;  9.0753922E+01;  0.0000000E+00; -4.0987635E-04;  1.0000000E+02;  0.0000000E+00;  9.8155991E+01;  2.9532097E-02;  0.0000000E+00;  5.3037521E-03;  0.0000000E+00;
  3.2569988E+00;  9.9999998E-03;  3.5745282E-10;346;  3.7236109E-02;  0.0000000E+00; -2.9579208E-09;  9.9905510E+00;  4.2541447E-01; -8.4933656E-01;3;  5.2511538E-03;  0.0000000E+00;  6.6819595E-08;  0.0000000E+00;  0.0000000E+00;  0.0000000E+00;0;  3.6820423E-02;  9.0153221E+01;  0.0000000E+00;  1.3293207E-14;  1.0000000E+02;  0.0000000E+00;  9.7878616E+01;  3.0675014E-02;  0.0000000E+00;  6.1454084E-03;  0.0000000E+00;
  3.2571068E+00;  9.9999998E-03;  2.0299956E-01;347;  3.7164122E-02;  0.0000000E+00;  1.9592089E-03;  9.9904842E+00;  4.2554635E-01; -8.5533333E-01;3;  5.0108344E-03;  0.0000000E+00;  5.1546044E-04;  0.0000000E+00;  0.0000000E+00;  0.0000000E+00;0;  3.7082635E-02;  9.0113838E+01;  0.0000000E+00;  5.8488655E-05;  1.0000000E+02;  0.0000000E+00;  9.7859734E+01;  3.0869687E-02;  0.0000000E+00;  6.2129474E-03;  0.0000000E+00;
  3.2573318E+00;  9.9999998E-03;  4.0500605E-01;348;  3.6925793E-02;  0.0000000E+00;  3.4638515E-03;  9.9903040E+00;  4.2583632E-01; -8.7150502E-01;3;  4.2746244E-03;  0.0000000E+00;  1.5680632E-03;  0.0000000E+00;  0.0000000E+00;  0.0000000E+00;0;  3.7792385E-02;  9.0007484E+01;  0.0000000E+00;  2.0116426E-04;  1.0000000E+02;  0.0000000E+00;  9.7838707E+01;  3.1388000E-02;  0.0000000E+00;  6.4043864E-03;  0.0000000E+00;
  3.2576945E+00;  9.9999998E-03;  6.0704237E-01;349;  3.6794648E-02;  0.0000000E+00;  3.9703213E-03;  9.9901686E+00;  4.2625111E-01; -8.8365334E-01;3;  3.5110477E-03;  0.0000000E+00; -2.1007007E-04;  0.0000000E+00;  0.0000000E+00;  0.0000000E+00;0;  3.8285714E-02;  8.9862228E+01;  0.0000000E+00;  3.2871656E-04;  1.0000000E+02;  0.0000000E+00;  9.7803291E+01;  3.2091588E-02;  0.0000000E+00;  6.1941249E-03;  0.0000000E+00;
  3.2583501E+00;  9.9999998E-03;  8.0906332E-01;350;  3.6977977E-02;  0.0000000E+00;  5.2347519E-03;  9.9899263E+00;  4.2667833E-01; -9.0543360E-01;3;  3.0475149E-03;  0.0000000E+00; -3.2696663E-04;  0.0000000E+00;  0.0000000E+00;  0.0000000E+00;0;  3.9235916E-02;  8.9707672E+01;  0.0000000E+00;  3.5159854E-04;  1.0000000E+02;  0.0000000E+00;  9.7771446E+01;  3.2833800E-02;  0.0000000E+00;  6.4021163E-03;  0.0000000E+00;
  3.2588892E+00;  9.9999998E-03;  1.0111735E+00;351;  3.7310887E-02;  0.0000000E+00;  6.4576194E-03;  9.9897404E+00;  4.2706183E-01; -9.2212778E-01;3;  3.0059391E-03;  0.0000000E+00;  2.9236088E-03;  0.0000000E+00;  0.0000000E+00;  0.0000000E+00;0;  4.0063478E-02;  8.9568359E+01;  0.0000000E+00;  1.9471989E-04;  1.0000000E+02;  0.0000000E+00;  9.7744370E+01;  3.3498246E-02;  0.0000000E+00;  6.5652323E-03;  0.0000000E+00;
  3.4685469E+00;  9.9999998E-03; -4.5031615E-10;357;  4.4318639E-02;  0.0000000E+00;  9.0999003E-10;  9.9901724E+00;  4.2898288E-01; -8.7798321E-01;3;  5.1336838E-03;  0.0000000E+00;  6.5269859E-08;  0.0000000E+00;  0.0000000E+00;  0.0000000E+00;0;  4.1731939E-02;  8.8972626E+01;  0.0000000E+00; -8.9027661E-15;  1.0000000E+02;  0.0000000E+00;  9.7527222E+01;  3.4503061E-02;  0.0000000E+00;  7.2288774E-03;  0.0000000E+00;
  3.4689412E+00;  9.9999998E-03;  2.0335203E-01;358;  4.4531193E-02;  0.0000000E+00;  2.4009545E-03;  9.9901199E+00;  4.2909256E-01; -8.8266253E-01;3;  5.1259580E-03;  0.0000000E+00;  1.0286464E-03;  0.0000000E+00;  0.0000000E+00;  0.0000000E+00;0;  4.1963428E-02;  8.8941750E+01;  0.0000000E+00;  9.1179158E-05;  1.0000000E+02;  0.0000000E+00;  9.7510536E+01;  3.4653902E-02;  0.0000000E+00;  7.3095253E-03;  0.0000000E+00;
  3.4698231E+00;  9.9999998E-03;  4.0574560E-01;359;  4.4912171E-02;  0.0000000E+00;  3.7928447E-03;  9.9900112E+00;  4.2932561E-01; -8.9233899E-01;3;  4.8841704E-03;  0.0000000E+00;  2.5366065E-03;  0.0000000E+00;  0.0000000E+00;  0.0000000E+00;0;  4.2446878E-02;  8.8858864E+01;  0.0000000E+00;  3.5305147E-04;  1.0000000E+02;  0.0000000E+00;  9.7493202E+01;  3.5050042E-02;  0.0000000E+00;  7.3968349E-03;  0.0000000E+00;
  3.4708431E+00;  9.9999998E-03;  6.0815990E-01;360;  4.5311637E-02;  0.0000000E+00;  4.7502285E-03;  9.9899044E+00;  4.2966363E-01; -9.0190643E-01;3;  4.4983542E-03;  0.0000000E+00; -1.3037502E-03;  0.0000000E+00;  0.0000000E+00;  0.0000000E+00;0;  4.2865276E-02;  8.8746933E+01;  0.0000000E+00;  7.0790300E-04;  1.0000000E+02;  0.0000000E+00;  9.7461113E+01;  3.5574846E-02;  0.0000000E+00;  7.2904308E-03;  0.0000000E+00;
  3.4720109E+00;  9.9999998E-03;  8.1050205E-01;361;  4.5805115E-02;  0.0000000E+00;  6.1655776E-03;  9.9897394E+00;  4.2999172E-01; -9.1658270E-01;3;  4.1752206E-03;  0.0000000E+00; -6.3894875E-04;  0.0000000E+00;  0.0000000E+00;  0.0000000E+00;0;  4.3583024E-02;  8.8629715E+01;  0.0000000E+00;  9.3930610E-04;  1.0000000E+02;  0.0000000E+00;  9.7437744E+01;  3.6115035E-02;  0.0000000E+00;  7.4679879E-03;  0.0000000E+00;
  3.4730096E+00;  9.9999998E-03;  1.0129347E+00;362;  4.6341855E-02;  0.0000000E+00;  7.4702734E-03;  9.9896441E+00;  4.3028745E-01; -9.2508483E-01;3;  4.1198940E-03;  0.0000000E+00;  2.2407596E-03;  0.0000000E+00;  0.0000000E+00;  0.0000000E+00;0;  4.4054169E-02;  8.8525673E+01;  0.0000000E+00;  6.3071749E-04;  1.0000000E+02;  0.0000000E+00;  9.7416824E+01;  3.6590915E-02;  0.0000000E+00;  7.4632531E-03;  0.0000000E+00;
  3.6823950E+00;  9.9999998E-03;  2.9479288E-10;368;  5.2787337E-02;  0.0000000E+00;  5.8044138E-09;  9.9899406E+00;  4.3222576E-01; -8.9621449E-01;3;  5.4155267E-03;  0.0000000E+00;  3.0724767E-08;  0.0000000E+00;  0.0000000E+00;  0.0000000E+00;0;  4.5816407E-02;  8.7911011E+01;  0.0000000E+00; -9.0737939E-15;  1.0000000E+02;  0.0000000E+00;  9.7224731E+01;  3.7737239E-02;  0.0000000E+00;  8.0791684E-03;  0.0000000E+00;
  3.6829355E+00;  9.9999998E-03;  2.0309885E-01;369;  5.3142950E-02;  0.0000000E+00;  2.1421900E-03;  9.9899206E+00;  4.3227983E-01; -8.9796287E-01;3;  5.5455361E-03;  0.0000000E+00;  8.0149027E-04;  0.0000000E+00;  0.0000000E+00;  0.0000000E+00;0;  4.5916889E-02;  8.7891304E+01;  0.0000000E+00;  7.5381329E-05;  1.0000000E+02;  0.0000000E+00;  9.7221909E+01;  3.7812632E-02;  0.0000000E+00;  8.1042564E-03;  0.0000000E+00;
  3.6840854E+00;  9.9999998E-03;  4.0609375E-01;370;  5.3795222E-02;  0.0000000E+00;  3.6827475E-03;  9.9898882E+00;  4.3243062E-01; -9.0087491E-01;3;  5.6456029E-03;  0.0000000E+00;  2.1945420E-03;  0.0000000E+00;  0.0000000E+00;  0.0000000E+00;0;  4.6086017E-02;  8.7840195E+01;  0.0000000E+00;  3.2077386E-04;  1.0000000E+02;  0.0000000E+00;  9.7209999E+01;  3.8004193E-02;  0.0000000E+00;  8.0818227E-03;  0.0000000E+00;
  3.6852794E+00;  9.9999998E-03;  6.0894513E-01;371;  5.4331180E-02;  0.0000000E+00;  5.2545331E-03;  9.9898224E+00;  4.3264341E-01; -9.0670717E-01;3;  5.4728566E-03;  0.0000000E+00; -2.1865449E-03;  0.0000000E+00;  0.0000000E+00;  0.0000000E+00;0;  4.6349715E-02;  8.7774323E+01;  0.0000000E+00;  6.9525302E-04;  1.0000000E+02;  0.0000000E+00;  9.7186646E+01;  3.8243324E-02;  0.0000000E+00;  8.1063919E-03;  0.0000000E+00;
  3.6865127E+00;  9.9999998E-03;  8.1163841E-01;372;  5.4787725E-02;  0.0000000E+00;  6.8058707E-03;  9.9897575E+00;  4.3282771E-01; -9.1248602E-01;3;  5.1798867E-03;  0.0000000E+00; -6.1164505E-04;  0.0000000E+00;  0.0000000E+00;  0.0000000E+00;0;  4.6672832E-02;  8.7708534E+01;  0.0000000E+00;  9.2903571E-04;  1.0000000E+02;  0.0000000E+00;  9.7175110E+01;  3.8474746E-02;  0.0000000E+00;  8.1980862E-03;  0.0000000E+00;
  3.6875355E+00;  9.9999998E-03;  1.0143785E+00;373;  5.5186652E-02;  0.0000000E+00;  8.1869494E-03;  9.9897566E+00;  4.3299329E-01; -9.1258460E-01;3;  4.9463310E-03;  0.0000000E+00;  9.8405615E-04;  0.0000000E+00;  0.0000000E+00;  0.0000000E+00;0;  4.6685394E-02;  8.7652405E+01;  0.0000000E+00;  5.1029428E-04;  1.0000000E+02;  0.0000000E+00;  9.7163330E+01;  3.8666133E-02;  0.0000000E+00;  8.0192611E-03;  0.0000000E+00;
  3.8976929E+00;  9.9999998E-03;  1.8623588E-09;379;  6.2149208E-02;  0.0000000E+00;  1.0597309E-08;  9.9898310E+00;  4.3504089E-01; -9.0489304E-01;3;  6.6743558E-03;  0.0000000E+00; -3.2132551E-08;  0.0000000E+00;  0.0000000E+00;  0.0000000E+00;0;  4.8822939E-02;  8.7006355E+01;  0.0000000E+00; -7.9507053E-15;  1.0000000E+02;  0.0000000E+00;  9.6966576E+01;  4.0108833E-02;  0.0000000E+00;  8.7141069E-03;  0.0000000E+00;
  3.8981948E+00;  9.9999998E-03;  2.0242423E-01;380;  6.2456131E-02;  0.0000000E+00;  1.5226768E-03;  9.9898424E+00;  4.3502554E-01; -9.0388376E-01;3;  6.8154447E-03;  0.0000000E+00;  1.8061978E-04;  0.0000000E+00;  0.0000000E+00;  0.0000000E+00;0;  4.8767380E-02;  8.6994987E+01;  0.0000000E+00;  3.4066641E-05;  1.0000000E+02;  0.0000000E+00;  9.6986366E+01;  4.0114854E-02;  0.0000000E+00;  8.6525250E-03;  0.0000000E+00;
  3.8991427E+00;  9.9999998E-03;  4.0621984E-01;381;  6.2955521E-02;  0.0000000E+00;  3.5337345E-03;  9.9898558E+00;  4.3511420E-01; -9.0266073E-01;3;  6.9474461E-03;  0.0000000E+00;  1.5105415E-03;  0.0000000E+00;  0.0000000E+00;  0.0000000E+00;0;  4.8711512E-02;  8.6966286E+01;  0.0000000E+00;  1.6751054E-04;  1.0000000E+02;  0.0000000E+00;  9.6978905E+01;  4.0121455E-02;  0.0000000E+00;  8.5900584E-03;  0.0000000E+00;
  3.9000449E+00;  9.9999998E-03;  6.0955209E-01;382;  6.3274242E-02;  0.0000000E+00;  5.5794166E-03;  9.9898281E+00;  4.3523592E-01; -9.0515065E-01;3;  6.7854407E-03;  0.0000000E+00; -2.5290609E-03;  0.0000000E+00;  0.0000000E+00;  0.0000000E+00;0;  4.8805080E-02;  8.6932129E+01;  0.0000000E+00;  4.0719830E-04;  1.0000000E+02;  0.0000000E+00;  9.6962288E+01;  4.0114321E-02;  0.0000000E+00;  8.6907577E-03;  0.0000000E+00;
  3.9009526E+00;  9.9999998E-03;  8.1259209E-01;383;  6.3478045E-02;  0.0000000E+00;  7.2288029E-03;  9.9898434E+00;  4.3532601E-01; -9.0376884E-01;3;  6.4176428E-03;  0.0000000E+00; -4.9145671E-04;  0.0000000E+00;  0.0000000E+00;  0.0000000E+00;0;  4.8764206E-02;  8.6899971E+01;  0.0000000E+00;  5.8479572E-04;  1.0000000E+02;  0.0000000E+00;  9.6957695E+01;  4.0091664E-02;  0.0000000E+00;  8.6725410E-03;  0.0000000E+00;
  3.9016979E+00;  9.9999998E-03;  1.0156097E+00;384;  6.3596375E-02;  0.0000000E+00;  8.6915679E-03;  9.9898987E+00;  4.3541709E-01; -8.9883387E-01;3;  5.9772199E-03;  0.0000000E+00; -6.2634406E-04;  0.0000000E+00;  0.0000000E+00;  0.0000000E+00;0;  4.8434094E-02;  8.6871429E+01;  0.0000000E+00;  3.5975550E-04;  1.0000000E+02;  0.0000000E+00;  9.6950653E+01;  4.0061474E-02;  0.0000000E+00;  8.3726179E-03;  0.0000000E+00;
  4.1138773E+00;  9.9999998E-03;  3.5424035E-09;390;  7.2170340E-02;  0.0000000E+00;  1.4337119E-08;  9.9897337E+00;  4.3754825E-01; -9.1306710E-01;3;  9.2568211E-03;  0.0000000E+00; -1.1035873E-07;  0.0000000E+00;  0.0000000E+00;  0.0000000E+00;0;  5.0959118E-02;  8.6207077E+01;  0.0000000E+00; -5.2262242E-15;  1.0000000E+02;  0.0000000E+00;  9.6744995E+01;  4.1774169E-02;  0.0000000E+00;  9.1849500E-03;  0.0000000E+00;
  4.1140614E+00;  9.9999998E-03;  2.0206517E-01;391;  7.2090477E-02;  0.0000000E+00;  1.2419110E-03;  9.9897614E+00;  4.3749222E-01; -9.1062826E-01;3;  9.0662623E-03;  0.0000000E+00; -3.3792076E-04;  0.0000000E+00;  0.0000000E+00;  0.0000000E+00;0;  5.0818462E-02;  8.6197548E+01;  0.0000000E+00;  1.7024102E-05;  1.0000000E+02;  0.0000000E+00;  9.6781113E+01;  4.1742150E-02;  0.0000000E+00;  9.0763131E-03;  0.0000000E+00;
  4.1143069E+00;  9.9999998E-03;  4.0651444E-01;392;  7.1985535E-02;  0.0000000E+00;  3.6394021E-03;  9.9897890E+00;  4.3756551E-01; -9.0813649E-01;3;  8.8577354E-03;  0.0000000E+00;  1.3196802E-03;  0.0000000E+00;  0.0000000E+00;  0.0000000E+00;0;  5.0677985E-02;  8.6173233E+01;  0.0000000E+00;  8.5571337E-05;  1.0000000E+02;  0.0000000E+00;  9.6776176E+01;  4.1655414E-02;  0.0000000E+00;  9.0225721E-03;  0.0000000E+00;
  4.1144385E+00;  9.9999998E-03;  6.1021793E-01;393;  7.1738258E-02;  0.0000000E+00;  5.8531924E-03;  9.9897842E+00;  4.3768096E-01; -9.0856040E-01;3;  8.5072322E-03;  0.0000000E+00; -2.0817094E-03;  0.0000000E+00;  0.0000000E+00;  0.0000000E+00;0;  5.0656512E-02;  8.6142204E+01;  0.0000000E+00;  2.1122747E-04;  1.0000000E+02;  0.0000000E+00;  9.6760208E+01;  4.1534819E-02;  0.0000000E+00;  9.1216955E-03;  0.0000000E+00;
  4.1146464E+00;  9.9999998E-03;  8.1351060E-01;394;  7.1503699E-02;  0.0000000E+00;  7.5612930E-03;  9.9898329E+00;  4.3777615E-01; -9.0426618E-01;3;  8.0153057E-03;  0.0000000E+00; -3.3306575E-04;  0.0000000E+00;  0.0000000E+00;  0.0000000E+00;0;  5.0441705E-02;  8.6110237E+01;  0.0000000E+00;  3.0206476E-04;  1.0000000E+02;  0.0000000E+00;  9.6754318E+01;  4.1406501E-02;  0.0000000E+00;  9.0352055E-03;  0.0000000E+00;
  4.1148500E+00;  9.9999998E-03;  1.0167383E+00;395;  7.1264856E-02;  0.0000000E+00;  9.0937372E-03;  9.9898996E+00;  4.3788773E-01; -8.9832866E-01;3;  7.4898233E-03;  0.0000000E+00; -2.3278161E-03;  0.0000000E+00;  0.0000000E+00;  0.0000000E+00;0;  4.9987644E-02;  8.6076317E+01;  0.0000000E+00;  2.2784407E-04;  1.0000000E+02;  0.0000000E+00;  9.6744453E+01;  4.1298632E-02;  0.0000000E+00;  8.6890124E-03;  0.0000000E+00;
  4.3301582E+00;  9.9999998E-03;  4.3489456E-09;401;  8.2118884E-02;  0.0000000E+00;  1.7331519E-08;  9.9895725E+00;  4.3978128E-01; -9.2717791E-01;3;  1.2402019E-02;  0.0000000E+00; -2.2018119E-07;  0.0000000E+00;  0.0000000E+00;  0.0000000E+00;0;  5.2394729E-02;  8.5489159E+01;  0.0000000E+00;  6.3365345E-15;  1.0000000E+02;  0.0000000E+00;  9.6566200E+01;  4.2894538E-02;  0.0000000E+00;  9.5001915E-03;  0.0000000E+00;
  4.3297219E+00;  9.9999998E-03;  2.0279121E-01;402;  8.1427962E-02;  0.0000000E+00;  1.7756525E-03;  9.9895906E+00;  4.3974829E-01; -9.2558813E-01;3;  1.1730125E-02;  0.0000000E+00; -3.8863526E-04;  0.0000000E+00;  0.0000000E+00;  0.0000000E+00;0;  5.2294448E-02;  8.5476334E+01;  0.0000000E+00;  2.5765066E-05;  1.0000000E+02;  0.0000000E+00;  9.6595505E+01;  4.2861253E-02;  0.0000000E+00;  9.4331941E-03;  0.0000000E+00;
  4.3291726E+00;  9.9999998E-03;  4.0729132E-01;403;  8.0576152E-02;  0.0000000E+00;  4.0783058E-03;  9.9896135E+00;  4.3985477E-01; -9.2357451E-01;3;  1.0965908E-02;  0.0000000E+00;  1.7923642E-03;  0.0000000E+00;  0.0000000E+00;  0.0000000E+00;0;  5.2182637E-02;  8.5438980E+01;  0.0000000E+00;  4.8310969E-05;  1.0000000E+02;  0.0000000E+00;  9.6591034E+01;  4.2787313E-02;  0.0000000E+00;  9.3953256E-03;  0.0000000E+00;
  4.3284364E+00;  9.9999998E-03;  6.1106342E-01;404;  7.9684831E-02;  0.0000000E+00;  6.1452887E-03;  9.9896135E+00;  4.4003940E-01; -9.2357486E-01;3;  1.0358924E-02;  0.0000000E+00; -1.0335428E-03;  0.0000000E+00;  0.0000000E+00;  0.0000000E+00;0;  5.2143298E-02;  8.5385712E+01;  0.0000000E+00; -9.7039592E-06;  1.0000000E+02;  0.0000000E+00;  9.6570251E+01;  4.2698257E-02;  0.0000000E+00;  9.4450396E-03;  0.0000000E+00;
  4.3277969E+00;  9.9999998E-03;  8.1442773E-01;405;  7.8945942E-02;  0.0000000E+00;  7.8642908E-03;  9.9896479E+00;  4.4022563E-01; -9.2050129E-01;3;  9.7958623E-03;  0.0000000E+00; -3.0424542E-04;  0.0000000E+00;  0.0000000E+00;  0.0000000E+00;0;  5.1978797E-02;  8.5326294E+01;  0.0000000E+00; -2.5434318E-04;  1.0000000E+02;  0.0000000E+00;  9.6556595E+01;  4.2613715E-02;  0.0000000E+00;  9.3650818E-03;  0.0000000E+00;
  4.3273993E+00;  9.9999998E-03;  1.0177579E+00;406;  7.8329474E-02;  0.0000000E+00;  9.4411913E-03;  9.9896936E+00;  4.4042501E-01; -9.1642052E-01;3;  9.3255695E-03;  0.0000000E+00; -3.8731189E-03;  0.0000000E+00;  0.0000000E+00;  0.0000000E+00;0;  5.1600970E-02;  8.5265472E+01;  0.0000000E+00; -8.3640037E-04;  1.0000000E+02;  0.0000000E+00;  9.6539436E+01;  4.2550299E-02;  0.0000000E+00;  9.0506710E-03;  0.0000000E+00;
  4.5452757E+00;  9.9999998E-03;  8.0188878E-10;412;  9.0713933E-02;  0.0000000E+00;  1.8578874E-08;  9.9893713E+00;  4.4139376E-01; -9.4500518E-01;3;  1.4458181E-02;  0.0000000E+00; -3.5043237E-07;  0.0000000E+00;  0.0000000E+00;  0.0000000E+00;0;  5.2815340E-02;  8.4955948E+01;  0.0000000E+00;  1.0962516E-14;  1.0000000E+02;  0.0000000E+00;  9.6459557E+01;  4.3225672E-02;  0.0000000E+00;  9.5896665E-03;  0.0000000E+00;
  4.5448380E+00;  9.9999998E-03;  2.0469141E-01;413;  9.0047061E-02;  0.0000000E+00;  2.8897873E-03;  9.9893589E+00;  4.4145852E-01; -9.4611812E-01;3;  1.3887506E-02;  0.0000000E+00;  1.6281301E-05;  0.0000000E+00;  0.0000000E+00;  0.0000000E+00;0;  5.2866735E-02;  8.4936501E+01;  0.0000000E+00; -5.7718153E-05;  1.0000000E+02;  0.0000000E+00;  9.6453255E+01;  4.3228138E-02;  0.0000000E+00;  9.6385954E-03;  0.0000000E+00;
  4.5441012E+00;  9.9999998E-03;  4.0841368E-01;414;  8.8965259E-02;  0.0000000E+00;  4.5267860E-03;  9.9893723E+00;  4.4161361E-01; -9.4489944E-01;3;  1.2802163E-02;  0.0000000E+00;  2.7394828E-03;  0.0000000E+00;  0.0000000E+00;  0.0000000E+00;0;  5.2815840E-02;  8.4880669E+01;  0.0000000E+00; -2.5480552E-04;  1.0000000E+02;  0.0000000E+00;  9.6449142E+01;  4.3243427E-02;  0.0000000E+00;  9.5724147E-03;  0.0000000E+00;
  4.5433521E+00;  9.9999998E-03;  6.1190546E-01;415;  8.7966599E-02;  0.0000000E+00;  6.3661453E-03;  9.9893513E+00;  4.4188866E-01; -9.4680744E-01;3;  1.2114304E-02;  0.0000000E+00; -2.7915716E-04;  0.0000000E+00;  0.0000000E+00;  0.0000000E+00;0;  5.2881844E-02;  8.4798355E+01;  0.0000000E+00; -3.3268711E-04;  1.0000000E+02;  0.0000000E+00;  9.6422249E+01;  4.3277025E-02;  0.0000000E+00;  9.6048210E-03;  0.0000000E+00;
  4.5429153E+00;  9.9999998E-03;  8.1515294E-01;416;  8.7242842E-02;  0.0000000E+00;  8.0700153E-03;  9.9893417E+00;  4.4218057E-01; -9.4765550E-01;3;  1.1585215E-02;  0.0000000E+00; -2.7174776E-04;  0.0000000E+00;  0.0000000E+00;  0.0000000E+00;0;  5.2929964E-02;  8.4705452E+01;  0.0000000E+00; -4.6629226E-04;  1.0000000E+02;  0.0000000E+00;  9.6400925E+01;  4.3321148E-02;  0.0000000E+00;  9.6088164E-03;  0.0000000E+00;
  4.5428658E+00;  9.9999998E-03;  1.0184728E+00;417;  8.6708538E-02;  0.0000000E+00;  9.6585993E-03;  9.9893513E+00;  4.4245109E-01; -9.4680756E-01;3;  1.1285145E-02;  0.0000000E+00; -4.9375962E-03;  0.0000000E+00;  0.0000000E+00;  0.0000000E+00;0;  5.2721526E-02;  8.4622169E+01;  0.0000000E+00; -1.8984528E-03;  1.0000000E+02;  0.0000000E+00;  9.6378212E+01;  4.3347768E-02;  0.0000000E+00;  9.3737580E-03;  0.0000000E+00;
  4.7593637E+00;  9.9999998E-03; -6.4722014E-09;423;  9.8244175E-02;  0.0000000E+00;  1.7000440E-08;  9.9892464E+00;  4.4168660E-01; -9.5609707E-01;3;  1.5257945E-02;  0.0000000E+00; -4.7273716E-07;  0.0000000E+00;  0.0000000E+00;  0.0000000E+00;0;  5.1493570E-02;  8.4835587E+01;  0.0000000E+00;  1.0764467E-14;  1.0000000E+02;  0.0000000E+00;  9.6466423E+01;  4.2140942E-02;  0.0000000E+00;  9.3526281E-03;  0.0000000E+00;
  4.7598495E+00;  9.9999998E-03;  2.0659874E-01;424;  9.8377228E-02;  0.0000000E+00;  3.4905439E-03;  9.9892073E+00;  4.4186756E-01; -9.5954162E-01;3;  1.5173397E-02;  0.0000000E+00;  6.5789762E-04;  0.0000000E+00;  0.0000000E+00;  0.0000000E+00;0;  5.1675282E-02;  8.4811363E+01;  0.0000000E+00; -1.4393190E-04;  1.0000000E+02;  0.0000000E+00;  9.6414352E+01;  4.2191062E-02;  0.0000000E+00;  9.4842212E-03;  0.0000000E+00;
  4.7610359E+00;  9.9999998E-03;  4.0919513E-01;425;  9.8426245E-02;  0.0000000E+00;  4.8477571E-03;  9.9891796E+00;  4.4204608E-01; -9.6203208E-01;3;  1.4419959E-02;  0.0000000E+00;  3.2557121E-03;  0.0000000E+00;  0.0000000E+00;  0.0000000E+00;0;  5.1794641E-02;  8.4745537E+01;  0.0000000E+00; -2.1804546E-04;  1.0000000E+02;  0.0000000E+00;  9.6410858E+01;  4.2304717E-02;  0.0000000E+00;  9.4899246E-03;  0.0000000E+00;
  4.7625918E+00;  9.9999998E-03;  6.1225230E-01;426;  9.8642617E-02;  0.0000000E+00;  6.3109780E-03;  9.9891386E+00;  4.4235554E-01; -9.6563542E-01;3;  1.4065735E-02;  0.0000000E+00;  6.4736778E-05;  0.0000000E+00;  0.0000000E+00;  0.0000000E+00;0;  5.1923491E-02;  8.4650803E+01;  0.0000000E+00;  1.2868614E-04;  1.0000000E+02;  0.0000000E+00;  9.6383003E+01;  4.2450912E-02;  0.0000000E+00;  9.4725778E-03;  0.0000000E+00;
  4.7652917E+00;  9.9999998E-03;  8.1531638E-01;427;  9.9502929E-02;  0.0000000E+00;  7.9881325E-03;  9.9890785E+00;  4.4270244E-01; -9.7098750E-01;3;  1.3776935E-02;  0.0000000E+00;  4.2246614E-04;  0.0000000E+00;  0.0000000E+00;  0.0000000E+00;0;  5.2190658E-02;  8.4539032E+01;  0.0000000E+00; -2.0039364E-04;  1.0000000E+02;  0.0000000E+00;  9.6358757E+01;  4.2611215E-02;  0.0000000E+00;  9.5794434E-03;  0.0000000E+00;
  4.7678590E+00;  9.9999998E-03;  1.0185667E+00;428;  1.0030967E-01;  0.0000000E+00;  9.5846113E-03;  9.9890347E+00;  4.4301391E-01; -9.7490859E-01;3;  1.3721590E-02;  0.0000000E+00; -5.2448506E-03;  0.0000000E+00;  0.0000000E+00;  0.0000000E+00;0;  5.2194111E-02;  8.4441673E+01;  0.0000000E+00;  8.8095310E-04;  1.0000000E+02;  0.0000000E+00;  9.6332970E+01;  4.2725481E-02;  0.0000000E+00;  9.4686281E-03;  0.0000000E+00;
  4.9764080E+00;  9.9999998E-03; -1.6595791E-08;434;  1.0748950E-01;  0.0000000E+00;  1.4700865E-08;  9.9893227E+00;  4.3999830E-01; -9.4929832E-01;3;  1.5874136E-02;  0.0000000E+00; -5.5950659E-07;  0.0000000E+00;  0.0000000E+00;  0.0000000E+00;0;  4.7743436E-02;  8.5360703E+01;  0.0000000E+00;  6.5806972E-15;  1.0000000E+02;  0.0000000E+00;  9.6611168E+01;  3.8999941E-02;  0.0000000E+00;  8.7434938E-03;  0.0000000E+00;
  4.9787340E+00;  9.9999998E-03;  2.0633842E-01;435;  1.0918587E-01;  0.0000000E+00;  2.9921690E-03;  9.9892731E+00;  4.4019121E-01; -9.5369649E-01;3;  1.6422125E-02;  0.0000000E+00;  2.0195539E-03;  0.0000000E+00;  0.0000000E+00;  0.0000000E+00;0;  4.7918096E-02;  8.5338417E+01;  0.0000000E+00;  9.3685387E-04;  1.0000000E+02;  0.0000000E+00;  9.6551102E+01;  3.9057698E-02;  0.0000000E+00;  8.8603990E-03;  0.0000000E+00;
  4.9832106E+00;  9.9999998E-03;  4.0887386E-01;436;  1.1118618E-01;  0.0000000E+00;  4.3739402E-03;  9.9892044E+00;  4.4040543E-01; -9.5979035E-01;3;  1.6855871E-02;  0.0000000E+00;  9.9999434E-04;  0.0000000E+00;  0.0000000E+00;  0.0000000E+00;0;  4.8134621E-02;  8.5271049E+01;  0.0000000E+00;  1.1655323E-03;  1.0000000E+02;  0.0000000E+00;  9.6532280E+01;  3.9228398E-02;  0.0000000E+00;  8.9062238E-03;  0.0000000E+00;
  4.9887958E+00;  9.9999998E-03;  6.1166191E-01;437;  1.1281028E-01;  0.0000000E+00;  5.8078677E-03;  9.9891167E+00;  4.4074833E-01; -9.6757990E-01;3;  1.6090542E-02;  0.0000000E+00;  1.3333432E-03;  0.0000000E+00;  0.0000000E+00;  0.0000000E+00;0;  4.8406687E-02;  8.5157188E+01;  0.0000000E+00; -5.2269162E-03;  1.0000000E+02;  0.0000000E+00;  9.6509254E+01;  3.9462615E-02;  0.0000000E+00;  8.9440709E-03;  0.0000000E+00;
  4.9982395E+00;  9.9999998E-03;  8.1471330E-01;438;  1.1644276E-01;  0.0000000E+00;  7.5554489E-03;  9.9889250E+00;  4.4137564E-01; -9.8464292E-01;3;  1.4566826E-02;  0.0000000E+00;  1.6039452E-03;  0.0000000E+00;  0.0000000E+00;  0.0000000E+00;0;  4.9102042E-02;  8.4953667E+01;  0.0000000E+00; -1.6172079E-02;  1.0000000E+02;  0.0000000E+00;  9.6462585E+01;  3.9849531E-02;  0.0000000E+00;  9.2525100E-03;  0.0000000E+00;
  5.0023694E+00;  9.9999998E-03;  1.0179402E+00;439;  1.1607625E-01;  0.0000000E+00;  9.1150999E-03;  9.9888163E+00;  4.4198871E-01; -9.9428725E-01;3;  1.4684262E-02;  0.0000000E+00; -4.9849148E-03;  0.0000000E+00;  0.0000000E+00;  0.0000000E+00;0;  4.9319398E-02;  8.4761253E+01;  0.0000000E+00;  2.5975537E-02;  1.0000000E+02;  0.0000000E+00;  9.6412514E+01;  4.0097773E-02;  0.0000000E+00;  9.2216246E-03;  0.0000000E+00;
  5.2011676E+00;  9.9999998E-03; -1.8648205E-08;445;  1.2109002E-01;  0.0000000E+00;  1.4975397E-08;  9.9895992E+00;  4.3635294E-01; -9.2470342E-01;3;  1.6679877E-02;  0.0000000E+00; -7.4558193E-07;  0.0000000E+00;  0.0000000E+00;  0.0000000E+00;0;  4.1634116E-02;  8.6550888E+01;  0.0000000E+00; -2.6235090E-15;  1.0000000E+02;  0.0000000E+00;  9.6885803E+01;  3.3832256E-02;  0.0000000E+00;  7.8018592E-03;  0.0000000E+00;
  5.2067213E+00;  9.9999998E-03;  2.0440939E-01;446;  1.2542965E-01;  0.0000000E+00;  2.1657147E-03;  9.9894762E+00;  4.3662110E-01; -9.3561953E-01;3;  1.7841876E-02;  0.0000000E+00;  4.0105307E-03;  0.0000000E+00;  0.0000000E+00;  0.0000000E+00;0;  4.1985437E-02;  8.6472343E+01;  0.0000000E+00;  1.1811061E-03;  1.0000000E+02;  0.0000000E+00;  9.6853371E+01;  3.4100987E-02;  0.0000000E+00;  7.8844521E-03;  0.0000000E+00;
  5.2114921E+00;  9.9999998E-03;  4.0764305E-01;447;  1.2652896E-01;  0.0000000E+00;  3.6029140E-03;  9.9892836E+00;  4.3713447E-01; -9.5273578E-01;3;  1.8989617E-02;  0.0000000E+00;  7.6329370E-04;  0.0000000E+00;  0.0000000E+00;  0.0000000E+00;0;  4.2629249E-02;  8.6315903E+01;  0.0000000E+00; -5.9400806E-03;  1.0000000E+02;  0.0000000E+00;  9.6797646E+01;  3.4612704E-02;  0.0000000E+00;  8.0165444E-03;  0.0000000E+00;
  5.2104769E+00;  9.9999998E-03;  6.1028796E-01;448;  1.2039685E-01;  0.0000000E+00;  4.9111960E-03;  9.9893141E+00;  4.3743095E-01; -9.5003325E-01;3;  1.5224161E-02;  0.0000000E+00;  2.8193861E-03;  0.0000000E+00;  0.0000000E+00;  0.0000000E+00;0;  4.2545095E-02;  8.6218300E+01;  0.0000000E+00; -1.5791958E-02;  1.0000000E+02;  0.0000000E+00;  9.6776993E+01;  3.4478869E-02;  0.0000000E+00;  8.0662258E-03;  0.0000000E+00;
  5.2111473E+00;  9.9999998E-03;  8.1325823E-01;449;  1.2310330E-01;  0.0000000E+00;  6.5454086E-03;  9.9890146E+00;  4.3782264E-01; -9.7663498E-01;3;  1.8678529E-02;  0.0000000E+00;  2.2632936E-03;  0.0000000E+00;  0.0000000E+00;  0.0000000E+00;0;  4.3733705E-02;  8.6087616E+01;  0.0000000E+00; -1.4199956E-02;  1.0000000E+02;  0.0000000E+00;  9.6744850E+01;  3.5481591E-02;  0.0000000E+00;  8.2521131E-03;  0.0000000E+00;
  5.2068906E+00;  9.9999998E-03;  1.0162736E+00;450;  1.1602363E-01;  0.0000000E+00;  8.0843791E-03;  9.9893017E+00;  4.3770900E-01; -9.5114607E-01;3;  1.5254027E-02;  0.0000000E+00; -2.6144460E-03;  0.0000000E+00;  0.0000000E+00;  0.0000000E+00;0;  4.2589385E-02;  8.6132431E+01;  0.0000000E+00;  3.8793065E-02;  1.0000000E+02;  0.0000000E+00;  9.6750793E+01;  3.4421965E-02;  0.0000000E+00;  8.1674205E-03;  0.0000000E+00;
  5.4226665E+00;  9.9999998E-03; -1.4965654E-08;456;  1.2662585E-01;  0.0000000E+00;  4.2292521E-09;  9.9898758E+00;  4.3202150E-01; -9.0011263E-01;3;  1.3661994E-02;  0.0000000E+00; -1.0073418E-06;  0.0000000E+00;  0.0000000E+00;  0.0000000E+00;0;  3.4478944E-02;  8.7970833E+01;  0.0000000E+00; -3.6655495E-15;  1.0000000E+02;  0.0000000E+00;  9.7249779E+01;  2.7777292E-02;  0.0000000E+00;  6.7016534E-03;  0.0000000E+00;
  5.4235024E+00;  9.9999998E-03;  2.0356454E-01;457;  1.2939726E-01;  0.0000000E+00;  1.2894351E-03;  9.9896345E+00;  4.3229684E-01; -9.2152119E-01;3;  1.5570739E-02;  0.0000000E+00; -1.9508041E-04;  0.0000000E+00;  0.0000000E+00;  0.0000000E+00;0;  3.5278555E-02;  8.7896545E+01;  0.0000000E+00;  2.2108397E-03;  1.0000000E+02;  0.0000000E+00;  9.7203758E+01;  2.8514871E-02;  0.0000000E+00;  6.7636850E-03;  0.0000000E+00;
  5.4239292E+00;  9.9999998E-03;  4.0591142E-01;458;  1.2939215E-01;  0.0000000E+00;  2.1035855E-03;  9.9894695E+00;  4.3272617E-01; -9.3619984E-01;3;  1.6975919E-02;  0.0000000E+00; -1.9204593E-04;  0.0000000E+00;  0.0000000E+00;  0.0000000E+00;0;  3.5826620E-02;  8.7754837E+01;  0.0000000E+00; -4.0073457E-04;  1.0000000E+02;  0.0000000E+00;  9.7164627E+01;  2.9142747E-02;  0.0000000E+00;  6.6838739E-03;  0.0000000E+00;
  5.4222527E+00;  9.9999998E-03;  6.0845238E-01;459;  1.2701209E-01;  0.0000000E+00;  3.8235974E-03;  9.9893875E+00;  4.3289506E-01; -9.4351280E-01;3;  1.7637910E-02;  0.0000000E+00;  2.6501180E-03;  0.0000000E+00;  0.0000000E+00;  0.0000000E+00;0;  3.6197379E-02;  8.7698448E+01;  0.0000000E+00; -9.7642327E-03;  1.0000000E+02;  0.0000000E+00;  9.7149025E+01;  2.9249532E-02;  0.0000000E+00;  6.9478489E-03;  0.0000000E+00;
  5.4222956E+00;  9.9999998E-03;  8.1140608E-01;460;  1.2751962E-01;  0.0000000E+00;  5.7511455E-03;  9.9889441E+00;  4.3335918E-01; -9.8293829E-01;3;  1.6127281E-02;  0.0000000E+00;  4.7021895E-03;  0.0000000E+00;  0.0000000E+00;  0.0000000E+00;0;  3.7865173E-02;  8.7535629E+01;  0.0000000E+00;  1.3809965E-03;  1.0000000E+02;  0.0000000E+00;  9.7113068E+01;  3.0301129E-02;  0.0000000E+00;  7.5640441E-03;  0.0000000E+00;
  5.4126492E+00;  9.9999998E-03;  1.0138727E+00;461;  1.2340982E-01;  0.0000000E+00;  7.1558589E-03;  9.9892559E+00;  4.3142539E-01; -9.5522386E-01;3;  2.0014528E-02;  0.0000000E+00; -2.7036662E-03;  0.0000000E+00;  0.0000000E+00;  0.0000000E+00;0;  3.6954772E-02;  8.8191765E+01;  0.0000000E+00;  1.3983433E-02;  1.0000000E+02;  0.0000000E+00;  9.7262009E+01;  2.9525870E-02;  0.0000000E+00;  7.4289022E-03;  0.0000000E+00;
  5.6284904E+00;  9.9999998E-03;  8.7623855E-09;467;  1.3097925E-01;  0.0000000E+00; -3.6092580E-08;  9.9896994E+00;  4.2674351E-01; -9.1579711E-01;3;  1.8739384E-02;  0.0000000E+00; -1.3955869E-06;  0.0000000E+00;  0.0000000E+00;  0.0000000E+00;0;  2.8367475E-02;  8.9794571E+01;  0.0000000E+00;  6.7651200E-15;  1.0000000E+02;  0.0000000E+00;  9.7643028E+01;  2.2727096E-02;  0.0000000E+00;  5.6403778E-03;  0.0000000E+00;
  5.6270490E+00;  9.9999998E-03;  2.0065036E-01;468;  1.2998290E-01;  0.0000000E+00; -1.6216607E-05;  9.9898672E+00;  4.2640296E-01; -9.0085357E-01;3;  1.7536052E-02;  0.0000000E+00; -1.0530185E-04;  0.0000000E+00;  0.0000000E+00;  0.0000000E+00;0;  2.7946664E-02;  8.9894699E+01;  0.0000000E+00;  1.2063542E-02;  1.0000000E+02;  0.0000000E+00;  9.7692619E+01;  2.2453332E-02;  0.0000000E+00;  5.4933317E-03;  0.0000000E+00;
  5.6276999E+00;  9.9999998E-03;  4.0349162E-01;469;  1.2969646E-01;  0.0000000E+00;  1.5882073E-03;  9.9897003E+00;  4.2673549E-01; -9.1569114E-01;3;  1.8327743E-02;  0.0000000E+00;  3.9503546E-03;  0.0000000E+00;  0.0000000E+00;  0.0000000E+00;0;  2.8435435E-02;  8.9774185E+01;  0.0000000E+00;  2.0408032E-02;  1.0000000E+02;  0.0000000E+00;  9.7668465E+01;  2.2732478E-02;  0.0000000E+00;  5.7029575E-03;  0.0000000E+00;
  5.6285357E+00;  9.9999998E-03;  6.0633075E-01;470;  1.2945445E-01;  0.0000000E+00;  2.7874052E-03;  9.9895029E+00;  4.2725405E-01; -9.3323129E-01;3;  1.4420234E-02;  0.0000000E+00;  5.3444915E-03;  0.0000000E+00;  0.0000000E+00;  0.0000000E+00;0;  2.8904065E-02;  8.9594337E+01;  0.0000000E+00;  4.5197732E-03;  1.0000000E+02;  0.0000000E+00;  9.7623451E+01;  2.3187703E-02;  0.0000000E+00;  5.7163625E-03;  0.0000000E+00;
  5.6272035E+00;  9.9999998E-03;  8.0904382E-01;471;  1.2744148E-01;  0.0000000E+00;  4.2025992E-03;  9.9898500E+00;  4.2723003E-01; -9.0239030E-01;3;  1.7571036E-02;  0.0000000E+00;  5.6837024E-03;  0.0000000E+00;  0.0000000E+00;  0.0000000E+00;0;  2.8145067E-02;  8.9610176E+01;  0.0000000E+00;  2.3365380E-02;  1.0000000E+02;  0.0000000E+00;  9.7624290E+01;  2.2393648E-02;  0.0000000E+00;  5.7514207E-03;  0.0000000E+00;
  5.6210151E+00;  9.9999998E-03;  1.0112689E+00;472;  1.2657939E-01;  0.0000000E+00;  6.3085146E-03;  9.9893446E+00;  4.2530504E-01; -9.4732708E-01;3;  1.5116323E-02;  0.0000000E+00;  4.3745507E-03;  0.0000000E+00;  0.0000000E+00;  0.0000000E+00;0;  2.9924596E-02;  9.0267906E+01;  0.0000000E+00;  6.6526467E-03;  1.0000000E+02;  0.0000000E+00;  9.7781700E+01;  2.3002984E-02;  0.0000000E+00;  6.9216113E-03;  0.0000000E+00;
  5.8344641E+00;  9.9999998E-03; -7.4015754E-09;477;  1.3330635E-01;  0.0000000E+00; -8.6403958E-08;  9.9885731E+00;  4.2178807E-01; -1.0158974E+00;3;  1.1068292E-02;  0.0000000E+00; -1.3504177E-06;  0.0000000E+00;  0.0000000E+00;  0.0000000E+00;0;  2.2838105E-02;  9.1520485E+01;  0.0000000E+00;  1.8140503E-14;  1.0000000E+02;  0.0000000E+00;  9.8044853E+01;  1.8212324E-02;  0.0000000E+00;  4.6257796E-03;  0.0000000E+00;
  5.8330355E+00;  9.9999998E-03;  1.9996241E-01;478;  1.3233268E-01;  0.0000000E+00; -2.1504432E-04;  9.9890757E+00;  4.2111683E-01; -9.7122568E-01;3;  1.2380794E-02;  0.0000000E+00; -1.2513716E-04;  0.0000000E+00;  0.0000000E+00;  0.0000000E+00;0;  2.1927122E-02;  9.1750923E+01;  0.0000000E+00;  9.0264296E-03;  1.0000000E+02;  0.0000000E+00;  9.8119949E+01;  1.7492598E-02;  0.0000000E+00;  4.4345241E-03;  0.0000000E+00;
  5.8297958E+00;  9.9999998E-03;  4.0097201E-01;479;  1.2975298E-01;  0.0000000E+00;  1.6594119E-04;  9.9904680E+00;  4.1950744E-01; -8.4743786E-01;3;  1.7777927E-02;  0.0000000E+00; -5.4456294E-05;  0.0000000E+00;  0.0000000E+00;  0.0000000E+00;0;  1.9385934E-02;  9.2328667E+01;  0.0000000E+00;  1.6608464E-02;  1.0000000E+02;  0.0000000E+00;  9.8282974E+01;  1.5361943E-02;  0.0000000E+00;  4.0239901E-03;  0.0000000E+00;
  5.8306327E+00;  9.9999998E-03;  6.0382116E-01;480;  1.2937160E-01;  0.0000000E+00;  1.7362211E-03;  9.9904318E+00;  4.1997328E-01; -8.5067034E-01;3;  1.6183306E-02;  0.0000000E+00;  5.1546963E-03;  0.0000000E+00;  0.0000000E+00;  0.0000000E+00;0;  1.9588271E-02;  9.2154198E+01;  0.0000000E+00; -1.3785441E-02;  1.0000000E+02;  0.0000000E+00;  9.8249466E+01;  1.5287246E-02;  0.0000000E+00;  4.3010260E-03;  0.0000000E+00;
  5.8301511E+00;  9.9999998E-03;  8.0640799E-01;481;  1.3118620E-01;  0.0000000E+00;  3.4559257E-03;  9.9886169E+00;  4.2017472E-01; -1.0120291E+00;3;  6.5876609E-03;  0.0000000E+00;  1.8720359E-02;  0.0000000E+00;  0.0000000E+00;  0.0000000E+00;0;  2.3421304E-02;  9.2045464E+01;  0.0000000E+00; -1.3016202E-02;  1.0000000E+02;  0.0000000E+00;  9.8235703E+01;  1.8427387E-02;  0.0000000E+00;  4.9939174E-03;  0.0000000E+00;
  6.0338054E+00;  9.9999998E-03;  3.9991623E-01;487;  1.3198183E-01;  0.0000000E+00; -9.7809265E-05;  9.9885349E+00;  4.1381460E-01; -1.0192887E+00;3;  1.4113670E-02;  0.0000000E+00; -7.7541685E-04;  0.0000000E+00;  0.0000000E+00;  0.0000000E+00;0;  1.4036110E-02;  9.4395012E+01;  0.0000000E+00; -4.8293412E-02;  1.0000000E+02;  0.0000000E+00;  9.8757240E+01;  1.1014227E-02;  0.0000000E+00;  3.0218831E-03;  0.0000000E+00;
  6.0353222E+00;  9.9999998E-03;  6.0251695E-01;488;  1.3332611E-01;  0.0000000E+00;  1.5841513E-03;  9.9852200E+00;  4.1516954E-01; -1.3140266E+00;3; -4.1166041E-03;  0.0000000E+00;  1.8627720E-02;  0.0000000E+00;  0.0000000E+00;  0.0000000E+00;0;  1.7638484E-02;  9.3815681E+01;  0.0000000E+00; -5.1460359E-02;  1.0000000E+02;  0.0000000E+00;  9.8654846E+01;  1.3781666E-02;  0.0000000E+00;  3.8568187E-03;  0.0000000E+00;
  6.0367093E+00;  9.9999998E-03;  1.9939925E-01;486;  1.3355939E-01;  0.0000000E+00; -4.4006837E-04;  9.9866457E+00;  4.1581392E-01; -1.1872712E+00;3;  1.2192001E-02;  0.0000000E+00; -4.2581931E-05;  0.0000000E+00;  0.0000000E+00;  0.0000000E+00;0;  1.6230274E-02;  9.3663971E+01;  0.0000000E+00; -7.2447658E-03;  1.0000000E+02;  0.0000000E+00;  9.8537704E+01;  1.2798813E-02;  0.0000000E+00;  3.4314599E-03;  0.0000000E+00;
  6.0378861E+00;  9.9999998E-03; -1.4137718E-08;485;  1.3443792E-01;  0.0000000E+00; -1.7431345E-08;  9.9852610E+00;  4.1665286E-01; -1.3103702E+00;3;  8.2783569E-03;  0.0000000E+00;  2.3823231E-06;  0.0000000E+00;  0.0000000E+00;  0.0000000E+00;0;  1.7591443E-02;  9.3367165E+01;  0.0000000E+00;  4.0903912E-14;  1.0000000E+02;  0.0000000E+00;  9.8426399E+01;  1.3873777E-02;  0.0000000E+00;  3.7176649E-03;  0.0000000E+00;
  6.2390389E+00;  9.9999998E-03; -1.1298595E-08;491;  1.3504487E-01;  0.0000000E+00;  4.6798416E-08;  9.9682016E+00;  4.1070473E-01; -2.8270352E+00;3;  5.3567984E-03;  0.0000000E+00; -2.7790666E-06;  0.0000000E+00;  0.0000000E+00;  0.0000000E+00;0;  1.2880162E-02;  9.5436684E+01;  0.0000000E+00;  7.9324348E-15;  1.0000000E+02;  0.0000000E+00;  9.8769562E+01;  9.9398866E-03;  0.0000000E+00;  2.9402757E-03;  0.0000000E+00;
  6.2371645E+00;  9.9999998E-03;  1.9832510E-01;492;  1.3373530E-01;  0.0000000E+00; -7.8867731E-04;  9.9743834E+00;  4.0932059E-01; -2.2774620E+00;3;  1.0294650E-02;  0.0000000E+00; -1.0298565E-04;  0.0000000E+00;  0.0000000E+00;  0.0000000E+00;0;  1.0405185E-02;  9.5987770E+01;  0.0000000E+00; -5.1750928E-02;  1.0000000E+02;  0.0000000E+00;  9.8986954E+01;  7.9469597E-03;  0.0000000E+00;  2.4582250E-03;  0.0000000E+00;
  6.2365499E+00;  9.9999998E-03;  3.9985436E-01;493;  1.3417485E-01;  0.0000000E+00;  3.5905579E-04;  9.9709501E+00;  4.0902033E-01; -2.5826921E+00;3;  5.2423496E-03;  0.0000000E+00; -3.1098723E-05;  0.0000000E+00;  0.0000000E+00;  0.0000000E+00;0;  1.2184942E-02;  9.6011650E+01;  0.0000000E+00; -1.0941403E-01;  1.0000000E+02;  0.0000000E+00;  9.9039200E+01;  9.3384990E-03;  0.0000000E+00;  2.8464429E-03;  0.0000000E+00;
