TimeStep;Np;Nbound;Nfixed;Nmoving;Nfloat;Nfluid
6.50108;637;165;165;0;0;472

Pos.x;Pos.y;Pos.z;Idp;Vel.x;Vel.y;Vel.z;Rhop;Mass;Press;Type;Acec.x;Acec.y;Acec.z;AceVisc.x;AceVisc.y;AceVisc.z;CellOffSpring;GradVel;Qfxx;Qfxy;Qfxz;Qfyy;Qfyz;Qfzz;StrainDot.x;StrainDot.y;StrainDot.z;VonMises3D;
 -1.0000000E+00;  9.9999998E-03; -2.0000000E+00;0;  0.0000000E+00;  0.0000000E+00;  0.0000000E+00;  1.0000000E+01;  4.0000001E-01;  0.0000000E+00;0;  0.0000000E+00;  0.0000000E+00;  0.0000000E+00;  0.0000000E+00;  0.0000000E+00;  0.0000000E+00;0; -1.3253785E-07;  1.0000000E+02;  0.0000000E+00;  0.0000000E+00;  1.0000000E+02;  0.0000000E+00;  1.0000000E+02;  2.0906461E-07;  0.0000000E+00; -3.4160246E-07;  0.0000000E+00;
 -8.0000001E-01;  9.9999998E-03; -2.0000000E+00;21;  0.0000000E+00;  0.0000000E+00;  0.0000000E+00;  1.0000000E+01;  4.0000001E-01;  0.0000000E+00;0;  0.0000000E+00;  0.0000000E+00;  0.0000000E+00;  0.0000000E+00;  0.0000000E+00;  0.0000000E+00;0; -1.2438295E-07;  1.0000000E+02;  0.0000000E+00;  0.0000000E+00;  1.0000000E+02;  0.0000000E+00;  1.0000000E+02;  7.2125897E-07;  0.0000000E+00; -8.4564192E-07;  0.0000000E+00;
 -6.0000002E-01;  9.9999998E-03; -2.0000000E+00;42;  0.0000000E+00;  0.0000000E+00;  0.0000000E+00;  1.0000000E+01;  4.0000001E-01;  0.0000000E+00;0;  0.0000000E+00;  0.0000000E+00;  0.0000000E+00;  0.0000000E+00;  0.0000000E+00;  0.0000000E+00;0;  1.0134136E-07;  1.0000000E+02;  0.0000000E+00;  0.0000000E+00;  1.0000000E+02;  0.0000000E+00;  1.0000000E+02;  1.4481997E-06;  0.0000000E+00; -1.3468583E-06;  0.0000000E+00;
 -4.0000001E-01;  9.9999998E-03; -2.0000000E+00;63;  0.0000000E+00;  0.0000000E+00;  0.0000000E+00;  1.0000092E+01;  4.0000001E-01;  9.8762605E-03;0;  0.0000000E+00;  0.0000000E+00;  0.0000000E+00;  0.0000000E+00;  0.0000000E+00;  0.0000000E+00;0;  8.6275907E-07;  1.0000000E+02;  0.0000000E+00;  0.0000000E+00;  1.0000000E+02;  0.0000000E+00;  1.0000000E+02;  2.2353290E-06;  0.0000000E+00; -1.3725700E-06;  0.0000000E+00;
 -2.0000000E-01;  9.9999998E-03; -2.0000000E+00;84;  0.0000000E+00;  0.0000000E+00;  0.0000000E+00;  1.0000140E+01;  4.0000001E-01;  1.5135047E-02;0;  0.0000000E+00;  0.0000000E+00;  0.0000000E+00;  0.0000000E+00;  0.0000000E+00;  0.0000000E+00;0;  3.7343589E-06;  1.0000000E+02;  0.0000000E+00;  0.0000000E+00;  1.0000000E+02;  0.0000000E+00;  1.0000000E+02;  4.1498165E-06;  0.0000000E+00; -4.1545769E-07;  0.0000000E+00;
  0.0000000E+00;  9.9999998E-03; -2.0000000E+00;105;  0.0000000E+00;  0.0000000E+00;  0.0000000E+00;  1.0000150E+01;  4.0000001E-01;  1.6161148E-02;0;  0.0000000E+00;  0.0000000E+00;  0.0000000E+00;  0.0000000E+00;  0.0000000E+00;  0.0000000E+00;0;  1.1603481E-05;  1.0000000E+02;  0.0000000E+00;  0.0000000E+00;  1.0000000E+02;  0.0000000E+00;  1.0000000E+02;  9.9127319E-06;  0.0000000E+00;  1.6907493E-06;  0.0000000E+00;
  2.0000000E-01;  9.9999998E-03; -2.0000000E+00;115;  0.0000000E+00;  0.0000000E+00;  0.0000000E+00;  1.0000000E+01;  4.0000001E-01;  0.0000000E+00;0;  0.0000000E+00;  0.0000000E+00;  0.0000000E+00;  0.0000000E+00;  0.0000000E+00;  0.0000000E+00;0;  2.8932647E-05;  1.0000000E+02;  0.0000000E+00;  0.0000000E+00;  1.0000000E+02;  0.0000000E+00;  1.0000000E+02;  2.4661715E-05;  0.0000000E+00;  4.2709321E-06;  0.0000000E+00;
  4.0000001E-01;  9.9999998E-03; -2.0000000E+00;125;  0.0000000E+00;  0.0000000E+00;  0.0000000E+00;  1.0000000E+01;  4.0000001E-01;  0.0000000E+00;0;  0.0000000E+00;  0.0000000E+00;  0.0000000E+00;  0.0000000E+00;  0.0000000E+00;  0.0000000E+00;0;  6.3020969E-05;  1.0000000E+02;  0.0000000E+00;  0.0000000E+00;  1.0000000E+02;  0.0000000E+00;  1.0000000E+02;  5.7137622E-05;  0.0000000E+00;  5.8833439E-06;  0.0000000E+00;
  6.0000002E-01;  9.9999998E-03; -2.0000000E+00;135;  0.0000000E+00;  0.0000000E+00;  0.0000000E+00;  1.0000000E+01;  4.0000001E-01;  0.0000000E+00;0;  0.0000000E+00;  0.0000000E+00;  0.0000000E+00;  0.0000000E+00;  0.0000000E+00;  0.0000000E+00;0;  1.2376656E-04;  1.0000000E+02;  0.0000000E+00;  0.0000000E+00;  1.0000000E+02;  0.0000000E+00;  1.0000000E+02;  1.1884765E-04;  0.0000000E+00;  4.9189048E-06;  0.0000000E+00;
  8.0000001E-01;  9.9999998E-03; -2.0000000E+00;145;  0.0000000E+00;  0.0000000E+00;  0.0000000E+00;  1.0000000E+01;  4.0000001E-01;  0.0000000E+00;0;  0.0000000E+00;  0.0000000E+00;  0.0000000E+00;  0.0000000E+00;  0.0000000E+00;  0.0000000E+00;0;  2.1582816E-04;  1.0000000E+02;  0.0000000E+00;  0.0000000E+00;  1.0000000E+02;  0.0000000E+00;  1.0000000E+02;  2.1594706E-04;  0.0000000E+00; -1.1890300E-07;  0.0000000E+00;
  1.0000000E+00;  9.9999998E-03; -2.0000000E+00;155;  0.0000000E+00;  0.0000000E+00;  0.0000000E+00;  1.0000000E+01;  4.0000001E-01;  0.0000000E+00;0;  0.0000000E+00;  0.0000000E+00;  0.0000000E+00;  0.0000000E+00;  0.0000000E+00;  0.0000000E+00;0;  3.1823659E-04;  1.0000000E+02;  0.0000000E+00;  0.0000000E+00;  1.0000000E+02;  0.0000000E+00;  1.0000000E+02;  3.2913688E-04;  0.0000000E+00; -1.0900282E-05;  0.0000000E+00;
 -1.0000000E+00;  9.9999998E-03; -1.8000000E+00;1;  0.0000000E+00;  0.0000000E+00;  0.0000000E+00;  1.0000000E+01;  4.0000001E-01;  0.0000000E+00;0;  0.0000000E+00;  0.0000000E+00;  0.0000000E+00;  0.0000000E+00;  0.0000000E+00;  0.0000000E+00;0; -1.9477653E-07;  1.0000000E+02;  0.0000000E+00;  0.0000000E+00;  1.0000000E+02;  0.0000000E+00;  1.0000000E+02;  7.4315233E-07;  0.0000000E+00; -9.3792886E-07;  0.0000000E+00;
 -1.0000000E+00;  9.9999998E-03; -1.6000000E+00;2;  0.0000000E+00;  0.0000000E+00;  0.0000000E+00;  1.0000038E+01;  4.0000001E-01;  4.1044205E-03;0;  0.0000000E+00;  0.0000000E+00;  0.0000000E+00;  0.0000000E+00;  0.0000000E+00;  0.0000000E+00;0;  3.3538720E-07;  1.0000000E+02;  0.0000000E+00;  0.0000000E+00;  1.0000000E+02;  0.0000000E+00;  1.0000000E+02;  1.8990354E-06;  0.0000000E+00; -1.5636482E-06;  0.0000000E+00;
 -1.0000000E+00;  9.9999998E-03; -1.4000000E+00;3;  0.0000000E+00;  0.0000000E+00;  0.0000000E+00;  1.0000267E+01;  4.0000001E-01;  2.8730944E-02;0;  0.0000000E+00;  0.0000000E+00;  0.0000000E+00;  0.0000000E+00;  0.0000000E+00;  0.0000000E+00;0;  2.1182973E-06;  1.0000000E+02;  0.0000000E+00;  0.0000000E+00;  1.0000000E+02;  0.0000000E+00;  1.0000000E+02;  4.0588207E-06;  0.0000000E+00; -1.9405234E-06;  0.0000000E+00;
 -1.0000000E+00;  9.9999998E-03; -1.2000000E+00;4;  0.0000000E+00;  0.0000000E+00;  0.0000000E+00;  1.0000500E+01;  4.0000001E-01;  5.3742256E-02;0;  0.0000000E+00;  0.0000000E+00;  0.0000000E+00;  0.0000000E+00;  0.0000000E+00;  0.0000000E+00;0;  5.7267512E-06;  1.0000000E+02;  0.0000000E+00;  0.0000000E+00;  1.0000000E+02;  0.0000000E+00;  1.0000000E+02;  7.6335737E-06;  0.0000000E+00; -1.9068225E-06;  0.0000000E+00;
 -1.0000000E+00;  9.9999998E-03; -1.0000000E+00;5;  0.0000000E+00;  0.0000000E+00;  0.0000000E+00;  1.0000754E+01;  4.0000001E-01;  8.1190571E-02;0;  0.0000000E+00;  0.0000000E+00;  0.0000000E+00;  0.0000000E+00;  0.0000000E+00;  0.0000000E+00;0;  1.1464015E-05;  1.0000000E+02;  0.0000000E+00;  0.0000000E+00;  1.0000000E+02;  0.0000000E+00;  1.0000000E+02;  1.2868784E-05;  0.0000000E+00; -1.4047694E-06;  0.0000000E+00;
 -1.0000000E+00;  9.9999998E-03; -8.0000001E-01;6;  0.0000000E+00;  0.0000000E+00;  0.0000000E+00;  1.0001022E+01;  4.0000001E-01;  1.1004978E-01;0;  0.0000000E+00;  0.0000000E+00;  0.0000000E+00;  0.0000000E+00;  0.0000000E+00;  0.0000000E+00;0;  1.9154311E-05;  1.0000000E+02;  0.0000000E+00;  0.0000000E+00;  1.0000000E+02;  0.0000000E+00;  1.0000000E+02;  1.9635565E-05;  0.0000000E+00; -4.8125315E-07;  0.0000000E+00;
 -1.0000000E+00;  9.9999998E-03; -6.0000002E-01;7;  0.0000000E+00;  0.0000000E+00;  0.0000000E+00;  1.0000194E+01;  4.0000001E-01;  2.0778630E-02;0;  0.0000000E+00;  0.0000000E+00;  0.0000000E+00;  0.0000000E+00;  0.0000000E+00;  0.0000000E+00;0;  2.7925027E-05;  1.0000000E+02;  0.0000000E+00;  0.0000000E+00;  1.0000000E+02;  0.0000000E+00;  1.0000000E+02;  2.7244812E-05;  0.0000000E+00;  6.8021404E-07;  0.0000000E+00;
 -1.0000000E+00;  9.9999998E-03; -4.0000001E-01;8;  0.0000000E+00;  0.0000000E+00;  0.0000000E+00;  1.0000000E+01;  4.0000001E-01;  0.0000000E+00;0;  0.0000000E+00;  0.0000000E+00;  0.0000000E+00;  0.0000000E+00;  0.0000000E+00;  0.0000000E+00;0;  3.6212496E-05;  1.0000000E+02;  0.0000000E+00;  0.0000000E+00;  1.0000000E+02;  0.0000000E+00;  1.0000000E+02;  3.4436904E-05;  0.0000000E+00;  1.7755922E-06;  0.0000000E+00;
 -1.0000000E+00;  9.9999998E-03; -2.0000000E-01;9;  0.0000000E+00;  0.0000000E+00;  0.0000000E+00;  1.0000000E+01;  4.0000001E-01;  0.0000000E+00;0;  0.0000000E+00;  0.0000000E+00;  0.0000000E+00;  0.0000000E+00;  0.0000000E+00;  0.0000000E+00;0;  4.2181891E-05;  1.0000000E+02;  0.0000000E+00;  0.0000000E+00;  1.0000000E+02;  0.0000000E+00;  1.0000000E+02;  3.9659211E-05;  0.0000000E+00;  2.5226818E-06;  0.0000000E+00;
 -8.0000001E-01;  9.9999998E-03; -1.8000000E+00;22;  0.0000000E+00;  0.0000000E+00;  0.0000000E+00;  1.0000087E+01;  4.0000001E-01;  9.3632098E-03;0;  0.0000000E+00;  0.0000000E+00;  0.0000000E+00;  0.0000000E+00;  0.0000000E+00;  0.0000000E+00;0;  1.7535717E-07;  1.0000000E+02;  0.0000000E+00;  0.0000000E+00;  1.0000000E+02;  0.0000000E+00;  1.0000000E+02;  2.0921771E-06;  0.0000000E+00; -1.9168199E-06;  0.0000000E+00;
 -8.0000001E-01;  9.9999998E-03; -1.6000000E+00;23;  0.0000000E+00;  0.0000000E+00;  0.0000000E+00;  1.0000361E+01;  4.0000001E-01;  3.8863733E-02;0;  0.0000000E+00;  0.0000000E+00;  0.0000000E+00;  0.0000000E+00;  0.0000000E+00;  0.0000000E+00;0;  1.7401264E-06;  1.0000000E+02;  0.0000000E+00;  0.0000000E+00;  1.0000000E+02;  0.0000000E+00;  1.0000000E+02;  4.6336454E-06;  0.0000000E+00; -2.8935190E-06;  0.0000000E+00;
 -8.0000001E-01;  9.9999998E-03; -1.4000000E+00;24;  0.0000000E+00;  0.0000000E+00;  0.0000000E+00;  1.0000714E+01;  4.0000001E-01;  7.6829620E-02;0;  0.0000000E+00;  0.0000000E+00;  0.0000000E+00;  0.0000000E+00;  0.0000000E+00;  0.0000000E+00;0;  5.5545424E-06;  1.0000000E+02;  0.0000000E+00;  0.0000000E+00;  1.0000000E+02;  0.0000000E+00;  1.0000000E+02;  8.9308487E-06;  0.0000000E+00; -3.3763065E-06;  0.0000000E+00;
 -8.0000001E-01;  9.9999998E-03; -1.2000000E+00;25;  0.0000000E+00;  0.0000000E+00;  0.0000000E+00;  1.0001216E+01;  4.0000001E-01;  1.3082841E-01;0;  0.0000000E+00;  0.0000000E+00;  0.0000000E+00;  0.0000000E+00;  0.0000000E+00;  0.0000000E+00;0;  1.2443653E-05;  1.0000000E+02;  0.0000000E+00;  0.0000000E+00;  1.0000000E+02;  0.0000000E+00;  1.0000000E+02;  1.5667762E-05;  0.0000000E+00; -3.2241087E-06;  0.0000000E+00;
 -8.0000001E-01;  9.9999998E-03; -1.0000000E+00;26;  0.0000000E+00;  0.0000000E+00;  0.0000000E+00;  1.0001319E+01;  4.0000001E-01;  1.4185904E-01;0;  0.0000000E+00;  0.0000000E+00;  0.0000000E+00;  0.0000000E+00;  0.0000000E+00;  0.0000000E+00;0;  2.2833154E-05;  1.0000000E+02;  0.0000000E+00;  0.0000000E+00;  1.0000000E+02;  0.0000000E+00;  1.0000000E+02;  2.5215693E-05;  0.0000000E+00; -2.3825392E-06;  0.0000000E+00;
 -8.0000001E-01;  9.9999998E-03; -8.0000001E-01;27;  0.0000000E+00;  0.0000000E+00;  0.0000000E+00;  1.0000896E+01;  4.0000001E-01;  9.6325621E-02;0;  0.0000000E+00;  0.0000000E+00;  0.0000000E+00;  0.0000000E+00;  0.0000000E+00;  0.0000000E+00;0;  3.6488542E-05;  1.0000000E+02;  0.0000000E+00;  0.0000000E+00;  1.0000000E+02;  0.0000000E+00;  1.0000000E+02;  3.7365091E-05;  0.0000000E+00; -8.7654900E-07;  0.0000000E+00;
 -8.0000001E-01;  9.9999998E-03; -6.0000002E-01;28;  0.0000000E+00;  0.0000000E+00;  0.0000000E+00;  1.0001232E+01;  4.0000001E-01;  1.3262409E-01;0;  0.0000000E+00;  0.0000000E+00;  0.0000000E+00;  0.0000000E+00;  0.0000000E+00;  0.0000000E+00;0;  5.2111340E-05;  1.0000000E+02;  0.0000000E+00;  0.0000000E+00;  1.0000000E+02;  0.0000000E+00;  1.0000000E+02;  5.1009225E-05;  0.0000000E+00;  1.1021157E-06;  0.0000000E+00;
 -8.0000001E-01;  9.9999998E-03; -4.0000001E-01;29;  0.0000000E+00;  0.0000000E+00;  0.0000000E+00;  1.0001004E+01;  4.0000001E-01;  1.0799757E-01;0;  0.0000000E+00;  0.0000000E+00;  0.0000000E+00;  0.0000000E+00;  0.0000000E+00;  0.0000000E+00;0;  6.7104520E-05;  1.0000000E+02;  0.0000000E+00;  0.0000000E+00;  1.0000000E+02;  0.0000000E+00;  1.0000000E+02;  6.3971078E-05;  0.0000000E+00;  3.1334430E-06;  0.0000000E+00;
 -8.0000001E-01;  9.9999998E-03; -2.0000000E-01;30;  0.0000000E+00;  0.0000000E+00;  0.0000000E+00;  1.0000497E+01;  4.0000001E-01;  5.3485729E-02;0;  0.0000000E+00;  0.0000000E+00;  0.0000000E+00;  0.0000000E+00;  0.0000000E+00;  0.0000000E+00;0;  7.8060904E-05;  1.0000000E+02;  0.0000000E+00;  0.0000000E+00;  1.0000000E+02;  0.0000000E+00;  1.0000000E+02;  7.3386625E-05;  0.0000000E+00;  4.6742780E-06;  0.0000000E+00;
 -6.0000002E-01;  9.9999998E-03; -1.8000000E+00;43;  0.0000000E+00;  0.0000000E+00;  0.0000000E+00;  1.0000278E+01;  4.0000001E-01;  3.0013576E-02;0;  0.0000000E+00;  0.0000000E+00;  0.0000000E+00;  0.0000000E+00;  0.0000000E+00;  0.0000000E+00;0;  8.9916261E-07;  1.0000000E+02;  0.0000000E+00;  0.0000000E+00;  1.0000000E+02;  0.0000000E+00;  1.0000000E+02;  3.6014012E-06;  0.0000000E+00; -2.7022386E-06;  0.0000000E+00;
 -6.0000002E-01;  9.9999998E-03; -1.6000000E+00;44;  0.0000000E+00;  0.0000000E+00;  0.0000000E+00;  1.0000634E+01;  4.0000001E-01;  6.8235993E-02;0;  0.0000000E+00;  0.0000000E+00;  0.0000000E+00;  0.0000000E+00;  0.0000000E+00;  0.0000000E+00;0;  3.6175265E-06;  1.0000000E+02;  0.0000000E+00;  0.0000000E+00;  1.0000000E+02;  0.0000000E+00;  1.0000000E+02;  7.5324069E-06;  0.0000000E+00; -3.9148804E-06;  0.0000000E+00;
 -6.0000002E-01;  9.9999998E-03; -1.4000000E+00;45;  0.0000000E+00;  0.0000000E+00;  0.0000000E+00;  1.0001203E+01;  4.0000001E-01;  1.2941751E-01;0;  0.0000000E+00;  0.0000000E+00;  0.0000000E+00;  0.0000000E+00;  0.0000000E+00;  0.0000000E+00;0;  9.2459668E-06;  1.0000000E+02;  0.0000000E+00;  0.0000000E+00;  1.0000000E+02;  0.0000000E+00;  1.0000000E+02;  1.3792999E-05;  0.0000000E+00; -4.5470329E-06;  0.0000000E+00;
 -6.0000002E-01;  9.9999998E-03; -1.2000000E+00;46;  0.0000000E+00;  0.0000000E+00;  0.0000000E+00;  1.0001933E+01;  4.0000001E-01;  2.0804282E-01;0;  0.0000000E+00;  0.0000000E+00;  0.0000000E+00;  0.0000000E+00;  0.0000000E+00;  0.0000000E+00;0;  1.8482846E-05;  1.0000000E+02;  0.0000000E+00;  0.0000000E+00;  1.0000000E+02;  0.0000000E+00;  1.0000000E+02;  2.2903438E-05;  0.0000000E+00; -4.4205913E-06;  0.0000000E+00;
 -6.0000002E-01;  9.9999998E-03; -1.0000000E+00;47;  0.0000000E+00;  0.0000000E+00;  0.0000000E+00;  1.0001472E+01;  4.0000001E-01;  1.5827672E-01;0;  0.0000000E+00;  0.0000000E+00;  0.0000000E+00;  0.0000000E+00;  0.0000000E+00;  0.0000000E+00;0;  3.1747975E-05;  1.0000000E+02;  0.0000000E+00;  0.0000000E+00;  1.0000000E+02;  0.0000000E+00;  1.0000000E+02;  3.5140027E-05;  0.0000000E+00; -3.3920526E-06;  0.0000000E+00;
 -6.0000002E-01;  9.9999998E-03; -8.0000001E-01;48;  0.0000000E+00;  0.0000000E+00;  0.0000000E+00;  1.0002120E+01;  4.0000001E-01;  2.2805187E-01;0;  0.0000000E+00;  0.0000000E+00;  0.0000000E+00;  0.0000000E+00;  0.0000000E+00;  0.0000000E+00;0;  4.8876453E-05;  1.0000000E+02;  0.0000000E+00;  0.0000000E+00;  1.0000000E+02;  0.0000000E+00;  1.0000000E+02;  5.0269675E-05;  0.0000000E+00; -1.3932226E-06;  0.0000000E+00;
 -6.0000002E-01;  9.9999998E-03; -6.0000002E-01;49;  0.0000000E+00;  0.0000000E+00;  0.0000000E+00;  1.0002254E+01;  4.0000001E-01;  2.4254560E-01;0;  0.0000000E+00;  0.0000000E+00;  0.0000000E+00;  0.0000000E+00;  0.0000000E+00;  0.0000000E+00;0;  6.8652676E-05;  1.0000000E+02;  0.0000000E+00;  0.0000000E+00;  1.0000000E+02;  0.0000000E+00;  1.0000000E+02;  6.7258967E-05;  0.0000000E+00;  1.3937082E-06;  0.0000000E+00;
 -6.0000002E-01;  9.9999998E-03; -4.0000001E-01;50;  0.0000000E+00;  0.0000000E+00;  0.0000000E+00;  1.0001756E+01;  4.0000001E-01;  1.8893161E-01;0;  0.0000000E+00;  0.0000000E+00;  0.0000000E+00;  0.0000000E+00;  0.0000000E+00;  0.0000000E+00;0;  8.8151646E-05;  1.0000000E+02;  0.0000000E+00;  0.0000000E+00;  1.0000000E+02;  0.0000000E+00;  1.0000000E+02;  8.3748957E-05;  0.0000000E+00;  4.4026856E-06;  0.0000000E+00;
 -6.0000002E-01;  9.9999998E-03; -2.0000000E-01;51;  0.0000000E+00;  0.0000000E+00;  0.0000000E+00;  1.0001616E+01;  4.0000001E-01;  1.7392482E-01;0;  0.0000000E+00;  0.0000000E+00;  0.0000000E+00;  0.0000000E+00;  0.0000000E+00;  0.0000000E+00;0;  1.0290669E-04;  1.0000000E+02;  0.0000000E+00;  0.0000000E+00;  1.0000000E+02;  0.0000000E+00;  1.0000000E+02;  9.6122880E-05;  0.0000000E+00;  6.7838150E-06;  0.0000000E+00;
 -4.0000001E-01;  9.9999998E-03; -1.8000000E+00;64;  0.0000000E+00;  0.0000000E+00;  0.0000000E+00;  1.0000381E+01;  4.0000001E-01;  4.0915936E-02;0;  0.0000000E+00;  0.0000000E+00;  0.0000000E+00;  0.0000000E+00;  0.0000000E+00;  0.0000000E+00;0;  2.9984935E-06;  1.0000000E+02;  0.0000000E+00;  0.0000000E+00;  1.0000000E+02;  0.0000000E+00;  1.0000000E+02;  5.5797877E-06;  0.0000000E+00; -2.5812942E-06;  0.0000000E+00;
 -4.0000001E-01;  9.9999998E-03; -1.6000000E+00;65;  0.0000000E+00;  0.0000000E+00;  0.0000000E+00;  1.0000803E+01;  4.0000001E-01;  8.6449347E-02;0;  0.0000000E+00;  0.0000000E+00;  0.0000000E+00;  0.0000000E+00;  0.0000000E+00;  0.0000000E+00;0;  7.5900525E-06;  1.0000000E+02;  0.0000000E+00;  0.0000000E+00;  1.0000000E+02;  0.0000000E+00;  1.0000000E+02;  1.1398993E-05;  0.0000000E+00; -3.8089404E-06;  0.0000000E+00;
 -4.0000001E-01;  9.9999998E-03; -1.4000000E+00;66;  0.0000000E+00;  0.0000000E+00;  0.0000000E+00;  1.0001434E+01;  4.0000001E-01;  1.5430054E-01;0;  0.0000000E+00;  0.0000000E+00;  0.0000000E+00;  0.0000000E+00;  0.0000000E+00;  0.0000000E+00;0;  1.5209915E-05;  1.0000000E+02;  0.0000000E+00;  0.0000000E+00;  1.0000000E+02;  0.0000000E+00;  1.0000000E+02;  1.9927938E-05;  0.0000000E+00; -4.7180242E-06;  0.0000000E+00;
 -4.0000001E-01;  9.9999998E-03; -1.2000000E+00;67;  0.0000000E+00;  0.0000000E+00;  0.0000000E+00;  1.0000875E+01;  4.0000001E-01;  9.4145134E-02;0;  0.0000000E+00;  0.0000000E+00;  0.0000000E+00;  0.0000000E+00;  0.0000000E+00;  0.0000000E+00;0;  2.5786532E-05;  1.0000000E+02;  0.0000000E+00;  0.0000000E+00;  1.0000000E+02;  0.0000000E+00;  1.0000000E+02;  3.0782241E-05;  0.0000000E+00; -4.9957093E-06;  0.0000000E+00;
 -4.0000001E-01;  9.9999998E-03; -1.0000000E+00;68;  0.0000000E+00;  0.0000000E+00;  0.0000000E+00;  1.0001820E+01;  4.0000001E-01;  1.9572954E-01;0;  0.0000000E+00;  0.0000000E+00;  0.0000000E+00;  0.0000000E+00;  0.0000000E+00;  0.0000000E+00;0;  3.9115686E-05;  1.0000000E+02;  0.0000000E+00;  0.0000000E+00;  1.0000000E+02;  0.0000000E+00;  1.0000000E+02;  4.3312382E-05;  0.0000000E+00; -4.1966978E-06;  0.0000000E+00;
 -4.0000001E-01;  9.9999998E-03; -8.0000001E-01;69;  0.0000000E+00;  0.0000000E+00;  0.0000000E+00;  1.0002816E+01;  4.0000001E-01;  3.0295750E-01;0;  0.0000000E+00;  0.0000000E+00;  0.0000000E+00;  0.0000000E+00;  0.0000000E+00;  0.0000000E+00;0;  5.4965112E-05;  1.0000000E+02;  0.0000000E+00;  0.0000000E+00;  1.0000000E+02;  0.0000000E+00;  1.0000000E+02;  5.6997422E-05;  0.0000000E+00; -2.0323105E-06;  0.0000000E+00;
 -4.0000001E-01;  9.9999998E-03; -6.0000002E-01;70;  0.0000000E+00;  0.0000000E+00;  0.0000000E+00;  1.0002485E+01;  4.0000001E-01;  2.6742861E-01;0;  0.0000000E+00;  0.0000000E+00;  0.0000000E+00;  0.0000000E+00;  0.0000000E+00;  0.0000000E+00;0;  7.2861389E-05;  1.0000000E+02;  0.0000000E+00;  0.0000000E+00;  1.0000000E+02;  0.0000000E+00;  1.0000000E+02;  7.1562528E-05;  0.0000000E+00;  1.2988629E-06;  0.0000000E+00;
 -4.0000001E-01;  9.9999998E-03; -4.0000001E-01;71;  0.0000000E+00;  0.0000000E+00;  0.0000000E+00;  1.0002840E+01;  4.0000001E-01;  3.0552277E-01;0;  0.0000000E+00;  0.0000000E+00;  0.0000000E+00;  0.0000000E+00;  0.0000000E+00;  0.0000000E+00;0;  9.0879039E-05;  1.0000000E+02;  0.0000000E+00;  0.0000000E+00;  1.0000000E+02;  0.0000000E+00;  1.0000000E+02;  8.5898173E-05;  0.0000000E+00;  4.9808650E-06;  0.0000000E+00;
 -4.0000001E-01;  9.9999998E-03; -2.0000000E-01;72;  0.0000000E+00;  0.0000000E+00;  0.0000000E+00;  1.0002817E+01;  4.0000001E-01;  3.0308577E-01;0;  0.0000000E+00;  0.0000000E+00;  0.0000000E+00;  0.0000000E+00;  0.0000000E+00;  0.0000000E+00;0;  1.0489726E-04;  1.0000000E+02;  0.0000000E+00;  0.0000000E+00;  1.0000000E+02;  0.0000000E+00;  1.0000000E+02;  9.7085060E-05;  0.0000000E+00;  7.8122039E-06;  0.0000000E+00;
 -2.0000000E-01;  9.9999998E-03; -1.8000000E+00;85;  0.0000000E+00;  0.0000000E+00;  0.0000000E+00;  1.0000424E+01;  4.0000001E-01;  4.5661669E-02;0;  0.0000000E+00;  0.0000000E+00;  0.0000000E+00;  0.0000000E+00;  0.0000000E+00;  0.0000000E+00;0;  9.7610309E-06;  1.0000000E+02;  0.0000000E+00;  0.0000000E+00;  1.0000000E+02;  0.0000000E+00;  1.0000000E+02;  1.0571035E-05;  0.0000000E+00; -8.1000422E-07;  0.0000000E+00;
 -2.0000000E-01;  9.9999998E-03; -1.6000000E+00;86;  0.0000000E+00;  0.0000000E+00;  0.0000000E+00;  1.0000000E+01;  4.0000001E-01;  0.0000000E+00;0;  0.0000000E+00;  0.0000000E+00;  0.0000000E+00;  0.0000000E+00;  0.0000000E+00;  0.0000000E+00;0;  1.9266434E-05;  1.0000000E+02;  0.0000000E+00;  0.0000000E+00;  1.0000000E+02;  0.0000000E+00;  1.0000000E+02;  2.0964910E-05;  0.0000000E+00; -1.6984761E-06;  0.0000000E+00;
 -2.0000000E-01;  9.9999998E-03; -1.4000000E+00;87;  0.0000000E+00;  0.0000000E+00;  0.0000000E+00;  1.0000000E+01;  4.0000001E-01;  0.0000000E+00;0;  0.0000000E+00;  0.0000000E+00;  0.0000000E+00;  0.0000000E+00;  0.0000000E+00;  0.0000000E+00;0;  3.1477302E-05;  1.0000000E+02;  0.0000000E+00;  0.0000000E+00;  1.0000000E+02;  0.0000000E+00;  1.0000000E+02;  3.4492674E-05;  0.0000000E+00; -3.0153722E-06;  0.0000000E+00;
 -2.0000000E-01;  9.9999998E-03; -1.2000000E+00;88;  0.0000000E+00;  0.0000000E+00;  0.0000000E+00;  1.0000223E+01;  4.0000001E-01;  2.3985201E-02;0;  0.0000000E+00;  0.0000000E+00;  0.0000000E+00;  0.0000000E+00;  0.0000000E+00;  0.0000000E+00;0;  4.4326338E-05;  1.0000000E+02;  0.0000000E+00;  0.0000000E+00;  1.0000000E+02;  0.0000000E+00;  1.0000000E+02;  4.8593942E-05;  0.0000000E+00; -4.2676029E-06;  0.0000000E+00;
 -2.0000000E-01;  9.9999998E-03; -1.0000000E+00;89;  0.0000000E+00;  0.0000000E+00;  0.0000000E+00;  1.0000089E+01;  4.0000001E-01;  9.4914706E-03;0;  0.0000000E+00;  0.0000000E+00;  0.0000000E+00;  0.0000000E+00;  0.0000000E+00;  0.0000000E+00;0;  5.5717384E-05;  1.0000000E+02;  0.0000000E+00;  0.0000000E+00;  1.0000000E+02;  0.0000000E+00;  1.0000000E+02;  6.0152332E-05;  0.0000000E+00; -4.4349467E-06;  0.0000000E+00;
 -2.0000000E-01;  9.9999998E-03; -8.0000001E-01;90;  0.0000000E+00;  0.0000000E+00;  0.0000000E+00;  1.0000890E+01;  4.0000001E-01;  9.5684282E-02;0;  0.0000000E+00;  0.0000000E+00;  0.0000000E+00;  0.0000000E+00;  0.0000000E+00;  0.0000000E+00;0;  6.4749533E-05;  1.0000000E+02;  0.0000000E+00;  0.0000000E+00;  1.0000000E+02;  0.0000000E+00;  1.0000000E+02;  6.7545341E-05;  0.0000000E+00; -2.7958106E-06;  0.0000000E+00;
 -2.0000000E-01;  9.9999998E-03; -6.0000002E-01;91;  0.0000000E+00;  0.0000000E+00;  0.0000000E+00;  1.0001850E+01;  4.0000001E-01;  1.9906434E-01;0;  0.0000000E+00;  0.0000000E+00;  0.0000000E+00;  0.0000000E+00;  0.0000000E+00;  0.0000000E+00;0;  7.2421906E-05;  1.0000000E+02;  0.0000000E+00;  0.0000000E+00;  1.0000000E+02;  0.0000000E+00;  1.0000000E+02;  7.2003560E-05;  0.0000000E+00;  4.1834321E-07;  0.0000000E+00;
 -2.0000000E-01;  9.9999998E-03; -4.0000001E-01;92;  0.0000000E+00;  0.0000000E+00;  0.0000000E+00;  1.0002454E+01;  4.0000001E-01;  2.6396549E-01;0;  0.0000000E+00;  0.0000000E+00;  0.0000000E+00;  0.0000000E+00;  0.0000000E+00;  0.0000000E+00;0;  7.9646539E-05;  1.0000000E+02;  0.0000000E+00;  0.0000000E+00;  1.0000000E+02;  0.0000000E+00;  1.0000000E+02;  7.5608870E-05;  0.0000000E+00;  4.0376713E-06;  0.0000000E+00;
 -2.0000000E-01;  9.9999998E-03; -2.0000000E-01;93;  0.0000000E+00;  0.0000000E+00;  0.0000000E+00;  1.0002914E+01;  4.0000001E-01;  3.1360331E-01;0;  0.0000000E+00;  0.0000000E+00;  0.0000000E+00;  0.0000000E+00;  0.0000000E+00;  0.0000000E+00;0;  8.5119180E-05;  1.0000000E+02;  0.0000000E+00;  0.0000000E+00;  1.0000000E+02;  0.0000000E+00;  1.0000000E+02;  7.8527519E-05;  0.0000000E+00;  6.5916615E-06;  0.0000000E+00;
  0.0000000E+00;  9.9999998E-03; -1.8000000E+00;106;  0.0000000E+00;  0.0000000E+00;  0.0000000E+00;  1.0000000E+01;  4.0000001E-01;  0.0000000E+00;0;  0.0000000E+00;  0.0000000E+00;  0.0000000E+00;  0.0000000E+00;  0.0000000E+00;  0.0000000E+00;0;  2.6848165E-05;  1.0000000E+02;  0.0000000E+00;  0.0000000E+00;  1.0000000E+02;  0.0000000E+00;  1.0000000E+02;  2.4096809E-05;  0.0000000E+00;  2.7513563E-06;  0.0000000E+00;
  0.0000000E+00;  9.9999998E-03; -1.6000000E+00;107;  0.0000000E+00;  0.0000000E+00;  0.0000000E+00;  1.0000000E+01;  4.0000001E-01;  0.0000000E+00;0;  0.0000000E+00;  0.0000000E+00;  0.0000000E+00;  0.0000000E+00;  0.0000000E+00;  0.0000000E+00;0;  4.8215119E-05;  1.0000000E+02;  0.0000000E+00;  0.0000000E+00;  1.0000000E+02;  0.0000000E+00;  1.0000000E+02;  4.5536144E-05;  0.0000000E+00;  2.6789762E-06;  0.0000000E+00;
  0.0000000E+00;  9.9999998E-03; -1.4000000E+00;108;  0.0000000E+00;  0.0000000E+00;  0.0000000E+00;  1.0000000E+01;  4.0000001E-01;  0.0000000E+00;0;  0.0000000E+00;  0.0000000E+00;  0.0000000E+00;  0.0000000E+00;  0.0000000E+00;  0.0000000E+00;0;  7.2249422E-05;  1.0000000E+02;  0.0000000E+00;  0.0000000E+00;  1.0000000E+02;  0.0000000E+00;  1.0000000E+02;  7.1072012E-05;  0.0000000E+00;  1.1774117E-06;  0.0000000E+00;
  0.0000000E+00;  9.9999998E-03; -1.2000000E+00;109;  0.0000000E+00;  0.0000000E+00;  0.0000000E+00;  1.0000000E+01;  4.0000001E-01;  0.0000000E+00;0;  0.0000000E+00;  0.0000000E+00;  0.0000000E+00;  0.0000000E+00;  0.0000000E+00;  0.0000000E+00;0;  9.2452079E-05;  1.0000000E+02;  0.0000000E+00;  0.0000000E+00;  1.0000000E+02;  0.0000000E+00;  1.0000000E+02;  9.3742558E-05;  0.0000000E+00; -1.2904769E-06;  0.0000000E+00;
  2.0000000E-01;  9.9999998E-03; -1.8000000E+00;116;  0.0000000E+00;  0.0000000E+00;  0.0000000E+00;  1.0000000E+01;  4.0000001E-01;  0.0000000E+00;0;  0.0000000E+00;  0.0000000E+00;  0.0000000E+00;  0.0000000E+00;  0.0000000E+00;  0.0000000E+00;0;  6.3085674E-05;  1.0000000E+02;  0.0000000E+00;  0.0000000E+00;  1.0000000E+02;  0.0000000E+00;  1.0000000E+02;  5.6162138E-05;  0.0000000E+00;  6.9235389E-06;  0.0000000E+00;
  2.0000000E-01;  9.9999998E-03; -1.6000000E+00;117;  0.0000000E+00;  0.0000000E+00;  0.0000000E+00;  1.0000000E+01;  4.0000001E-01;  0.0000000E+00;0;  0.0000000E+00;  0.0000000E+00;  0.0000000E+00;  0.0000000E+00;  0.0000000E+00;  0.0000000E+00;0;  1.0967189E-04;  1.0000000E+02;  0.0000000E+00;  0.0000000E+00;  1.0000000E+02;  0.0000000E+00;  1.0000000E+02;  1.0165323E-04;  0.0000000E+00;  8.0186546E-06;  0.0000000E+00;
  2.0000000E-01;  9.9999998E-03; -1.4000000E+00;118;  0.0000000E+00;  0.0000000E+00;  0.0000000E+00;  1.0000000E+01;  4.0000001E-01;  0.0000000E+00;0;  0.0000000E+00;  0.0000000E+00;  0.0000000E+00;  0.0000000E+00;  0.0000000E+00;  0.0000000E+00;0;  1.6121106E-04;  1.0000000E+02;  0.0000000E+00;  0.0000000E+00;  1.0000000E+02;  0.0000000E+00;  1.0000000E+02;  1.5410013E-04;  0.0000000E+00;  7.1109357E-06;  0.0000000E+00;
  2.0000000E-01;  9.9999998E-03; -1.2000000E+00;119;  0.0000000E+00;  0.0000000E+00;  0.0000000E+00;  1.0000000E+01;  4.0000001E-01;  0.0000000E+00;0;  0.0000000E+00;  0.0000000E+00;  0.0000000E+00;  0.0000000E+00;  0.0000000E+00;  0.0000000E+00;0;  2.0268385E-04;  1.0000000E+02;  0.0000000E+00;  0.0000000E+00;  1.0000000E+02;  0.0000000E+00;  1.0000000E+02;  1.9833961E-04;  0.0000000E+00;  4.3442383E-06;  0.0000000E+00;
  4.0000001E-01;  9.9999998E-03; -1.8000000E+00;126;  0.0000000E+00;  0.0000000E+00;  0.0000000E+00;  1.0000000E+01;  4.0000001E-01;  0.0000000E+00;0;  0.0000000E+00;  0.0000000E+00;  0.0000000E+00;  0.0000000E+00;  0.0000000E+00;  0.0000000E+00;0;  1.3232804E-04;  1.0000000E+02;  0.0000000E+00;  0.0000000E+00;  1.0000000E+02;  0.0000000E+00;  1.0000000E+02;  1.2308783E-04;  0.0000000E+00;  9.2402151E-06;  0.0000000E+00;
  4.0000001E-01;  9.9999998E-03; -1.6000000E+00;127;  0.0000000E+00;  0.0000000E+00;  0.0000000E+00;  1.0000000E+01;  4.0000001E-01;  0.0000000E+00;0;  0.0000000E+00;  0.0000000E+00;  0.0000000E+00;  0.0000000E+00;  0.0000000E+00;  0.0000000E+00;0;  2.2746208E-04;  1.0000000E+02;  0.0000000E+00;  0.0000000E+00;  1.0000000E+02;  0.0000000E+00;  1.0000000E+02;  2.1629236E-04;  0.0000000E+00;  1.1169712E-05;  0.0000000E+00;
  4.0000001E-01;  9.9999998E-03; -1.4000000E+00;128;  0.0000000E+00;  0.0000000E+00;  0.0000000E+00;  1.0000000E+01;  4.0000001E-01;  0.0000000E+00;0;  0.0000000E+00;  0.0000000E+00;  0.0000000E+00;  0.0000000E+00;  0.0000000E+00;  0.0000000E+00;0;  3.3551507E-04;  1.0000000E+02;  0.0000000E+00;  0.0000000E+00;  1.0000000E+02;  0.0000000E+00;  1.0000000E+02;  3.2395835E-04;  0.0000000E+00;  1.1556730E-05;  0.0000000E+00;
  4.0000001E-01;  9.9999998E-03; -1.2000000E+00;129;  0.0000000E+00;  0.0000000E+00;  0.0000000E+00;  1.0000000E+01;  4.0000001E-01;  0.0000000E+00;0;  0.0000000E+00;  0.0000000E+00;  0.0000000E+00;  0.0000000E+00;  0.0000000E+00;  0.0000000E+00;0;  4.3031256E-04;  1.0000000E+02;  0.0000000E+00;  0.0000000E+00;  1.0000000E+02;  0.0000000E+00;  1.0000000E+02;  4.2039939E-04;  0.0000000E+00;  9.9131812E-06;  0.0000000E+00;
  6.0000002E-01;  9.9999998E-03; -1.8000000E+00;136;  0.0000000E+00;  0.0000000E+00;  0.0000000E+00;  1.0000000E+01;  4.0000001E-01;  0.0000000E+00;0;  0.0000000E+00;  0.0000000E+00;  0.0000000E+00;  0.0000000E+00;  0.0000000E+00;  0.0000000E+00;0;  2.5077272E-04;  1.0000000E+02;  0.0000000E+00;  0.0000000E+00;  1.0000000E+02;  0.0000000E+00;  1.0000000E+02;  2.4370964E-04;  0.0000000E+00;  7.0630786E-06;  0.0000000E+00;
  6.0000002E-01;  9.9999998E-03; -1.6000000E+00;137;  0.0000000E+00;  0.0000000E+00;  0.0000000E+00;  1.0000000E+01;  4.0000001E-01;  0.0000000E+00;0;  0.0000000E+00;  0.0000000E+00;  0.0000000E+00;  0.0000000E+00;  0.0000000E+00;  0.0000000E+00;0;  4.2763763E-04;  1.0000000E+02;  0.0000000E+00;  0.0000000E+00;  1.0000000E+02;  0.0000000E+00;  1.0000000E+02;  4.1900732E-04;  0.0000000E+00;  8.6302925E-06;  0.0000000E+00;
  6.0000002E-01;  9.9999998E-03; -1.4000000E+00;138;  0.0000000E+00;  0.0000000E+00;  0.0000000E+00;  1.0000000E+01;  4.0000001E-01;  0.0000000E+00;0;  0.0000000E+00;  0.0000000E+00;  0.0000000E+00;  0.0000000E+00;  0.0000000E+00;  0.0000000E+00;0;  6.4145279E-04;  1.0000000E+02;  0.0000000E+00;  0.0000000E+00;  1.0000000E+02;  0.0000000E+00;  1.0000000E+02;  6.3157565E-04;  0.0000000E+00;  9.8771561E-06;  0.0000000E+00;
  6.0000002E-01;  9.9999998E-03; -1.2000000E+00;139;  0.0000000E+00;  0.0000000E+00;  0.0000000E+00;  1.0000000E+01;  4.0000001E-01;  0.0000000E+00;0;  0.0000000E+00;  0.0000000E+00;  0.0000000E+00;  0.0000000E+00;  0.0000000E+00;  0.0000000E+00;0;  8.5011823E-04;  1.0000000E+02;  0.0000000E+00;  0.0000000E+00;  1.0000000E+02;  0.0000000E+00;  1.0000000E+02;  8.4013725E-04;  0.0000000E+00;  9.9809640E-06;  0.0000000E+00;
  8.0000001E-01;  9.9999998E-03; -1.8000000E+00;146;  0.0000000E+00;  0.0000000E+00;  0.0000000E+00;  1.0000000E+01;  4.0000001E-01;  0.0000000E+00;0;  0.0000000E+00;  0.0000000E+00;  0.0000000E+00;  0.0000000E+00;  0.0000000E+00;  0.0000000E+00;0;  4.1732486E-04;  1.0000000E+02;  0.0000000E+00;  0.0000000E+00;  1.0000000E+02;  0.0000000E+00;  1.0000000E+02;  4.1839466E-04;  0.0000000E+00; -1.0698102E-06;  0.0000000E+00;
  8.0000001E-01;  9.9999998E-03; -1.6000000E+00;147;  0.0000000E+00;  0.0000000E+00;  0.0000000E+00;  1.0000000E+01;  4.0000001E-01;  0.0000000E+00;0;  0.0000000E+00;  0.0000000E+00;  0.0000000E+00;  0.0000000E+00;  0.0000000E+00;  0.0000000E+00;0;  7.1207230E-04;  1.0000000E+02;  0.0000000E+00;  0.0000000E+00;  1.0000000E+02;  0.0000000E+00;  1.0000000E+02;  7.1334105E-04;  0.0000000E+00; -1.2687401E-06;  0.0000000E+00;
  8.0000001E-01;  9.9999998E-03; -1.4000000E+00;148;  0.0000000E+00;  0.0000000E+00;  0.0000000E+00;  1.0000000E+01;  4.0000001E-01;  0.0000000E+00;0;  0.0000000E+00;  0.0000000E+00;  0.0000000E+00;  0.0000000E+00;  0.0000000E+00;  0.0000000E+00;0;  1.0954771E-03;  1.0000000E+02;  0.0000000E+00;  0.0000000E+00;  1.0000000E+02;  0.0000000E+00;  1.0000000E+02;  1.0960792E-03;  0.0000000E+00; -6.0215041E-07;  0.0000000E+00;
  8.0000001E-01;  9.9999998E-03; -1.2000000E+00;149;  0.0000000E+00;  0.0000000E+00;  0.0000000E+00;  1.0000000E+01;  4.0000001E-01;  0.0000000E+00;0;  0.0000000E+00;  0.0000000E+00;  0.0000000E+00;  0.0000000E+00;  0.0000000E+00;  0.0000000E+00;0;  1.4949968E-03;  1.0000000E+02;  0.0000000E+00;  0.0000000E+00;  1.0000000E+02;  0.0000000E+00;  1.0000000E+02;  1.4945518E-03;  0.0000000E+00;  4.4509633E-07;  0.0000000E+00;
  1.0000000E+00;  9.9999998E-03; -1.8000000E+00;156;  0.0000000E+00;  0.0000000E+00;  0.0000000E+00;  1.0000000E+01;  4.0000001E-01;  0.0000000E+00;0;  0.0000000E+00;  0.0000000E+00;  0.0000000E+00;  0.0000000E+00;  0.0000000E+00;  0.0000000E+00;0;  5.9465843E-04;  1.0000000E+02;  0.0000000E+00;  0.0000000E+00;  1.0000000E+02;  0.0000000E+00;  1.0000000E+02;  6.0971297E-04;  0.0000000E+00; -1.5054563E-05;  0.0000000E+00;
  1.0000000E+00;  9.9999998E-03; -1.6000000E+00;157;  0.0000000E+00;  0.0000000E+00;  0.0000000E+00;  1.0000000E+01;  4.0000001E-01;  0.0000000E+00;0;  0.0000000E+00;  0.0000000E+00;  0.0000000E+00;  0.0000000E+00;  0.0000000E+00;  0.0000000E+00;0;  1.0332954E-03;  1.0000000E+02;  0.0000000E+00;  0.0000000E+00;  1.0000000E+02;  0.0000000E+00;  1.0000000E+02;  1.0507460E-03;  0.0000000E+00; -1.7450573E-05;  0.0000000E+00;
  1.0000000E+00;  9.9999998E-03; -1.4000000E+00;158;  0.0000000E+00;  0.0000000E+00;  0.0000000E+00;  1.0000000E+01;  4.0000001E-01;  0.0000000E+00;0;  0.0000000E+00;  0.0000000E+00;  0.0000000E+00;  0.0000000E+00;  0.0000000E+00;  0.0000000E+00;0;  1.6389944E-03;  1.0000000E+02;  0.0000000E+00;  0.0000000E+00;  1.0000000E+02;  0.0000000E+00;  1.0000000E+02;  1.6576536E-03;  0.0000000E+00; -1.8659202E-05;  0.0000000E+00;
  1.0000000E+00;  9.9999998E-03; -1.2000000E+00;159;  0.0000000E+00;  0.0000000E+00;  0.0000000E+00;  1.0000000E+01;  4.0000001E-01;  0.0000000E+00;0;  0.0000000E+00;  0.0000000E+00;  0.0000000E+00;  0.0000000E+00;  0.0000000E+00;  0.0000000E+00;0;  2.2978215E-03;  1.0000000E+02;  0.0000000E+00;  0.0000000E+00;  1.0000000E+02;  0.0000000E+00;  1.0000000E+02;  2.3151804E-03;  0.0000000E+00; -1.7359023E-05;  0.0000000E+00;
 -1.0000000E+00;  9.9999998E-03;  0.0000000E+00;10;  0.0000000E+00;  0.0000000E+00;  0.0000000E+00;  1.0000000E+01;  4.0000001E-01;  0.0000000E+00;0;  0.0000000E+00;  0.0000000E+00;  0.0000000E+00;  0.0000000E+00;  0.0000000E+00;  0.0000000E+00;0;  4.4365024E-05;  1.0000000E+02;  0.0000000E+00;  0.0000000E+00;  1.0000000E+02;  0.0000000E+00;  1.0000000E+02;  4.1581505E-05;  0.0000000E+00;  2.7835194E-06;  0.0000000E+00;
 -1.0000000E+00;  9.9999998E-03;  2.0000000E-01;11;  0.0000000E+00;  0.0000000E+00;  0.0000000E+00;  1.0000000E+01;  4.0000001E-01;  0.0000000E+00;0;  0.0000000E+00;  0.0000000E+00;  0.0000000E+00;  0.0000000E+00;  0.0000000E+00;  0.0000000E+00;0;  4.2181353E-05;  1.0000000E+02;  0.0000000E+00;  0.0000000E+00;  1.0000000E+02;  0.0000000E+00;  1.0000000E+02;  3.9658775E-05;  0.0000000E+00;  2.5225797E-06;  0.0000000E+00;
 -1.0000000E+00;  9.9999998E-03;  4.0000001E-01;12;  0.0000000E+00;  0.0000000E+00;  0.0000000E+00;  1.0000000E+01;  4.0000001E-01;  0.0000000E+00;0;  0.0000000E+00;  0.0000000E+00;  0.0000000E+00;  0.0000000E+00;  0.0000000E+00;  0.0000000E+00;0;  3.6211542E-05;  1.0000000E+02;  0.0000000E+00;  0.0000000E+00;  1.0000000E+02;  0.0000000E+00;  1.0000000E+02;  3.4436118E-05;  0.0000000E+00;  1.7754263E-06;  0.0000000E+00;
 -1.0000000E+00;  9.9999998E-03;  6.0000002E-01;13;  0.0000000E+00;  0.0000000E+00;  0.0000000E+00;  1.0000194E+01;  4.0000001E-01;  2.0778630E-02;0;  0.0000000E+00;  0.0000000E+00;  0.0000000E+00;  0.0000000E+00;  0.0000000E+00;  0.0000000E+00;0;  2.7923863E-05;  1.0000000E+02;  0.0000000E+00;  0.0000000E+00;  1.0000000E+02;  0.0000000E+00;  1.0000000E+02;  2.7243826E-05;  0.0000000E+00;  6.8003715E-07;  0.0000000E+00;
 -1.0000000E+00;  9.9999998E-03;  8.0000001E-01;14;  0.0000000E+00;  0.0000000E+00;  0.0000000E+00;  1.0001022E+01;  4.0000001E-01;  1.1004978E-01;0;  0.0000000E+00;  0.0000000E+00;  0.0000000E+00;  0.0000000E+00;  0.0000000E+00;  0.0000000E+00;0;  1.9153182E-05;  1.0000000E+02;  0.0000000E+00;  0.0000000E+00;  1.0000000E+02;  0.0000000E+00;  1.0000000E+02;  1.9634581E-05;  0.0000000E+00; -4.8139913E-07;  0.0000000E+00;
 -1.0000000E+00;  9.9999998E-03;  1.0000000E+00;15;  0.0000000E+00;  0.0000000E+00;  0.0000000E+00;  1.0000754E+01;  4.0000001E-01;  8.1190571E-02;0;  0.0000000E+00;  0.0000000E+00;  0.0000000E+00;  0.0000000E+00;  0.0000000E+00;  0.0000000E+00;0;  1.1463095E-05;  1.0000000E+02;  0.0000000E+00;  0.0000000E+00;  1.0000000E+02;  0.0000000E+00;  1.0000000E+02;  1.2867963E-05;  0.0000000E+00; -1.4048682E-06;  0.0000000E+00;
 -1.0000000E+00;  9.9999998E-03;  1.2000000E+00;16;  0.0000000E+00;  0.0000000E+00;  0.0000000E+00;  1.0000500E+01;  4.0000001E-01;  5.3742256E-02;0;  0.0000000E+00;  0.0000000E+00;  0.0000000E+00;  0.0000000E+00;  0.0000000E+00;  0.0000000E+00;0;  5.7261159E-06;  1.0000000E+02;  0.0000000E+00;  0.0000000E+00;  1.0000000E+02;  0.0000000E+00;  1.0000000E+02;  7.6329916E-06;  0.0000000E+00; -1.9068758E-06;  0.0000000E+00;
 -1.0000000E+00;  9.9999998E-03;  1.4000000E+00;17;  0.0000000E+00;  0.0000000E+00;  0.0000000E+00;  1.0000267E+01;  4.0000001E-01;  2.8730944E-02;0;  0.0000000E+00;  0.0000000E+00;  0.0000000E+00;  0.0000000E+00;  0.0000000E+00;  0.0000000E+00;0;  2.1179289E-06;  1.0000000E+02;  0.0000000E+00;  0.0000000E+00;  1.0000000E+02;  0.0000000E+00;  1.0000000E+02;  4.0584728E-06;  0.0000000E+00; -1.9405438E-06;  0.0000000E+00;
 -8.0000001E-01;  9.9999998E-03;  0.0000000E+00;31;  0.0000000E+00;  0.0000000E+00;  0.0000000E+00;  1.0000327E+01;  4.0000001E-01;  3.5144102E-02;0;  0.0000000E+00;  0.0000000E+00;  0.0000000E+00;  0.0000000E+00;  0.0000000E+00;  0.0000000E+00;0;  8.2094950E-05;  1.0000000E+02;  0.0000000E+00;  0.0000000E+00;  1.0000000E+02;  0.0000000E+00;  1.0000000E+02;  7.6839060E-05;  0.0000000E+00;  5.2558867E-06;  0.0000000E+00;
 -8.0000001E-01;  9.9999998E-03;  2.0000000E-01;32;  0.0000000E+00;  0.0000000E+00;  0.0000000E+00;  1.0000497E+01;  4.0000001E-01;  5.3485729E-02;0;  0.0000000E+00;  0.0000000E+00;  0.0000000E+00;  0.0000000E+00;  0.0000000E+00;  0.0000000E+00;0;  7.8059777E-05;  1.0000000E+02;  0.0000000E+00;  0.0000000E+00;  1.0000000E+02;  0.0000000E+00;  1.0000000E+02;  7.3385709E-05;  0.0000000E+00;  4.6740684E-06;  0.0000000E+00;
 -8.0000001E-01;  9.9999998E-03;  4.0000001E-01;33;  0.0000000E+00;  0.0000000E+00;  0.0000000E+00;  1.0001004E+01;  4.0000001E-01;  1.0799757E-01;0;  0.0000000E+00;  0.0000000E+00;  0.0000000E+00;  0.0000000E+00;  0.0000000E+00;  0.0000000E+00;0;  6.7102497E-05;  1.0000000E+02;  0.0000000E+00;  0.0000000E+00;  1.0000000E+02;  0.0000000E+00;  1.0000000E+02;  6.3969412E-05;  0.0000000E+00;  3.1330844E-06;  0.0000000E+00;
 -8.0000001E-01;  9.9999998E-03;  6.0000002E-01;34;  0.0000000E+00;  0.0000000E+00;  0.0000000E+00;  1.0001232E+01;  4.0000001E-01;  1.3262409E-01;0;  0.0000000E+00;  0.0000000E+00;  0.0000000E+00;  0.0000000E+00;  0.0000000E+00;  0.0000000E+00;0;  5.2108826E-05;  1.0000000E+02;  0.0000000E+00;  0.0000000E+00;  1.0000000E+02;  0.0000000E+00;  1.0000000E+02;  5.1007115E-05;  0.0000000E+00;  1.1017102E-06;  0.0000000E+00;
 -8.0000001E-01;  9.9999998E-03;  8.0000001E-01;35;  0.0000000E+00;  0.0000000E+00;  0.0000000E+00;  1.0000896E+01;  4.0000001E-01;  9.6325621E-02;0;  0.0000000E+00;  0.0000000E+00;  0.0000000E+00;  0.0000000E+00;  0.0000000E+00;  0.0000000E+00;0;  3.6486024E-05;  1.0000000E+02;  0.0000000E+00;  0.0000000E+00;  1.0000000E+02;  0.0000000E+00;  1.0000000E+02;  3.7362941E-05;  0.0000000E+00; -8.7691711E-07;  0.0000000E+00;
 -8.0000001E-01;  9.9999998E-03;  1.0000000E+00;36;  0.0000000E+00;  0.0000000E+00;  0.0000000E+00;  1.0001319E+01;  4.0000001E-01;  1.4185904E-01;0;  0.0000000E+00;  0.0000000E+00;  0.0000000E+00;  0.0000000E+00;  0.0000000E+00;  0.0000000E+00;0;  2.2830987E-05;  1.0000000E+02;  0.0000000E+00;  0.0000000E+00;  1.0000000E+02;  0.0000000E+00;  1.0000000E+02;  2.5213812E-05;  0.0000000E+00; -2.3828261E-06;  0.0000000E+00;
 -8.0000001E-01;  9.9999998E-03;  1.2000000E+00;37;  0.0000000E+00;  0.0000000E+00;  0.0000000E+00;  1.0001216E+01;  4.0000001E-01;  1.3082841E-01;0;  0.0000000E+00;  0.0000000E+00;  0.0000000E+00;  0.0000000E+00;  0.0000000E+00;  0.0000000E+00;0;  1.2442062E-05;  1.0000000E+02;  0.0000000E+00;  0.0000000E+00;  1.0000000E+02;  0.0000000E+00;  1.0000000E+02;  1.5666366E-05;  0.0000000E+00; -3.2243045E-06;  0.0000000E+00;
 -8.0000001E-01;  9.9999998E-03;  1.4000000E+00;38;  0.0000000E+00;  0.0000000E+00;  0.0000000E+00;  1.0000714E+01;  4.0000001E-01;  7.6829620E-02;0;  0.0000000E+00;  0.0000000E+00;  0.0000000E+00;  0.0000000E+00;  0.0000000E+00;  0.0000000E+00;0;  5.5535338E-06;  1.0000000E+02;  0.0000000E+00;  0.0000000E+00;  1.0000000E+02;  0.0000000E+00;  1.0000000E+02;  8.9299556E-06;  0.0000000E+00; -3.3764220E-06;  0.0000000E+00;
 -6.0000002E-01;  9.9999998E-03;  0.0000000E+00;52;  0.0000000E+00;  0.0000000E+00;  0.0000000E+00;  1.0001603E+01;  4.0000001E-01;  1.7251393E-01;0;  0.0000000E+00;  0.0000000E+00;  0.0000000E+00;  0.0000000E+00;  0.0000000E+00;  0.0000000E+00;0;  1.0851296E-04;  1.0000000E+02;  0.0000000E+00;  0.0000000E+00;  1.0000000E+02;  0.0000000E+00;  1.0000000E+02;  1.0080993E-04;  0.0000000E+00;  7.7030281E-06;  0.0000000E+00;
 -6.0000002E-01;  9.9999998E-03;  2.0000000E-01;53;  0.0000000E+00;  0.0000000E+00;  0.0000000E+00;  1.0001616E+01;  4.0000001E-01;  1.7392482E-01;0;  0.0000000E+00;  0.0000000E+00;  0.0000000E+00;  0.0000000E+00;  0.0000000E+00;  0.0000000E+00;0;  1.0290486E-04;  1.0000000E+02;  0.0000000E+00;  0.0000000E+00;  1.0000000E+02;  0.0000000E+00;  1.0000000E+02;  9.6121432E-05;  0.0000000E+00;  6.7834239E-06;  0.0000000E+00;
 -6.0000002E-01;  9.9999998E-03;  4.0000001E-01;54;  0.0000000E+00;  0.0000000E+00;  0.0000000E+00;  1.0001756E+01;  4.0000001E-01;  1.8893161E-01;0;  0.0000000E+00;  0.0000000E+00;  0.0000000E+00;  0.0000000E+00;  0.0000000E+00;  0.0000000E+00;0;  8.8148226E-05;  1.0000000E+02;  0.0000000E+00;  0.0000000E+00;  1.0000000E+02;  0.0000000E+00;  1.0000000E+02;  8.3746228E-05;  0.0000000E+00;  4.4019989E-06;  0.0000000E+00;
 -6.0000002E-01;  9.9999998E-03;  6.0000002E-01;55;  0.0000000E+00;  0.0000000E+00;  0.0000000E+00;  1.0002254E+01;  4.0000001E-01;  2.4254560E-01;0;  0.0000000E+00;  0.0000000E+00;  0.0000000E+00;  0.0000000E+00;  0.0000000E+00;  0.0000000E+00;0;  6.8648405E-05;  1.0000000E+02;  0.0000000E+00;  0.0000000E+00;  1.0000000E+02;  0.0000000E+00;  1.0000000E+02;  6.7255518E-05;  0.0000000E+00;  1.3928853E-06;  0.0000000E+00;
 -6.0000002E-01;  9.9999998E-03;  8.0000001E-01;56;  0.0000000E+00;  0.0000000E+00;  0.0000000E+00;  1.0002120E+01;  4.0000001E-01;  2.2805187E-01;0;  0.0000000E+00;  0.0000000E+00;  0.0000000E+00;  0.0000000E+00;  0.0000000E+00;  0.0000000E+00;0;  4.8872000E-05;  1.0000000E+02;  0.0000000E+00;  0.0000000E+00;  1.0000000E+02;  0.0000000E+00;  1.0000000E+02;  5.0266019E-05;  0.0000000E+00; -1.3940193E-06;  0.0000000E+00;
 -6.0000002E-01;  9.9999998E-03;  1.0000000E+00;57;  0.0000000E+00;  0.0000000E+00;  0.0000000E+00;  1.0001471E+01;  4.0000001E-01;  1.5827672E-01;0;  0.0000000E+00;  0.0000000E+00;  0.0000000E+00;  0.0000000E+00;  0.0000000E+00;  0.0000000E+00;0;  3.1744024E-05;  1.0000000E+02;  0.0000000E+00;  0.0000000E+00;  1.0000000E+02;  0.0000000E+00;  1.0000000E+02;  3.5136753E-05;  0.0000000E+00; -3.3927272E-06;  0.0000000E+00;
 -6.0000002E-01;  9.9999998E-03;  1.2000000E+00;58;  0.0000000E+00;  0.0000000E+00;  0.0000000E+00;  1.0001933E+01;  4.0000001E-01;  2.0804282E-01;0;  0.0000000E+00;  0.0000000E+00;  0.0000000E+00;  0.0000000E+00;  0.0000000E+00;  0.0000000E+00;0;  1.8479794E-05;  1.0000000E+02;  0.0000000E+00;  0.0000000E+00;  1.0000000E+02;  0.0000000E+00;  1.0000000E+02;  2.2900897E-05;  0.0000000E+00; -4.4211029E-06;  0.0000000E+00;
 -6.0000002E-01;  9.9999998E-03;  1.4000000E+00;59;  0.0000000E+00;  0.0000000E+00;  0.0000000E+00;  1.0001203E+01;  4.0000001E-01;  1.2941751E-01;0;  0.0000000E+00;  0.0000000E+00;  0.0000000E+00;  0.0000000E+00;  0.0000000E+00;  0.0000000E+00;0;  9.2439204E-06;  1.0000000E+02;  0.0000000E+00;  0.0000000E+00;  1.0000000E+02;  0.0000000E+00;  1.0000000E+02;  1.3791306E-05;  0.0000000E+00; -4.5473853E-06;  0.0000000E+00;
 -4.0000001E-01;  9.9999998E-03;  0.0000000E+00;73;  0.0000000E+00;  0.0000000E+00;  0.0000000E+00;  1.0002867E+01;  4.0000001E-01;  3.0847281E-01;0;  0.0000000E+00;  0.0000000E+00;  0.0000000E+00;  0.0000000E+00;  0.0000000E+00;  0.0000000E+00;0;  1.1023058E-04;  1.0000000E+02;  0.0000000E+00;  0.0000000E+00;  1.0000000E+02;  0.0000000E+00;  1.0000000E+02;  1.0138153E-04;  0.0000000E+00;  8.8490415E-06;  0.0000000E+00;
 -4.0000001E-01;  9.9999998E-03;  2.0000000E-01;74;  0.0000000E+00;  0.0000000E+00;  0.0000000E+00;  1.0002817E+01;  4.0000001E-01;  3.0308577E-01;0;  0.0000000E+00;  0.0000000E+00;  0.0000000E+00;  0.0000000E+00;  0.0000000E+00;  0.0000000E+00;0;  1.0489460E-04;  1.0000000E+02;  0.0000000E+00;  0.0000000E+00;  1.0000000E+02;  0.0000000E+00;  1.0000000E+02;  9.7083088E-05;  0.0000000E+00;  7.8115090E-06;  0.0000000E+00;
 -4.0000001E-01;  9.9999998E-03;  4.0000001E-01;75;  0.0000000E+00;  0.0000000E+00;  0.0000000E+00;  1.0002840E+01;  4.0000001E-01;  3.0552277E-01;0;  0.0000000E+00;  0.0000000E+00;  0.0000000E+00;  0.0000000E+00;  0.0000000E+00;  0.0000000E+00;0;  9.0874186E-05;  1.0000000E+02;  0.0000000E+00;  0.0000000E+00;  1.0000000E+02;  0.0000000E+00;  1.0000000E+02;  8.5894579E-05;  0.0000000E+00;  4.9796104E-06;  0.0000000E+00;
 -4.0000001E-01;  9.9999998E-03;  6.0000002E-01;76;  0.0000000E+00;  0.0000000E+00;  0.0000000E+00;  1.0002485E+01;  4.0000001E-01;  2.6742861E-01;0;  0.0000000E+00;  0.0000000E+00;  0.0000000E+00;  0.0000000E+00;  0.0000000E+00;  0.0000000E+00;0;  7.2855313E-05;  1.0000000E+02;  0.0000000E+00;  0.0000000E+00;  1.0000000E+02;  0.0000000E+00;  1.0000000E+02;  7.1557995E-05;  0.0000000E+00;  1.2973144E-06;  0.0000000E+00;
 -4.0000001E-01;  9.9999998E-03;  8.0000001E-01;77;  0.0000000E+00;  0.0000000E+00;  0.0000000E+00;  1.0002816E+01;  4.0000001E-01;  3.0295750E-01;0;  0.0000000E+00;  0.0000000E+00;  0.0000000E+00;  0.0000000E+00;  0.0000000E+00;  0.0000000E+00;0;  5.4958815E-05;  1.0000000E+02;  0.0000000E+00;  0.0000000E+00;  1.0000000E+02;  0.0000000E+00;  1.0000000E+02;  5.6992678E-05;  0.0000000E+00; -2.0338648E-06;  0.0000000E+00;
 -4.0000001E-01;  9.9999998E-03;  1.0000000E+00;78;  0.0000000E+00;  0.0000000E+00;  0.0000000E+00;  1.0001820E+01;  4.0000001E-01;  1.9572954E-01;0;  0.0000000E+00;  0.0000000E+00;  0.0000000E+00;  0.0000000E+00;  0.0000000E+00;  0.0000000E+00;0;  3.9110026E-05;  1.0000000E+02;  0.0000000E+00;  0.0000000E+00;  1.0000000E+02;  0.0000000E+00;  1.0000000E+02;  4.3308090E-05;  0.0000000E+00; -4.1980625E-06;  0.0000000E+00;
 -4.0000001E-01;  9.9999998E-03;  1.2000000E+00;79;  0.0000000E+00;  0.0000000E+00;  0.0000000E+00;  1.0000875E+01;  4.0000001E-01;  9.4145134E-02;0;  0.0000000E+00;  0.0000000E+00;  0.0000000E+00;  0.0000000E+00;  0.0000000E+00;  0.0000000E+00;0;  2.5782045E-05;  1.0000000E+02;  0.0000000E+00;  0.0000000E+00;  1.0000000E+02;  0.0000000E+00;  1.0000000E+02;  3.0778843E-05;  0.0000000E+00; -4.9967989E-06;  0.0000000E+00;
 -4.0000001E-01;  9.9999998E-03;  1.4000000E+00;80;  0.0000000E+00;  0.0000000E+00;  0.0000000E+00;  1.0001434E+01;  4.0000001E-01;  1.5430054E-01;0;  0.0000000E+00;  0.0000000E+00;  0.0000000E+00;  0.0000000E+00;  0.0000000E+00;  0.0000000E+00;0;  1.5206710E-05;  1.0000000E+02;  0.0000000E+00;  0.0000000E+00;  1.0000000E+02;  0.0000000E+00;  1.0000000E+02;  1.9925526E-05;  0.0000000E+00; -4.7188169E-06;  0.0000000E+00;
 -2.0000000E-01;  9.9999998E-03;  0.0000000E+00;94;  0.0000000E+00;  0.0000000E+00;  0.0000000E+00;  1.0003073E+01;  4.0000001E-01;  3.3066231E-01;0;  0.0000000E+00;  0.0000000E+00;  0.0000000E+00;  0.0000000E+00;  0.0000000E+00;  0.0000000E+00;0;  8.7137370E-05;  1.0000000E+02;  0.0000000E+00;  0.0000000E+00;  1.0000000E+02;  0.0000000E+00;  1.0000000E+02;  7.9672820E-05;  0.0000000E+00;  7.4645495E-06;  0.0000000E+00;
 -2.0000000E-01;  9.9999998E-03;  2.0000000E-01;95;  0.0000000E+00;  0.0000000E+00;  0.0000000E+00;  1.0002914E+01;  4.0000001E-01;  3.1360331E-01;0;  0.0000000E+00;  0.0000000E+00;  0.0000000E+00;  0.0000000E+00;  0.0000000E+00;  0.0000000E+00;0;  8.5115913E-05;  1.0000000E+02;  0.0000000E+00;  0.0000000E+00;  1.0000000E+02;  0.0000000E+00;  1.0000000E+02;  7.8525460E-05;  0.0000000E+00;  6.5904533E-06;  0.0000000E+00;
 -2.0000000E-01;  9.9999998E-03;  4.0000001E-01;96;  0.0000000E+00;  0.0000000E+00;  0.0000000E+00;  1.0002454E+01;  4.0000001E-01;  2.6396549E-01;0;  0.0000000E+00;  0.0000000E+00;  0.0000000E+00;  0.0000000E+00;  0.0000000E+00;  0.0000000E+00;0;  7.9640908E-05;  1.0000000E+02;  0.0000000E+00;  0.0000000E+00;  1.0000000E+02;  0.0000000E+00;  1.0000000E+02;  7.5605414E-05;  0.0000000E+00;  4.0354903E-06;  0.0000000E+00;
 -2.0000000E-01;  9.9999998E-03;  6.0000002E-01;97;  0.0000000E+00;  0.0000000E+00;  0.0000000E+00;  1.0001850E+01;  4.0000001E-01;  1.9906434E-01;0;  0.0000000E+00;  0.0000000E+00;  0.0000000E+00;  0.0000000E+00;  0.0000000E+00;  0.0000000E+00;0;  7.2414914E-05;  1.0000000E+02;  0.0000000E+00;  0.0000000E+00;  1.0000000E+02;  0.0000000E+00;  1.0000000E+02;  7.1999290E-05;  0.0000000E+00;  4.1562646E-07;  0.0000000E+00;
 -2.0000000E-01;  9.9999998E-03;  8.0000001E-01;98;  0.0000000E+00;  0.0000000E+00;  0.0000000E+00;  1.0000890E+01;  4.0000001E-01;  9.5684282E-02;0;  0.0000000E+00;  0.0000000E+00;  0.0000000E+00;  0.0000000E+00;  0.0000000E+00;  0.0000000E+00;0;  6.4742548E-05;  1.0000000E+02;  0.0000000E+00;  0.0000000E+00;  1.0000000E+02;  0.0000000E+00;  1.0000000E+02;  6.7541114E-05;  0.0000000E+00; -2.7985673E-06;  0.0000000E+00;
 -2.0000000E-01;  9.9999998E-03;  1.0000000E+00;99;  0.0000000E+00;  0.0000000E+00;  0.0000000E+00;  1.0000089E+01;  4.0000001E-01;  9.4914706E-03;0;  0.0000000E+00;  0.0000000E+00;  0.0000000E+00;  0.0000000E+00;  0.0000000E+00;  0.0000000E+00;0;  5.5711240E-05;  1.0000000E+02;  0.0000000E+00;  0.0000000E+00;  1.0000000E+02;  0.0000000E+00;  1.0000000E+02;  6.0148643E-05;  0.0000000E+00; -4.4374019E-06;  0.0000000E+00;
 -2.0000000E-01;  9.9999998E-03;  1.2000000E+00;100;  0.0000000E+00;  0.0000000E+00;  0.0000000E+00;  1.0000223E+01;  4.0000001E-01;  2.3985201E-02;0;  0.0000000E+00;  0.0000000E+00;  0.0000000E+00;  0.0000000E+00;  0.0000000E+00;  0.0000000E+00;0;  4.4321412E-05;  1.0000000E+02;  0.0000000E+00;  0.0000000E+00;  1.0000000E+02;  0.0000000E+00;  1.0000000E+02;  4.8591002E-05;  0.0000000E+00; -4.2695906E-06;  0.0000000E+00;
 -2.0000000E-01;  9.9999998E-03;  1.4000000E+00;101;  0.0000000E+00;  0.0000000E+00;  0.0000000E+00;  1.0000000E+01;  4.0000001E-01;  0.0000000E+00;0;  0.0000000E+00;  0.0000000E+00;  0.0000000E+00;  0.0000000E+00;  0.0000000E+00;  0.0000000E+00;0;  3.1473657E-05;  1.0000000E+02;  0.0000000E+00;  0.0000000E+00;  1.0000000E+02;  0.0000000E+00;  1.0000000E+02;  3.4490491E-05;  0.0000000E+00; -3.0168342E-06;  0.0000000E+00;
  0.0000000E+00;  9.9999998E-03;  1.2000000E+00;110;  0.0000000E+00;  0.0000000E+00;  0.0000000E+00;  1.0000000E+01;  4.0000001E-01;  0.0000000E+00;0;  0.0000000E+00;  0.0000000E+00;  0.0000000E+00;  0.0000000E+00;  0.0000000E+00;  0.0000000E+00;0;  9.2448914E-05;  1.0000000E+02;  0.0000000E+00;  0.0000000E+00;  1.0000000E+02;  0.0000000E+00;  1.0000000E+02;  9.3742565E-05;  0.0000000E+00; -1.2936518E-06;  0.0000000E+00;
  0.0000000E+00;  9.9999998E-03;  1.4000000E+00;111;  0.0000000E+00;  0.0000000E+00;  0.0000000E+00;  1.0000000E+01;  4.0000001E-01;  0.0000000E+00;0;  0.0000000E+00;  0.0000000E+00;  0.0000000E+00;  0.0000000E+00;  0.0000000E+00;  0.0000000E+00;0;  7.2247080E-05;  1.0000000E+02;  0.0000000E+00;  0.0000000E+00;  1.0000000E+02;  0.0000000E+00;  1.0000000E+02;  7.1071947E-05;  0.0000000E+00;  1.1751321E-06;  0.0000000E+00;
  2.0000000E-01;  9.9999998E-03;  1.2000000E+00;120;  0.0000000E+00;  0.0000000E+00;  0.0000000E+00;  1.0000000E+01;  4.0000001E-01;  0.0000000E+00;0;  0.0000000E+00;  0.0000000E+00;  0.0000000E+00;  0.0000000E+00;  0.0000000E+00;  0.0000000E+00;0;  2.0268660E-04;  1.0000000E+02;  0.0000000E+00;  0.0000000E+00;  1.0000000E+02;  0.0000000E+00;  1.0000000E+02;  1.9834682E-04;  0.0000000E+00;  4.3397704E-06;  0.0000000E+00;
  2.0000000E-01;  9.9999998E-03;  1.4000000E+00;121;  0.0000000E+00;  0.0000000E+00;  0.0000000E+00;  1.0000000E+01;  4.0000001E-01;  0.0000000E+00;0;  0.0000000E+00;  0.0000000E+00;  0.0000000E+00;  0.0000000E+00;  0.0000000E+00;  0.0000000E+00;0;  1.6121328E-04;  1.0000000E+02;  0.0000000E+00;  0.0000000E+00;  1.0000000E+02;  0.0000000E+00;  1.0000000E+02;  1.5410534E-04;  0.0000000E+00;  7.1079403E-06;  0.0000000E+00;
  4.0000001E-01;  9.9999998E-03;  1.2000000E+00;130;  0.0000000E+00;  0.0000000E+00;  0.0000000E+00;  1.0000000E+01;  4.0000001E-01;  0.0000000E+00;0;  0.0000000E+00;  0.0000000E+00;  0.0000000E+00;  0.0000000E+00;  0.0000000E+00;  0.0000000E+00;0;  4.3032787E-04;  1.0000000E+02;  0.0000000E+00;  0.0000000E+00;  1.0000000E+02;  0.0000000E+00;  1.0000000E+02;  4.2042002E-04;  0.0000000E+00;  9.9078397E-06;  0.0000000E+00;
  4.0000001E-01;  9.9999998E-03;  1.4000000E+00;131;  0.0000000E+00;  0.0000000E+00;  0.0000000E+00;  1.0000000E+01;  4.0000001E-01;  0.0000000E+00;0;  0.0000000E+00;  0.0000000E+00;  0.0000000E+00;  0.0000000E+00;  0.0000000E+00;  0.0000000E+00;0;  3.3552718E-04;  1.0000000E+02;  0.0000000E+00;  0.0000000E+00;  1.0000000E+02;  0.0000000E+00;  1.0000000E+02;  3.2397360E-04;  0.0000000E+00;  1.1553569E-05;  0.0000000E+00;
  6.0000002E-01;  9.9999998E-03;  1.2000000E+00;140;  0.0000000E+00;  0.0000000E+00;  0.0000000E+00;  1.0000000E+01;  4.0000001E-01;  0.0000000E+00;0;  0.0000000E+00;  0.0000000E+00;  0.0000000E+00;  0.0000000E+00;  0.0000000E+00;  0.0000000E+00;0;  8.5015321E-04;  1.0000000E+02;  0.0000000E+00;  0.0000000E+00;  1.0000000E+02;  0.0000000E+00;  1.0000000E+02;  8.4017724E-04;  0.0000000E+00;  9.9759509E-06;  0.0000000E+00;
  6.0000002E-01;  9.9999998E-03;  1.4000000E+00;141;  0.0000000E+00;  0.0000000E+00;  0.0000000E+00;  1.0000000E+01;  4.0000001E-01;  0.0000000E+00;0;  0.0000000E+00;  0.0000000E+00;  0.0000000E+00;  0.0000000E+00;  0.0000000E+00;  0.0000000E+00;0;  6.4148050E-04;  1.0000000E+02;  0.0000000E+00;  0.0000000E+00;  1.0000000E+02;  0.0000000E+00;  1.0000000E+02;  6.3160545E-04;  0.0000000E+00;  9.8750370E-06;  0.0000000E+00;
  8.0000001E-01;  9.9999998E-03;  1.2000000E+00;150;  0.0000000E+00;  0.0000000E+00;  0.0000000E+00;  1.0000000E+01;  4.0000001E-01;  0.0000000E+00;0;  0.0000000E+00;  0.0000000E+00;  0.0000000E+00;  0.0000000E+00;  0.0000000E+00;  0.0000000E+00;0;  1.4950520E-03;  1.0000000E+02;  0.0000000E+00;  0.0000000E+00;  1.0000000E+02;  0.0000000E+00;  1.0000000E+02;  1.4946095E-03;  0.0000000E+00;  4.4246730E-07;  0.0000000E+00;
  8.0000001E-01;  9.9999998E-03;  1.4000000E+00;151;  0.0000000E+00;  0.0000000E+00;  0.0000000E+00;  1.0000000E+01;  4.0000001E-01;  0.0000000E+00;0;  0.0000000E+00;  0.0000000E+00;  0.0000000E+00;  0.0000000E+00;  0.0000000E+00;  0.0000000E+00;0;  1.0955203E-03;  1.0000000E+02;  0.0000000E+00;  0.0000000E+00;  1.0000000E+02;  0.0000000E+00;  1.0000000E+02;  1.0961219E-03;  0.0000000E+00; -6.0146050E-07;  0.0000000E+00;
  1.0000000E+00;  9.9999998E-03;  1.2000000E+00;160;  0.0000000E+00;  0.0000000E+00;  0.0000000E+00;  1.0000000E+01;  4.0000001E-01;  0.0000000E+00;0;  0.0000000E+00;  0.0000000E+00;  0.0000000E+00;  0.0000000E+00;  0.0000000E+00;  0.0000000E+00;0;  2.2978832E-03;  1.0000000E+02;  0.0000000E+00;  0.0000000E+00;  1.0000000E+02;  0.0000000E+00;  1.0000000E+02;  2.3152397E-03;  0.0000000E+00; -1.7356526E-05;  0.0000000E+00;
  1.0000000E+00;  9.9999998E-03;  1.4000000E+00;161;  0.0000000E+00;  0.0000000E+00;  0.0000000E+00;  1.0000000E+01;  4.0000001E-01;  0.0000000E+00;0;  0.0000000E+00;  0.0000000E+00;  0.0000000E+00;  0.0000000E+00;  0.0000000E+00;  0.0000000E+00;0;  1.6390434E-03;  1.0000000E+02;  0.0000000E+00;  0.0000000E+00;  1.0000000E+02;  0.0000000E+00;  1.0000000E+02;  1.6576969E-03;  0.0000000E+00; -1.8653453E-05;  0.0000000E+00;
 -1.0000000E+00;  9.9999998E-03;  1.6000000E+00;18;  0.0000000E+00;  0.0000000E+00;  0.0000000E+00;  1.0000038E+01;  4.0000001E-01;  4.1044205E-03;0;  0.0000000E+00;  0.0000000E+00;  0.0000000E+00;  0.0000000E+00;  0.0000000E+00;  0.0000000E+00;0;  3.3521360E-07;  1.0000000E+02;  0.0000000E+00;  0.0000000E+00;  1.0000000E+02;  0.0000000E+00;  1.0000000E+02;  1.8988633E-06;  0.0000000E+00; -1.5636497E-06;  0.0000000E+00;
 -1.0000000E+00;  9.9999998E-03;  1.8000000E+00;19;  0.0000000E+00;  0.0000000E+00;  0.0000000E+00;  1.0000000E+01;  4.0000001E-01;  0.0000000E+00;0;  0.0000000E+00;  0.0000000E+00;  0.0000000E+00;  0.0000000E+00;  0.0000000E+00;  0.0000000E+00;0; -1.9483906E-07;  1.0000000E+02;  0.0000000E+00;  0.0000000E+00;  1.0000000E+02;  0.0000000E+00;  1.0000000E+02;  7.4308645E-07;  0.0000000E+00; -9.3792551E-07;  0.0000000E+00;
 -1.0000000E+00;  9.9999998E-03;  2.0000000E+00;20;  0.0000000E+00;  0.0000000E+00;  0.0000000E+00;  1.0000000E+01;  4.0000001E-01;  0.0000000E+00;0;  0.0000000E+00;  0.0000000E+00;  0.0000000E+00;  0.0000000E+00;  0.0000000E+00;  0.0000000E+00;0; -1.3255077E-07;  1.0000000E+02;  0.0000000E+00;  0.0000000E+00;  1.0000000E+02;  0.0000000E+00;  1.0000000E+02;  2.0904874E-07;  0.0000000E+00; -3.4159950E-07;  0.0000000E+00;
 -8.0000001E-01;  9.9999998E-03;  1.6000000E+00;39;  0.0000000E+00;  0.0000000E+00;  0.0000000E+00;  1.0000361E+01;  4.0000001E-01;  3.8863733E-02;0;  0.0000000E+00;  0.0000000E+00;  0.0000000E+00;  0.0000000E+00;  0.0000000E+00;  0.0000000E+00;0;  1.7395835E-06;  1.0000000E+02;  0.0000000E+00;  0.0000000E+00;  1.0000000E+02;  0.0000000E+00;  1.0000000E+02;  4.6331561E-06;  0.0000000E+00; -2.8935726E-06;  0.0000000E+00;
 -8.0000001E-01;  9.9999998E-03;  1.8000000E+00;40;  0.0000000E+00;  0.0000000E+00;  0.0000000E+00;  1.0000087E+01;  4.0000001E-01;  9.3632098E-03;0;  0.0000000E+00;  0.0000000E+00;  0.0000000E+00;  0.0000000E+00;  0.0000000E+00;  0.0000000E+00;0;  1.7511979E-07;  1.0000000E+02;  0.0000000E+00;  0.0000000E+00;  1.0000000E+02;  0.0000000E+00;  1.0000000E+02;  2.0919560E-06;  0.0000000E+00; -1.9168363E-06;  0.0000000E+00;
 -8.0000001E-01;  9.9999998E-03;  2.0000000E+00;41;  0.0000000E+00;  0.0000000E+00;  0.0000000E+00;  1.0000000E+01;  4.0000001E-01;  0.0000000E+00;0;  0.0000000E+00;  0.0000000E+00;  0.0000000E+00;  0.0000000E+00;  0.0000000E+00;  0.0000000E+00;0; -1.2445605E-07;  1.0000000E+02;  0.0000000E+00;  0.0000000E+00;  1.0000000E+02;  0.0000000E+00;  1.0000000E+02;  7.2118650E-07;  0.0000000E+00; -8.4564255E-07;  0.0000000E+00;
 -6.0000002E-01;  9.9999998E-03;  1.6000000E+00;60;  0.0000000E+00;  0.0000000E+00;  0.0000000E+00;  1.0000634E+01;  4.0000001E-01;  6.8235993E-02;0;  0.0000000E+00;  0.0000000E+00;  0.0000000E+00;  0.0000000E+00;  0.0000000E+00;  0.0000000E+00;0;  3.6163487E-06;  1.0000000E+02;  0.0000000E+00;  0.0000000E+00;  1.0000000E+02;  0.0000000E+00;  1.0000000E+02;  7.5314374E-06;  0.0000000E+00; -3.9150887E-06;  0.0000000E+00;
 -6.0000002E-01;  9.9999998E-03;  1.8000000E+00;61;  0.0000000E+00;  0.0000000E+00;  0.0000000E+00;  1.0000278E+01;  4.0000001E-01;  3.0013576E-02;0;  0.0000000E+00;  0.0000000E+00;  0.0000000E+00;  0.0000000E+00;  0.0000000E+00;  0.0000000E+00;0;  8.9860691E-07;  1.0000000E+02;  0.0000000E+00;  0.0000000E+00;  1.0000000E+02;  0.0000000E+00;  1.0000000E+02;  3.6009428E-06;  0.0000000E+00; -2.7023359E-06;  0.0000000E+00;
 -6.0000002E-01;  9.9999998E-03;  2.0000000E+00;62;  0.0000000E+00;  0.0000000E+00;  0.0000000E+00;  1.0000000E+01;  4.0000001E-01;  0.0000000E+00;0;  0.0000000E+00;  0.0000000E+00;  0.0000000E+00;  0.0000000E+00;  0.0000000E+00;  0.0000000E+00;0;  1.0113990E-07;  1.0000000E+02;  0.0000000E+00;  0.0000000E+00;  1.0000000E+02;  0.0000000E+00;  1.0000000E+02;  1.4480256E-06;  0.0000000E+00; -1.3468857E-06;  0.0000000E+00;
 -4.0000001E-01;  9.9999998E-03;  1.6000000E+00;81;  0.0000000E+00;  0.0000000E+00;  0.0000000E+00;  1.0000803E+01;  4.0000001E-01;  8.6449347E-02;0;  0.0000000E+00;  0.0000000E+00;  0.0000000E+00;  0.0000000E+00;  0.0000000E+00;  0.0000000E+00;0;  7.5880143E-06;  1.0000000E+02;  0.0000000E+00;  0.0000000E+00;  1.0000000E+02;  0.0000000E+00;  1.0000000E+02;  1.1397469E-05;  0.0000000E+00; -3.8094549E-06;  0.0000000E+00;
 -4.0000001E-01;  9.9999998E-03;  1.8000000E+00;82;  0.0000000E+00;  0.0000000E+00;  0.0000000E+00;  1.0000381E+01;  4.0000001E-01;  4.0915936E-02;0;  0.0000000E+00;  0.0000000E+00;  0.0000000E+00;  0.0000000E+00;  0.0000000E+00;  0.0000000E+00;0;  2.9974078E-06;  1.0000000E+02;  0.0000000E+00;  0.0000000E+00;  1.0000000E+02;  0.0000000E+00;  1.0000000E+02;  5.5789733E-06;  0.0000000E+00; -2.5815655E-06;  0.0000000E+00;
 -4.0000001E-01;  9.9999998E-03;  2.0000000E+00;83;  0.0000000E+00;  0.0000000E+00;  0.0000000E+00;  1.0000092E+01;  4.0000001E-01;  9.8762605E-03;0;  0.0000000E+00;  0.0000000E+00;  0.0000000E+00;  0.0000000E+00;  0.0000000E+00;  0.0000000E+00;0;  8.6233365E-07;  1.0000000E+02;  0.0000000E+00;  0.0000000E+00;  1.0000000E+02;  0.0000000E+00;  1.0000000E+02;  2.2350077E-06;  0.0000000E+00; -1.3726741E-06;  0.0000000E+00;
 -2.0000000E-01;  9.9999998E-03;  1.6000000E+00;102;  0.0000000E+00;  0.0000000E+00;  0.0000000E+00;  1.0000000E+01;  4.0000001E-01;  0.0000000E+00;0;  0.0000000E+00;  0.0000000E+00;  0.0000000E+00;  0.0000000E+00;  0.0000000E+00;  0.0000000E+00;0;  1.9263955E-05;  1.0000000E+02;  0.0000000E+00;  0.0000000E+00;  1.0000000E+02;  0.0000000E+00;  1.0000000E+02;  2.0963382E-05;  0.0000000E+00; -1.6994264E-06;  0.0000000E+00;
 -2.0000000E-01;  9.9999998E-03;  1.8000000E+00;103;  0.0000000E+00;  0.0000000E+00;  0.0000000E+00;  1.0000424E+01;  4.0000001E-01;  4.5661669E-02;0;  0.0000000E+00;  0.0000000E+00;  0.0000000E+00;  0.0000000E+00;  0.0000000E+00;  0.0000000E+00;0;  9.7595357E-06;  1.0000000E+02;  0.0000000E+00;  0.0000000E+00;  1.0000000E+02;  0.0000000E+00;  1.0000000E+02;  1.0570056E-05;  0.0000000E+00; -8.1052116E-07;  0.0000000E+00;
 -2.0000000E-01;  9.9999998E-03;  2.0000000E+00;104;  0.0000000E+00;  0.0000000E+00;  0.0000000E+00;  1.0000140E+01;  4.0000001E-01;  1.5135047E-02;0;  0.0000000E+00;  0.0000000E+00;  0.0000000E+00;  0.0000000E+00;  0.0000000E+00;  0.0000000E+00;0;  3.7336113E-06;  1.0000000E+02;  0.0000000E+00;  0.0000000E+00;  1.0000000E+02;  0.0000000E+00;  1.0000000E+02;  4.1492904E-06;  0.0000000E+00; -4.1567898E-07;  0.0000000E+00;
  0.0000000E+00;  9.9999998E-03;  1.6000000E+00;112;  0.0000000E+00;  0.0000000E+00;  0.0000000E+00;  1.0000000E+01;  4.0000001E-01;  0.0000000E+00;0;  0.0000000E+00;  0.0000000E+00;  0.0000000E+00;  0.0000000E+00;  0.0000000E+00;  0.0000000E+00;0;  4.8213453E-05;  1.0000000E+02;  0.0000000E+00;  0.0000000E+00;  1.0000000E+02;  0.0000000E+00;  1.0000000E+02;  4.5535890E-05;  0.0000000E+00;  2.6775629E-06;  0.0000000E+00;
  0.0000000E+00;  9.9999998E-03;  1.8000000E+00;113;  0.0000000E+00;  0.0000000E+00;  0.0000000E+00;  1.0000000E+01;  4.0000001E-01;  0.0000000E+00;0;  0.0000000E+00;  0.0000000E+00;  0.0000000E+00;  0.0000000E+00;  0.0000000E+00;  0.0000000E+00;0;  2.6847045E-05;  1.0000000E+02;  0.0000000E+00;  0.0000000E+00;  1.0000000E+02;  0.0000000E+00;  1.0000000E+02;  2.4096409E-05;  0.0000000E+00;  2.7506355E-06;  0.0000000E+00;
  0.0000000E+00;  9.9999998E-03;  2.0000000E+00;114;  0.0000000E+00;  0.0000000E+00;  0.0000000E+00;  1.0000150E+01;  4.0000001E-01;  1.6161148E-02;0;  0.0000000E+00;  0.0000000E+00;  0.0000000E+00;  0.0000000E+00;  0.0000000E+00;  0.0000000E+00;0;  1.1602779E-05;  1.0000000E+02;  0.0000000E+00;  0.0000000E+00;  1.0000000E+02;  0.0000000E+00;  1.0000000E+02;  9.9123281E-06;  0.0000000E+00;  1.6904510E-06;  0.0000000E+00;
  2.0000000E-01;  9.9999998E-03;  1.6000000E+00;122;  0.0000000E+00;  0.0000000E+00;  0.0000000E+00;  1.0000000E+01;  4.0000001E-01;  0.0000000E+00;0;  0.0000000E+00;  0.0000000E+00;  0.0000000E+00;  0.0000000E+00;  0.0000000E+00;  0.0000000E+00;0;  1.0967338E-04;  1.0000000E+02;  0.0000000E+00;  0.0000000E+00;  1.0000000E+02;  0.0000000E+00;  1.0000000E+02;  1.0165637E-04;  0.0000000E+00;  8.0170048E-06;  0.0000000E+00;
  2.0000000E-01;  9.9999998E-03;  1.8000000E+00;123;  0.0000000E+00;  0.0000000E+00;  0.0000000E+00;  1.0000000E+01;  4.0000001E-01;  0.0000000E+00;0;  0.0000000E+00;  0.0000000E+00;  0.0000000E+00;  0.0000000E+00;  0.0000000E+00;  0.0000000E+00;0;  6.3086496E-05;  1.0000000E+02;  0.0000000E+00;  0.0000000E+00;  1.0000000E+02;  0.0000000E+00;  1.0000000E+02;  5.6163648E-05;  0.0000000E+00;  6.9228495E-06;  0.0000000E+00;
  2.0000000E-01;  9.9999998E-03;  2.0000000E+00;124;  0.0000000E+00;  0.0000000E+00;  0.0000000E+00;  1.0000000E+01;  4.0000001E-01;  0.0000000E+00;0;  0.0000000E+00;  0.0000000E+00;  0.0000000E+00;  0.0000000E+00;  0.0000000E+00;  0.0000000E+00;0;  2.8932896E-05;  1.0000000E+02;  0.0000000E+00;  0.0000000E+00;  1.0000000E+02;  0.0000000E+00;  1.0000000E+02;  2.4662175E-05;  0.0000000E+00;  4.2707220E-06;  0.0000000E+00;
  4.0000001E-01;  9.9999998E-03;  1.6000000E+00;132;  0.0000000E+00;  0.0000000E+00;  0.0000000E+00;  1.0000000E+01;  4.0000001E-01;  0.0000000E+00;0;  0.0000000E+00;  0.0000000E+00;  0.0000000E+00;  0.0000000E+00;  0.0000000E+00;  0.0000000E+00;0;  2.2747053E-04;  1.0000000E+02;  0.0000000E+00;  0.0000000E+00;  1.0000000E+02;  0.0000000E+00;  1.0000000E+02;  2.1630214E-04;  0.0000000E+00;  1.1168393E-05;  0.0000000E+00;
  4.0000001E-01;  9.9999998E-03;  1.8000000E+00;133;  0.0000000E+00;  0.0000000E+00;  0.0000000E+00;  1.0000000E+01;  4.0000001E-01;  0.0000000E+00;0;  0.0000000E+00;  0.0000000E+00;  0.0000000E+00;  0.0000000E+00;  0.0000000E+00;  0.0000000E+00;0;  1.3233317E-04;  1.0000000E+02;  0.0000000E+00;  0.0000000E+00;  1.0000000E+02;  0.0000000E+00;  1.0000000E+02;  1.2309312E-04;  0.0000000E+00;  9.2400423E-06;  0.0000000E+00;
  4.0000001E-01;  9.9999998E-03;  2.0000000E+00;134;  0.0000000E+00;  0.0000000E+00;  0.0000000E+00;  1.0000000E+01;  4.0000001E-01;  0.0000000E+00;0;  0.0000000E+00;  0.0000000E+00;  0.0000000E+00;  0.0000000E+00;  0.0000000E+00;  0.0000000E+00;0;  6.3023552E-05;  1.0000000E+02;  0.0000000E+00;  0.0000000E+00;  1.0000000E+02;  0.0000000E+00;  1.0000000E+02;  5.7140023E-05;  0.0000000E+00;  5.8835290E-06;  0.0000000E+00;
  6.0000002E-01;  9.9999998E-03;  1.6000000E+00;142;  0.0000000E+00;  0.0000000E+00;  0.0000000E+00;  1.0000000E+01;  4.0000001E-01;  0.0000000E+00;0;  0.0000000E+00;  0.0000000E+00;  0.0000000E+00;  0.0000000E+00;  0.0000000E+00;  0.0000000E+00;0;  4.2765689E-04;  1.0000000E+02;  0.0000000E+00;  0.0000000E+00;  1.0000000E+02;  0.0000000E+00;  1.0000000E+02;  4.1902662E-04;  0.0000000E+00;  8.6302689E-06;  0.0000000E+00;
  6.0000002E-01;  9.9999998E-03;  1.8000000E+00;143;  0.0000000E+00;  0.0000000E+00;  0.0000000E+00;  1.0000000E+01;  4.0000001E-01;  0.0000000E+00;0;  0.0000000E+00;  0.0000000E+00;  0.0000000E+00;  0.0000000E+00;  0.0000000E+00;  0.0000000E+00;0;  2.5078471E-04;  1.0000000E+02;  0.0000000E+00;  0.0000000E+00;  1.0000000E+02;  0.0000000E+00;  1.0000000E+02;  2.4372058E-04;  0.0000000E+00;  7.0641240E-06;  0.0000000E+00;
  6.0000002E-01;  9.9999998E-03;  2.0000000E+00;144;  0.0000000E+00;  0.0000000E+00;  0.0000000E+00;  1.0000000E+01;  4.0000001E-01;  0.0000000E+00;0;  0.0000000E+00;  0.0000000E+00;  0.0000000E+00;  0.0000000E+00;  0.0000000E+00;  0.0000000E+00;0;  1.2377296E-04;  1.0000000E+02;  0.0000000E+00;  0.0000000E+00;  1.0000000E+02;  0.0000000E+00;  1.0000000E+02;  1.1885301E-04;  0.0000000E+00;  4.9199448E-06;  0.0000000E+00;
  8.0000001E-01;  9.9999998E-03;  1.6000000E+00;152;  0.0000000E+00;  0.0000000E+00;  0.0000000E+00;  1.0000000E+01;  4.0000001E-01;  0.0000000E+00;0;  0.0000000E+00;  0.0000000E+00;  0.0000000E+00;  0.0000000E+00;  0.0000000E+00;  0.0000000E+00;0;  7.1210245E-04;  1.0000000E+02;  0.0000000E+00;  0.0000000E+00;  1.0000000E+02;  0.0000000E+00;  1.0000000E+02;  7.1336859E-04;  0.0000000E+00; -1.2661475E-06;  0.0000000E+00;
  8.0000001E-01;  9.9999998E-03;  1.8000000E+00;153;  0.0000000E+00;  0.0000000E+00;  0.0000000E+00;  1.0000000E+01;  4.0000001E-01;  0.0000000E+00;0;  0.0000000E+00;  0.0000000E+00;  0.0000000E+00;  0.0000000E+00;  0.0000000E+00;  0.0000000E+00;0;  4.1734424E-04;  1.0000000E+02;  0.0000000E+00;  0.0000000E+00;  1.0000000E+02;  0.0000000E+00;  1.0000000E+02;  4.1841084E-04;  0.0000000E+00; -1.0665968E-06;  0.0000000E+00;
  8.0000001E-01;  9.9999998E-03;  2.0000000E+00;154;  0.0000000E+00;  0.0000000E+00;  0.0000000E+00;  1.0000000E+01;  4.0000001E-01;  0.0000000E+00;0;  0.0000000E+00;  0.0000000E+00;  0.0000000E+00;  0.0000000E+00;  0.0000000E+00;  0.0000000E+00;0;  2.1583929E-04;  1.0000000E+02;  0.0000000E+00;  0.0000000E+00;  1.0000000E+02;  0.0000000E+00;  1.0000000E+02;  2.1595557E-04;  0.0000000E+00; -1.1629088E-07;  0.0000000E+00;
  1.0000000E+00;  9.9999998E-03;  1.6000000E+00;162;  0.0000000E+00;  0.0000000E+00;  0.0000000E+00;  1.0000000E+01;  4.0000001E-01;  0.0000000E+00;0;  0.0000000E+00;  0.0000000E+00;  0.0000000E+00;  0.0000000E+00;  0.0000000E+00;  0.0000000E+00;0;  1.0333300E-03;  1.0000000E+02;  0.0000000E+00;  0.0000000E+00;  1.0000000E+02;  0.0000000E+00;  1.0000000E+02;  1.0507737E-03;  0.0000000E+00; -1.7443659E-05;  0.0000000E+00;
  1.0000000E+00;  9.9999998E-03;  1.8000000E+00;163;  0.0000000E+00;  0.0000000E+00;  0.0000000E+00;  1.0000000E+01;  4.0000001E-01;  0.0000000E+00;0;  0.0000000E+00;  0.0000000E+00;  0.0000000E+00;  0.0000000E+00;  0.0000000E+00;  0.0000000E+00;0;  5.9468142E-04;  1.0000000E+02;  0.0000000E+00;  0.0000000E+00;  1.0000000E+02;  0.0000000E+00;  1.0000000E+02;  6.0972926E-04;  0.0000000E+00; -1.5047863E-05;  0.0000000E+00;
  1.0000000E+00;  9.9999998E-03;  2.0000000E+00;164;  0.0000000E+00;  0.0000000E+00;  0.0000000E+00;  1.0000000E+01;  4.0000001E-01;  0.0000000E+00;0;  0.0000000E+00;  0.0000000E+00;  0.0000000E+00;  0.0000000E+00;  0.0000000E+00;  0.0000000E+00;0;  3.1825097E-04;  1.0000000E+02;  0.0000000E+00;  0.0000000E+00;  1.0000000E+02;  0.0000000E+00;  1.0000000E+02;  3.2914590E-04;  0.0000000E+00; -1.0894920E-05;  0.0000000E+00;
 -4.5688474E-04;  9.9999998E-03; -1.0002257E+00;165;  2.9194569E-05;  0.0000000E+00; -6.1265535E-05;  9.9987268E+00;  4.0012002E-01; -1.3698496E-01;3;  1.3923898E-02;  0.0000000E+00; -1.6327096E-02;  0.0000000E+00;  0.0000000E+00;  0.0000000E+00;0;  1.0395385E-04;  9.9907158E+01;  0.0000000E+00; -7.4334830E-06;  1.0000000E+02;  0.0000000E+00;  9.9998260E+01;  1.0418413E-04;  0.0000000E+00; -2.3028770E-07;  0.0000000E+00;
 -3.2517393E-04;  9.9999998E-03; -8.0025578E-01;166;  7.6307406E-05;  0.0000000E+00; -7.8547091E-05;  9.9987917E+00;  4.0009755E-01; -1.2999462E-01;3;  1.7066747E-02;  0.0000000E+00; -2.4053723E-02;  0.0000000E+00;  0.0000000E+00;  0.0000000E+00;0;  9.5904215E-05;  9.9915817E+01;  0.0000000E+00; -6.7692667E-06;  1.0000000E+02;  0.0000000E+00;  1.0000000E+02;  9.8384342E-05;  0.0000000E+00; -2.4801266E-06;  0.0000000E+00;
 -1.5879216E-04;  9.9999998E-03; -6.0021466E-01;167;  1.2318831E-04;  0.0000000E+00; -7.1119706E-05;  9.9988050E+00;  4.0006298E-01; -1.2858373E-01;3;  1.7268742E-02;  0.0000000E+00; -1.7229112E-02;  0.0000000E+00;  0.0000000E+00;  0.0000000E+00;0;  7.9866208E-05;  9.9935516E+01;  0.0000000E+00;  9.1047696E-06;  1.0000000E+02;  0.0000000E+00;  9.9998749E+01;  8.1316924E-05;  0.0000000E+00; -1.4507132E-06;  0.0000000E+00;
  7.0072390E-05;  9.9999998E-03; -4.0009594E-01;168;  1.8486743E-04;  0.0000000E+00; -3.6829064E-05;  9.9987965E+00;  4.0003222E-01; -1.2948157E-01;3;  1.8161681E-02;  0.0000000E+00; -7.8918720E-03;  0.0000000E+00;  0.0000000E+00;  0.0000000E+00;0;  6.1588937E-05;  9.9958847E+01;  0.0000000E+00;  9.6940475E-06;  1.0000000E+02;  0.0000000E+00;  1.0000729E+02;  6.0836814E-05;  0.0000000E+00;  7.5212347E-07;  0.0000000E+00;
  2.2325369E-04;  9.9999998E-03; -2.0003486E-01;169;  2.2836961E-04;  0.0000000E+00; -1.2570063E-05;  9.9989948E+00;  3.9999735E-01; -1.0812577E-01;3;  1.8317278E-02;  0.0000000E+00; -2.9883792E-03;  0.0000000E+00;  0.0000000E+00;  0.0000000E+00;0;  4.7343237E-05;  9.9976471E+01;  0.0000000E+00;  2.9021076E-06;  1.0000000E+02;  0.0000000E+00;  1.0000815E+02;  4.5086810E-05;  0.0000000E+00;  2.2564254E-06;  0.0000000E+00;
  1.9944149E-01;  9.9999998E-03; -9.9989676E-01;176;  5.3449923E-05;  0.0000000E+00; -1.0880964E-05;  9.9977932E+00;  4.0052748E-01; -2.3741478E-01;3;  1.6805016E-02;  0.0000000E+00; -2.8184731E-02;  0.0000000E+00;  0.0000000E+00;  0.0000000E+00;0;  2.2040054E-04;  9.9687263E+01;  0.0000000E+00;  1.0203572E-04;  1.0000000E+02;  0.0000000E+00;  1.0000108E+02;  2.1963925E-04;  0.0000000E+00;  7.6130436E-07;  0.0000000E+00;
  1.9942261E-01;  9.9999998E-03; -8.0000323E-01;177;  3.7094534E-05;  0.0000000E+00; -3.6271591E-05;  9.9977226E+00;  4.0055496E-01; -2.4504642E-01;3;  2.2899583E-02;  0.0000000E+00; -3.4443676E-02;  0.0000000E+00;  0.0000000E+00;  0.0000000E+00;0;  2.0305029E-04;  9.9668571E+01;  0.0000000E+00; -1.5527793E-04;  1.0000000E+02;  0.0000000E+00;  9.9999870E+01;  2.0581840E-04;  0.0000000E+00; -2.7681144E-06;  0.0000000E+00;
  1.9949403E-01;  9.9999998E-03; -6.0003191E-01;178;  5.5055512E-05;  0.0000000E+00; -3.9008377E-05;  9.9979782E+00;  4.0054864E-01; -2.1753402E-01;3;  2.9201753E-02;  0.0000000E+00; -2.9414034E-02;  0.0000000E+00;  0.0000000E+00;  0.0000000E+00;0;  1.6649827E-04;  9.9677361E+01;  0.0000000E+00; -1.3917488E-04;  1.0000000E+02;  0.0000000E+00;  1.0000382E+02;  1.7110902E-04;  0.0000000E+00; -4.6107452E-06;  0.0000000E+00;
  1.9969974E-01;  9.9999998E-03; -3.9998788E-01;179;  1.1317844E-04;  0.0000000E+00; -1.5898995E-05;  9.9984207E+00;  4.0049911E-01; -1.6994844E-01;3;  3.2352906E-02;  0.0000000E+00; -1.8143268E-02;  0.0000000E+00;  0.0000000E+00;  0.0000000E+00;0;  1.2488356E-04;  9.9701790E+01;  0.0000000E+00; -5.1873983E-05;  1.0000000E+02;  0.0000000E+00;  1.0001201E+02;  1.2974547E-04;  0.0000000E+00; -4.8619163E-06;  0.0000000E+00;
  1.9984975E-01;  9.9999998E-03; -1.9998652E-01;180;  1.5706268E-04;  0.0000000E+00; -4.0605451E-06;  9.9986315E+00;  4.0045506E-01; -1.4724590E-01;3;  3.5304602E-02;  0.0000000E+00; -8.1299925E-03;  0.0000000E+00;  0.0000000E+00;  0.0000000E+00;0;  9.2455470E-05;  9.9725922E+01;  0.0000000E+00; -7.5685693E-06;  1.0000000E+02;  0.0000000E+00;  1.0001254E+02;  9.7127835E-05;  0.0000000E+00; -4.6723676E-06;  0.0000000E+00;
  3.9962667E-01;  9.9999998E-03; -9.9949938E-01;187;  1.1379685E-04;  0.0000000E+00;  9.8770724E-05;  9.9962606E+00;  4.0136537E-01; -4.0236035E-01;3; -1.1679217E-02;  0.0000000E+00; -1.5005904E-01;  0.0000000E+00;  0.0000000E+00;  0.0000000E+00;0;  4.8415473E-04;  9.9236656E+01;  0.0000000E+00;  2.3050176E-03;  1.0000000E+02;  0.0000000E+00;  1.0000108E+02;  4.9020862E-04;  0.0000000E+00; -6.0538805E-06;  0.0000000E+00;
  3.9925513E-01;  9.9999998E-03; -7.9965562E-01;188; -5.1293273E-06;  0.0000000E+00;  5.1750525E-05;  9.9960814E+00;  4.0149963E-01; -4.2159975E-01;3; -7.0164888E-03;  0.0000000E+00; -1.2062158E-01;  0.0000000E+00;  0.0000000E+00;  0.0000000E+00;0;  4.7012640E-04;  9.9171112E+01;  0.0000000E+00;  1.0888132E-04;  1.0000000E+02;  0.0000000E+00;  9.9999763E+01;  4.7610336E-04;  0.0000000E+00; -5.9769718E-06;  0.0000000E+00;
  3.9923653E-01;  9.9999998E-03; -5.9980947E-01;189; -3.3676154E-06;  0.0000000E+00;  1.9288813E-05;  9.9963932E+00;  4.0152782E-01; -3.8805905E-01;3; -4.4938545E-03;  0.0000000E+00; -8.6557724E-02;  0.0000000E+00;  0.0000000E+00;  0.0000000E+00;0;  4.2983901E-04;  9.9155365E+01;  0.0000000E+00; -6.0306629E-04;  1.0000000E+02;  0.0000000E+00;  1.0001562E+02;  4.3839411E-04;  0.0000000E+00; -8.5551073E-06;  0.0000000E+00;
  3.9940643E-01;  9.9999998E-03; -3.9988568E-01;190;  5.6207427E-05;  0.0000000E+00;  1.1762490E-05;  9.9966516E+00;  4.0149134E-01; -3.6029014E-01;3; -4.6233935E-03;  0.0000000E+00; -5.1169470E-02;  0.0000000E+00;  0.0000000E+00;  0.0000000E+00;0;  3.7825253E-04;  9.9172585E+01;  0.0000000E+00; -3.7748492E-04;  1.0000000E+02;  0.0000000E+00;  1.0001488E+02;  3.8844935E-04;  0.0000000E+00; -1.0196833E-05;  0.0000000E+00;
  3.9956889E-01;  9.9999998E-03; -1.9993690E-01;191;  1.0734284E-04;  0.0000000E+00;  7.7976583E-06;  9.9968204E+00;  4.0144926E-01; -3.4207684E-01;3; -5.0637592E-03;  0.0000000E+00; -2.2498187E-02;  0.0000000E+00;  0.0000000E+00;  0.0000000E+00;0;  3.3669407E-04;  9.9196617E+01;  0.0000000E+00; -8.5851032E-05;  1.0000000E+02;  0.0000000E+00;  1.0001472E+02;  3.4733926E-04;  0.0000000E+00; -1.0645182E-05;  0.0000000E+00;
  5.9965295E-01;  9.9999998E-03; -9.9916250E-01;198;  5.1224790E-05;  0.0000000E+00;  1.9776184E-04;  9.9943228E+00;  4.0279275E-01; -6.1084932E-01;3;  8.3890773E-02;  0.0000000E+00; -2.3514205E-01;  0.0000000E+00;  0.0000000E+00;  0.0000000E+00;0;  9.6901436E-04;  9.8475601E+01;  0.0000000E+00;  1.5779823E-02;  1.0000000E+02;  0.0000000E+00;  1.0002715E+02;  9.9848560E-04;  0.0000000E+00; -2.9471237E-05;  0.0000000E+00;
  5.9895921E-01;  9.9999998E-03; -7.9934567E-01;199; -1.1961551E-04;  0.0000000E+00;  1.5503354E-04;  9.9939861E+00;  4.0305960E-01; -6.4708346E-01;3;  4.7363766E-02;  0.0000000E+00; -1.7386651E-01;  0.0000000E+00;  0.0000000E+00;  0.0000000E+00;0;  9.9960924E-04;  9.8349747E+01;  0.0000000E+00;  4.9339710E-03;  1.0000000E+02;  0.0000000E+00;  1.0001552E+02;  1.0190259E-03;  0.0000000E+00; -1.9416650E-05;  0.0000000E+00;
  5.9898907E-01;  9.9999998E-03; -5.9963548E-01;200; -8.4651707E-05;  0.0000000E+00;  7.9568999E-05;  9.9938850E+00;  4.0317062E-01; -6.5792161E-01;3;  2.3808550E-02;  0.0000000E+00; -1.0718507E-01;  0.0000000E+00;  0.0000000E+00;  0.0000000E+00;0;  1.0023650E-03;  9.8297890E+01;  0.0000000E+00; -4.5548347E-04;  1.0000000E+02;  0.0000000E+00;  1.0001272E+02;  1.0153722E-03;  0.0000000E+00; -1.3007157E-05;  0.0000000E+00;
  5.9920001E-01;  9.9999998E-03; -3.9982069E-01;201; -2.4496203E-06;  0.0000000E+00;  3.3417899E-05;  9.9940329E+00;  4.0317208E-01; -6.4201707E-01;3;  1.3109216E-02;  0.0000000E+00; -5.7129942E-02;  0.0000000E+00;  0.0000000E+00;  0.0000000E+00;0;  9.7249279E-04;  9.8301994E+01;  0.0000000E+00; -9.7340066E-04;  1.0000000E+02;  0.0000000E+00;  1.0001054E+02;  9.8355371E-04;  0.0000000E+00; -1.1060932E-05;  0.0000000E+00;
  5.9940815E-01;  9.9999998E-03; -1.9991222E-01;202;  7.1309514E-05;  0.0000000E+00;  1.5746104E-05;  9.9941378E+00;  4.0313843E-01; -6.3072997E-01;3;  6.0091745E-03;  0.0000000E+00; -2.3742067E-02;  0.0000000E+00;  0.0000000E+00;  0.0000000E+00;0;  9.4229187E-04;  9.8321861E+01;  0.0000000E+00; -2.8356715E-04;  1.0000000E+02;  0.0000000E+00;  1.0000808E+02;  9.5266046E-04;  0.0000000E+00; -1.0368571E-05;  0.0000000E+00;
  8.0310351E-01;  9.9999998E-03; -1.0001070E+00;209;  9.2051877E-04;  0.0000000E+00; -6.0293045E-05;  9.9905205E+00;  4.0543625E-01; -1.0199338E+00;3;  2.6315239E-01;  0.0000000E+00; -1.1185339E-01;  0.0000000E+00;  0.0000000E+00;  0.0000000E+00;0;  2.1744326E-03;  9.7153496E+01;  0.0000000E+00;  4.0680468E-02;  1.0000000E+02;  0.0000000E+00;  9.9995651E+01;  2.1543142E-03;  0.0000000E+00;  2.0118357E-05;  0.0000000E+00;
  7.9883242E-01;  9.9999998E-03; -7.9964769E-01;210; -2.4332810E-04;  0.0000000E+00;  8.8893292E-05;  9.9916210E+00;  4.0532321E-01; -9.0154886E-01;3;  1.5413988E-01;  0.0000000E+00; -1.5396826E-01;  0.0000000E+00;  0.0000000E+00;  0.0000000E+00;0;  1.8731476E-03;  9.7207565E+01;  0.0000000E+00;  2.4205161E-02;  1.0000000E+02;  0.0000000E+00;  1.0001283E+02;  1.8919979E-03;  0.0000000E+00; -1.8850325E-05;  0.0000000E+00;
  7.9874212E-01;  9.9999998E-03; -5.9973192E-01;211; -2.1477173E-04;  0.0000000E+00;  7.3412499E-05;  9.9912653E+00;  4.0551120E-01; -9.3977082E-01;3;  5.4638337E-02;  0.0000000E+00; -1.0298918E-01;  0.0000000E+00;  0.0000000E+00;  0.0000000E+00;0;  1.9490235E-03;  9.7124352E+01;  0.0000000E+00;  4.1361055E-03;  1.0000000E+02;  0.0000000E+00;  1.0000183E+02;  1.9603057E-03;  0.0000000E+00; -1.1282218E-05;  0.0000000E+00;
  7.9904789E-01;  9.9999998E-03; -3.9990145E-01;212; -6.7051726E-05;  0.0000000E+00;  2.2903814E-05;  9.9911032E+00;  4.0554506E-01; -9.5721424E-01;3;  2.0054931E-02;  0.0000000E+00; -5.0224420E-02;  0.0000000E+00;  0.0000000E+00;  0.0000000E+00;0;  1.9803266E-03;  9.7114815E+01;  0.0000000E+00; -8.5845910E-04;  1.0000000E+02;  0.0000000E+00;  9.9994041E+01;  1.9830898E-03;  0.0000000E+00; -2.7632091E-06;  0.0000000E+00;
  7.9932845E-01;  9.9999998E-03; -1.9995505E-01;213;  3.8522343E-05;  0.0000000E+00;  8.9750765E-06;  9.9910421E+00;  4.0551576E-01; -9.6381968E-01;3;  6.6335145E-03;  0.0000000E+00; -1.9775685E-02;  0.0000000E+00;  0.0000000E+00;  0.0000000E+00;0;  1.9857606E-03;  9.7129837E+01;  0.0000000E+00; -4.4887437E-04;  1.0000000E+02;  0.0000000E+00;  9.9989700E+01;  1.9858002E-03;  0.0000000E+00; -3.9652889E-08;  0.0000000E+00;
  1.0149950E+00;  9.9999998E-03; -1.0007830E+00;220;  2.1069359E-03;  0.0000000E+00; -5.9118855E-05;  9.9869490E+00;  4.1045082E-01; -1.4041777E+00;3;  5.8172327E-02;  0.0000000E+00;  4.8365392E-02;  0.0000000E+00;  0.0000000E+00;  0.0000000E+00;0;  3.9140475E-03;  9.4788506E+01;  0.0000000E+00;  6.7615714E-03;  1.0000000E+02;  0.0000000E+00;  9.9933250E+01;  3.8937391E-03;  0.0000000E+00;  2.0308267E-05;  0.0000000E+00;
  1.0039511E+00;  9.9999998E-03; -8.0089957E-01;221;  6.3110690E-04;  0.0000000E+00; -1.0301911E-04;  9.9886675E+00;  4.0879473E-01; -1.2192944E+00;3;  1.9028226E-01;  0.0000000E+00;  9.8508999E-02;  0.0000000E+00;  0.0000000E+00;  0.0000000E+00;0;  3.3664682E-03;  9.5595718E+01;  0.0000000E+00;  4.1100543E-02;  1.0000000E+02;  0.0000000E+00;  9.9921280E+01;  3.3256467E-03;  0.0000000E+00;  4.0821426E-05;  0.0000000E+00;
  1.0005662E+00;  9.9999998E-03; -6.0012454E-01;222; -2.9959375E-04;  0.0000000E+00; -5.5021001E-06;  9.9890099E+00;  4.0854725E-01; -1.1824205E+00;3;  7.8732945E-02;  0.0000000E+00; -5.4057423E-02;  0.0000000E+00;  0.0000000E+00;  0.0000000E+00;0;  3.2494685E-03;  9.5671562E+01;  0.0000000E+00;  1.4360170E-02;  1.0000000E+02;  0.0000000E+00;  9.9971642E+01;  3.2383234E-03;  0.0000000E+00;  1.1145229E-05;  0.0000000E+00;
  1.0009876E+00;  9.9999998E-03; -4.0021738E-01;223; -1.3333978E-04;  0.0000000E+00; -2.1645237E-05;  9.9886475E+00;  4.0855506E-01; -1.2214111E+00;3;  2.2571271E-02;  0.0000000E+00; -3.1609718E-02;  0.0000000E+00;  0.0000000E+00;  0.0000000E+00;0;  3.3569667E-03;  9.5668221E+01;  0.0000000E+00;  4.5493446E-04;  1.0000000E+02;  0.0000000E+00;  9.9968262E+01;  3.3388489E-03;  0.0000000E+00;  1.8117762E-05;  0.0000000E+00;
  1.0007286E+00;  9.9999998E-03; -2.0015179E-01;224;  3.0502222E-06;  0.0000000E+00; -2.3108532E-05;  9.9884672E+00;  4.0848213E-01; -1.2408425E+00;3;  5.3630783E-03;  0.0000000E+00; -1.3451178E-02;  0.0000000E+00;  0.0000000E+00;  0.0000000E+00;0;  3.4068818E-03;  9.5696960E+01;  0.0000000E+00; -3.8177712E-04;  1.0000000E+02;  0.0000000E+00;  9.9968239E+01;  3.3862791E-03;  0.0000000E+00;  2.0602703E-05;  0.0000000E+00;
  1.2205205E+00;  9.9999998E-03; -1.0007169E+00;231;  3.0116730E-03;  0.0000000E+00; -1.0552655E-04;  9.9859104E+00;  4.1421986E-01; -1.5158261E+00;3;  1.1215894E-02;  0.0000000E+00;  1.1474708E-01;  0.0000000E+00;  0.0000000E+00;  0.0000000E+00;0;  5.5154795E-03;  9.3074905E+01;  0.0000000E+00; -1.5806587E-03;  1.0000000E+02;  0.0000000E+00;  9.9907799E+01;  5.4552611E-03;  0.0000000E+00;  6.0218263E-05;  0.0000000E+00;
  1.2138228E+00;  9.9999998E-03; -8.0074883E-01;232;  2.0430298E-03;  0.0000000E+00; -1.4095199E-04;  9.9868221E+00;  4.1297749E-01; -1.4177796E+00;3;  1.1194041E-01;  0.0000000E+00;  1.3137113E-01;  0.0000000E+00;  0.0000000E+00;  0.0000000E+00;0;  5.1465640E-03;  9.3669319E+01;  0.0000000E+00;  2.1926064E-02;  1.0000000E+02;  0.0000000E+00;  9.9891342E+01;  5.0608320E-03;  0.0000000E+00;  8.5732150E-05;  0.0000000E+00;
  1.2033347E+00;  9.9999998E-03; -6.0011077E-01;233; -1.2560863E-04;  0.0000000E+00; -8.3301449E-05;  9.9876404E+00;  4.1199809E-01; -1.3297373E+00;3;  9.1755733E-02;  0.0000000E+00; -9.3241576E-03;  0.0000000E+00;  0.0000000E+00;  0.0000000E+00;0;  4.7669322E-03;  9.4069893E+01;  0.0000000E+00;  2.7900610E-02;  1.0000000E+02;  0.0000000E+00;  9.9949127E+01;  4.7142548E-03;  0.0000000E+00;  5.2677424E-05;  0.0000000E+00;
  1.2049741E+00;  9.9999998E-03; -4.0025312E-01;234; -1.4048182E-04;  0.0000000E+00; -2.1019905E-05;  9.9872952E+00;  4.1205940E-01; -1.3668662E+00;3;  2.2273943E-02;  0.0000000E+00; -1.5526953E-02;  0.0000000E+00;  0.0000000E+00;  0.0000000E+00;0;  4.9101869E-03;  9.4043991E+01;  0.0000000E+00;  1.4724472E-03;  1.0000000E+02;  0.0000000E+00;  9.9940056E+01;  4.8721153E-03;  0.0000000E+00;  3.8071616E-05;  0.0000000E+00;
  1.2090079E+00;  9.9999998E-03; -2.0032941E-01;235; -7.7428476E-06;  0.0000000E+00; -3.5915335E-05;  9.9870481E+00;  4.1200539E-01; -1.3934773E+00;3;  4.6582567E-03;  0.0000000E+00; -8.0939652E-03;  0.0000000E+00;  0.0000000E+00;  0.0000000E+00;0;  5.0330414E-03;  9.4063255E+01;  0.0000000E+00; -1.0444142E-03;  1.0000000E+02;  0.0000000E+00;  9.9943924E+01;  4.9879905E-03;  0.0000000E+00;  4.5051071E-05;  0.0000000E+00;
  1.4261874E+00;  9.9999998E-03; -1.0005826E+00;242;  3.9910176E-03;  0.0000000E+00; -9.4938063E-05;  9.9863977E+00;  4.1747811E-01; -1.4632922E+00;3;  1.4695982E-02;  0.0000000E+00;  1.0017651E-01;  0.0000000E+00;  0.0000000E+00;  0.0000000E+00;0;  6.8437965E-03;  9.1646942E+01;  0.0000000E+00; -2.4528604E-03;  1.0000000E+02;  0.0000000E+00;  9.9900032E+01;  6.7763869E-03;  0.0000000E+00;  6.7409710E-05;  0.0000000E+00;
  1.4208317E+00;  9.9999998E-03; -8.0041623E-01;243;  3.1636329E-03;  0.0000000E+00; -9.6588890E-05;  9.9868240E+00;  4.1677091E-01; -1.4174513E+00;3;  6.9022961E-02;  0.0000000E+00;  7.6418176E-02;  0.0000000E+00;  0.0000000E+00;  0.0000000E+00;0;  6.6245673E-03;  9.1967308E+01;  0.0000000E+00;  1.1640655E-02;  1.0000000E+02;  0.0000000E+00;  9.9895027E+01;  6.5437392E-03;  0.0000000E+00;  8.0828293E-05;  0.0000000E+00;
  1.4129835E+00;  9.9999998E-03; -6.0010529E-01;244;  1.0695037E-03;  0.0000000E+00; -4.5160748E-05;  9.9872398E+00;  4.1619653E-01; -1.3727024E+00;3;  5.2067343E-02;  0.0000000E+00;  7.2013070E-03;  0.0000000E+00;  0.0000000E+00;  0.0000000E+00;0;  6.3396478E-03;  9.2204124E+01;  0.0000000E+00;  1.3873400E-02;  1.0000000E+02;  0.0000000E+00;  9.9920212E+01;  6.2854509E-03;  0.0000000E+00;  5.4196869E-05;  0.0000000E+00;
  1.4136732E+00;  9.9999998E-03; -4.0009087E-01;245;  7.8789635E-05;  0.0000000E+00;  1.1405357E-04;  9.9872570E+00;  4.1615421E-01; -1.3708421E+00;3;  1.5936967E-02;  0.0000000E+00; -9.0914303E-03;  0.0000000E+00;  0.0000000E+00;  0.0000000E+00;0;  6.3606780E-03;  9.2226967E+01;  0.0000000E+00; -2.7299977E-03;  1.0000000E+02;  0.0000000E+00;  9.9924095E+01;  6.3423160E-03;  0.0000000E+00;  1.8361961E-05;  0.0000000E+00;
  1.4217732E+00;  9.9999998E-03; -2.0058151E-01;246;  1.4414228E-03;  0.0000000E+00; -7.2771356E-05;  9.9870510E+00;  4.1602394E-01; -1.3930203E+00;3;  1.7604828E-04;  0.0000000E+00; -4.3693352E-03;  0.0000000E+00;  0.0000000E+00;  0.0000000E+00;0;  6.5238676E-03;  9.2273979E+01;  0.0000000E+00; -2.5198271E-03;  1.0000000E+02;  0.0000000E+00;  9.9918854E+01;  6.4544044E-03;  0.0000000E+00;  6.9463131E-05;  0.0000000E+00;
  1.6333927E+00;  9.9999998E-03; -1.0005454E+00;253;  5.1614121E-03;  0.0000000E+00; -8.1282757E-05;  9.9874268E+00;  4.2098331E-01; -1.3522533E+00;3;  2.1792769E-02;  0.0000000E+00;  4.8554022E-02;  0.0000000E+00;  0.0000000E+00;  0.0000000E+00;0;  8.0581512E-03;  9.0157021E+01;  0.0000000E+00; -2.1403381E-03;  1.0000000E+02;  0.0000000E+00;  9.9887207E+01;  7.9900865E-03;  0.0000000E+00;  6.8065041E-05;  0.0000000E+00;
  1.6285545E+00;  9.9999998E-03; -8.0022842E-01;254;  4.5722979E-03;  0.0000000E+00; -6.1629959E-05;  9.9875736E+00;  4.2094767E-01; -1.3364935E+00;3;  3.4871630E-02;  0.0000000E+00;  2.4104154E-02;  0.0000000E+00;  0.0000000E+00;  0.0000000E+00;0;  7.9420209E-03;  9.0172165E+01;  0.0000000E+00;  3.8650560E-03;  1.0000000E+02;  0.0000000E+00;  9.9885170E+01;  7.8744534E-03;  0.0000000E+00;  6.7567802E-05;  0.0000000E+00;
  1.6239960E+00;  9.9999998E-03; -5.9998620E-01;255;  2.5653201E-03;  0.0000000E+00;  6.0787595E-05;  9.9879513E+00;  4.2097265E-01; -1.2958589E+00;3;  1.9143960E-02;  0.0000000E+00; -1.8749970E-03;  0.0000000E+00;  0.0000000E+00;  0.0000000E+00;0;  7.6486133E-03;  9.0167580E+01;  0.0000000E+00; -2.4846962E-03;  1.0000000E+02;  0.0000000E+00;  9.9885506E+01;  7.6502715E-03;  0.0000000E+00; -1.6581580E-06;  0.0000000E+00;
  1.6287433E+00;  9.9999998E-03; -4.0029866E-01;256;  5.9313760E-03;  0.0000000E+00; -2.0433441E-05;  9.9878101E+00;  4.2107412E-01; -1.3110428E+00;3;  1.2347313E-03;  0.0000000E+00; -3.3321558E-03;  0.0000000E+00;  0.0000000E+00;  0.0000000E+00;0;  7.7717463E-03;  9.0129829E+01;  0.0000000E+00; -8.6715743E-03;  1.0000000E+02;  0.0000000E+00;  9.9869606E+01;  7.7076443E-03;  0.0000000E+00;  6.4102016E-05;  0.0000000E+00;
  1.6276087E+00;  9.9999998E-03; -2.0068602E-01;257;  6.9834404E-03;  0.0000000E+00; -1.0872108E-04;  9.9880495E+00;  4.2089519E-01; -1.2853382E+00;3;  1.0755435E-03;  0.0000000E+00; -3.0031572E-03;  0.0000000E+00;  0.0000000E+00;  0.0000000E+00;0;  7.6285149E-03;  9.0197281E+01;  0.0000000E+00; -1.7839260E-03;  1.0000000E+02;  0.0000000E+00;  9.9890121E+01;  7.5421059E-03;  0.0000000E+00;  8.6408916E-05;  0.0000000E+00;
  1.8431939E+00;  9.9999998E-03; -1.0007334E+00;264;  6.6033215E-03;  0.0000000E+00; -7.3203097E-05;  9.9883690E+00;  4.2536655E-01; -1.2503148E+00;3;  1.6146552E-02;  0.0000000E+00;  1.0112319E-02;  0.0000000E+00;  0.0000000E+00;  0.0000000E+00;0;  9.4017722E-03;  8.8364372E+01;  0.0000000E+00; -3.7685274E-03;  1.0000000E+02;  0.0000000E+00;  9.9840393E+01;  9.3255034E-03;  0.0000000E+00;  7.6268989E-05;  0.0000000E+00;
  1.8400882E+00;  9.9999998E-03; -8.0020678E-01;265;  5.9714946E-03;  0.0000000E+00; -6.1132676E-05;  9.9884357E+00;  4.2612579E-01; -1.2431529E+00;3;  1.1172560E-02;  0.0000000E+00; -1.7616091E-03;  0.0000000E+00;  0.0000000E+00;  0.0000000E+00;0;  9.3172677E-03;  8.8055595E+01;  0.0000000E+00; -6.6124527E-03;  1.0000000E+02;  0.0000000E+00;  9.9831909E+01;  9.2249252E-03;  0.0000000E+00;  9.2342700E-05;  0.0000000E+00;
  1.8366189E+00;  9.9999998E-03; -5.9982836E-01;266;  7.2897845E-03;  0.0000000E+00; -2.1465983E-05;  9.9885502E+00;  4.2670652E-01; -1.2308660E+00;3;  4.5412038E-03;  0.0000000E+00; -4.5409994E-03;  0.0000000E+00;  0.0000000E+00;  0.0000000E+00;0;  9.1732759E-03;  8.7826538E+01;  0.0000000E+00; -5.3911768E-03;  1.0000000E+02;  0.0000000E+00;  9.9818314E+01;  9.1056917E-03;  0.0000000E+00;  6.7584209E-05;  0.0000000E+00;
  1.8317282E+00;  9.9999998E-03; -3.9995030E-01;267;  7.2312881E-03;  0.0000000E+00; -1.2671643E-04;  9.9887657E+00;  4.2706823E-01; -1.2076919E+00;3;  6.9170649E-04;  0.0000000E+00; -2.9410913E-03;  0.0000000E+00;  0.0000000E+00;  0.0000000E+00;0;  8.9386003E-03;  8.7694595E+01;  0.0000000E+00; -1.6084389E-03;  1.0000000E+02;  0.0000000E+00;  9.9808914E+01;  8.8296290E-03;  0.0000000E+00;  1.0897105E-04;  0.0000000E+00;
  1.8286817E+00;  9.9999998E-03; -2.0031315E-01;268;  7.1101631E-03;  0.0000000E+00; -2.7880273E-04;  9.9890137E+00;  4.2721242E-01; -1.1810491E+00;3;  3.7134645E-04;  0.0000000E+00; -1.5879910E-03;  0.0000000E+00;  0.0000000E+00;  0.0000000E+00;0;  8.7134838E-03;  8.7617813E+01;  0.0000000E+00; -1.9384193E-04;  1.0000000E+02;  0.0000000E+00;  9.9833397E+01;  8.6020408E-03;  0.0000000E+00;  1.1144337E-04;  0.0000000E+00;
  2.0583892E+00;  9.9999998E-03; -1.0013436E+00;275;  8.5474122E-03;  0.0000000E+00; -7.1069568E-05;  9.9890480E+00;  4.3077013E-01; -1.1758140E+00;3;  5.5772122E-03;  0.0000000E+00; -2.3033612E-03;  0.0000000E+00;  0.0000000E+00;  0.0000000E+00;0;  1.1093004E-02;  8.6274124E+01;  0.0000000E+00; -1.1639278E-02;  1.0000000E+02;  0.0000000E+00;  9.9724770E+01;  1.0999767E-02;  0.0000000E+00;  9.3236915E-05;  0.0000000E+00;
  2.0589480E+00;  9.9999998E-03; -8.0045819E-01;276;  8.6125545E-03;  0.0000000E+00; -2.6283469E-05;  9.9889927E+00;  4.3232778E-01; -1.1817598E+00;3;  1.8463747E-03;  0.0000000E+00; -4.4836942E-03;  0.0000000E+00;  0.0000000E+00;  0.0000000E+00;0;  1.1121660E-02;  8.5668068E+01;  0.0000000E+00; -1.1874965E-02;  1.0000000E+02;  0.0000000E+00;  9.9704750E+01;  1.1026279E-02;  0.0000000E+00;  9.5381198E-05;  0.0000000E+00;
  2.0519834E+00;  9.9999998E-03; -5.9964097E-01;277;  7.9929689E-03;  0.0000000E+00; -2.5602474E-05;  9.9890432E+00;  4.3359986E-01; -1.1763896E+00;3; -2.7266101E-04;  0.0000000E+00; -3.2123486E-03;  0.0000000E+00;  0.0000000E+00;  0.0000000E+00;0;  1.0984349E-02;  8.5178772E+01;  0.0000000E+00; -2.2748592E-03;  1.0000000E+02;  0.0000000E+00;  9.9686783E+01;  1.0870793E-02;  0.0000000E+00;  1.1355615E-04;  0.0000000E+00;
  2.0383284E+00;  9.9999998E-03; -3.9926982E-01;278;  7.4195256E-03;  0.0000000E+00; -1.7296588E-04;  9.9891005E+00;  4.3446368E-01; -1.1703753E+00;3; -1.0910891E-04;  0.0000000E+00; -1.4820017E-03;  0.0000000E+00;  0.0000000E+00;  0.0000000E+00;0;  1.0742628E-02;  8.4844093E+01;  0.0000000E+00;  3.3904932E-04;  1.0000000E+02;  0.0000000E+00;  9.9684151E+01;  1.0596175E-02;  0.0000000E+00;  1.4645347E-04;  0.0000000E+00;
  2.0332227E+00;  9.9999998E-03; -1.9948646E-01;279;  7.0919371E-03;  0.0000000E+00; -2.0455352E-04;  9.9892673E+00;  4.3511724E-01; -1.1525002E+00;3; -4.2700296E-05;  0.0000000E+00; -4.7882964E-04;  0.0000000E+00;  0.0000000E+00;  0.0000000E+00;0;  1.0522910E-02;  8.4580681E+01;  0.0000000E+00;  1.4115396E-04;  1.0000000E+02;  0.0000000E+00;  9.9696693E+01;  1.0422101E-02;  0.0000000E+00;  1.0080900E-04;  0.0000000E+00;
  2.2881906E+00;  9.9999998E-03; -1.0027512E+00;286;  1.5133670E-02;  0.0000000E+00; -1.0510458E-04;  9.9896832E+00;  4.3674317E-01; -1.1041654E+00;3; -1.0579788E-03;  0.0000000E+00; -9.5856446E-04;  0.0000000E+00;  0.0000000E+00;  0.0000000E+00;0;  1.3097709E-02;  8.4154549E+01;  0.0000000E+00; -1.4345317E-02;  1.0000000E+02;  0.0000000E+00;  9.9467674E+01;  1.2952684E-02;  0.0000000E+00;  1.4502482E-04;  0.0000000E+00;
  2.2847164E+00;  9.9999998E-03; -8.0125368E-01;287;  1.1553825E-02;  0.0000000E+00; -8.2974857E-06;  9.9892874E+00;  4.3885440E-01; -1.1466048E+00;3; -2.0934276E-03;  0.0000000E+00; -1.2421856E-03;  0.0000000E+00;  0.0000000E+00;  0.0000000E+00;0;  1.3520923E-02;  8.3362442E+01;  0.0000000E+00; -1.3511812E-03;  1.0000000E+02;  0.0000000E+00;  9.9444336E+01;  1.3373463E-02;  0.0000000E+00;  1.4746023E-04;  0.0000000E+00;
  2.2756925E+00;  9.9999998E-03; -5.9967065E-01;288;  8.5213967E-03;  0.0000000E+00;  3.8182325E-06;  9.9889584E+00;  4.4103646E-01; -1.1820343E+00;3; -1.3273179E-03;  0.0000000E+00; -7.0379733E-04;  0.0000000E+00;  0.0000000E+00;  0.0000000E+00;0;  1.3808479E-02;  8.2545143E+01;  0.0000000E+00;  5.6358916E-04;  1.0000000E+02;  0.0000000E+00;  9.9424339E+01;  1.3616958E-02;  0.0000000E+00;  1.9152099E-04;  0.0000000E+00;
  2.2590828E+00;  9.9999998E-03; -3.9840785E-01;289;  7.9044281E-03;  0.0000000E+00; -1.0925317E-04;  9.9887714E+00;  4.4291344E-01; -1.2023877E+00;3; -8.7645266E-04;  0.0000000E+00; -4.1640826E-04;  0.0000000E+00;  0.0000000E+00;  0.0000000E+00;0;  1.3785509E-02;  8.1859253E+01;  0.0000000E+00; -7.9733680E-04;  1.0000000E+02;  0.0000000E+00;  9.9412613E+01;  1.3593527E-02;  0.0000000E+00;  1.9198262E-04;  0.0000000E+00;
  2.2537694E+00;  9.9999998E-03; -1.9889615E-01;290;  7.0495508E-03;  0.0000000E+00;  1.0239133E-04;  9.9887352E+00;  4.4433054E-01; -1.2063986E+00;3; -2.6519047E-04;  0.0000000E+00; -1.5204970E-04;  0.0000000E+00;  0.0000000E+00;  0.0000000E+00;0;  1.3730860E-02;  8.1365593E+01;  0.0000000E+00; -2.0574105E-04;  1.0000000E+02;  0.0000000E+00;  9.9375298E+01;  1.3637125E-02;  0.0000000E+00;  9.3735820E-05;  0.0000000E+00;
  2.4898083E+00;  9.9999998E-03; -1.0053043E+00;297;  1.7433470E-02;  0.0000000E+00; -2.2044580E-04;  9.9900761E+00;  4.4360244E-01; -1.0555668E+00;3;  6.3213418E-05;  0.0000000E+00; -4.1899111E-04;  0.0000000E+00;  0.0000000E+00;  0.0000000E+00;0;  1.5169893E-02;  8.1967667E+01;  0.0000000E+00;  2.3366903E-05;  1.0000000E+02;  0.0000000E+00;  9.8997810E+01;  1.4908558E-02;  0.0000000E+00;  2.6133520E-04;  0.0000000E+00;
  2.4924240E+00;  9.9999998E-03; -8.0306995E-01;298;  1.6946236E-02;  0.0000000E+00; -7.5458825E-05;  9.9894714E+00;  4.4594792E-01; -1.1197244E+00;3; -4.1657425E-03;  0.0000000E+00;  4.1293504E-04;  0.0000000E+00;  0.0000000E+00;  0.0000000E+00;0;  1.6119029E-02;  8.1128159E+01;  0.0000000E+00;  5.4326799E-04;  1.0000000E+02;  0.0000000E+00;  9.8957985E+01;  1.5802303E-02;  0.0000000E+00;  3.1672567E-04;  0.0000000E+00;
  2.4949360E+00;  9.9999998E-03; -6.0056520E-01;299;  1.4518842E-02;  0.0000000E+00;  1.0545219E-04;  9.9888239E+00;  4.4871560E-01; -1.1884353E+00;3; -2.5710394E-03;  0.0000000E+00; -3.2207561E-05;  0.0000000E+00;  0.0000000E+00;  0.0000000E+00;0;  1.7112207E-02;  8.0155701E+01;  0.0000000E+00;  2.4888120E-04;  1.0000000E+02;  0.0000000E+00;  9.8915260E+01;  1.6812541E-02;  0.0000000E+00;  2.9966567E-04;  0.0000000E+00;
  2.4983003E+00;  9.9999998E-03; -3.9836165E-01;300;  1.0443284E-02;  0.0000000E+00;  3.4673771E-04;  9.9882669E+00;  4.5147577E-01; -1.2475126E+00;3; -2.7019400E-03;  0.0000000E+00; -1.0378300E-04;  0.0000000E+00;  0.0000000E+00;  0.0000000E+00;0;  1.8015848E-02;  7.9219269E+01;  0.0000000E+00;  5.8479865E-05;  1.0000000E+02;  0.0000000E+00;  9.8853714E+01;  1.7778948E-02;  0.0000000E+00;  2.3690012E-04;  0.0000000E+00;
  2.4993074E+00;  9.9999998E-03; -1.9879851E-01;301;  7.7253999E-03;  0.0000000E+00;  2.7642320E-04;  9.9878283E+00;  4.5356563E-01; -1.2940974E+00;3; -1.8532688E-03;  0.0000000E+00; -6.7393878E-05;  0.0000000E+00;  0.0000000E+00;  0.0000000E+00;0;  1.8667737E-02;  7.8556450E+01;  0.0000000E+00;  4.5382068E-05;  1.0000000E+02;  0.0000000E+00;  9.8758560E+01;  1.8425025E-02;  0.0000000E+00;  2.4271227E-04;  0.0000000E+00;
  2.6935813E+00;  9.9999998E-03; -1.0096594E+00;308;  1.7413722E-02;  0.0000000E+00; -4.4582444E-04;  9.9901094E+00;  4.5328304E-01; -1.0387833E+00;3;  5.8131955E-06;  0.0000000E+00;  2.2178974E-04;  0.0000000E+00;  0.0000000E+00;  0.0000000E+00;0;  1.7973579E-02;  7.9177666E+01;  0.0000000E+00;  3.7240353E-03;  1.0000000E+02;  0.0000000E+00;  9.8152977E+01;  1.7548852E-02;  0.0000000E+00;  4.2472733E-04;  0.0000000E+00;
  2.6996393E+00;  9.9999998E-03; -8.0653185E-01;309;  1.7354162E-02;  0.0000000E+00; -1.4521761E-04;  9.9894886E+00;  4.5518187E-01; -1.1033802E+00;3; -2.4392968E-04;  0.0000000E+00;  1.8163581E-04;  0.0000000E+00;  0.0000000E+00;  0.0000000E+00;0;  1.9192545E-02;  7.8548637E+01;  0.0000000E+00;  3.2609119E-03;  1.0000000E+02;  0.0000000E+00;  9.8106194E+01;  1.8722121E-02;  0.0000000E+00;  4.7042448E-04;  0.0000000E+00;
  2.7114677E+00;  9.9999998E-03; -6.0306710E-01;310;  1.6774431E-02;  0.0000000E+00;  1.0966002E-04;  9.9887342E+00;  4.5747992E-01; -1.1813680E+00;3; -3.1777925E-03;  0.0000000E+00;  4.2530516E-04;  0.0000000E+00;  0.0000000E+00;  0.0000000E+00;0;  2.0795345E-02;  7.7797615E+01;  0.0000000E+00;  2.6745584E-03;  1.0000000E+02;  0.0000000E+00;  9.8046684E+01;  2.0206157E-02;  0.0000000E+00;  5.8918883E-04;  0.0000000E+00;
  2.7315810E+00;  9.9999998E-03; -3.9985919E-01;311;  1.5914474E-02;  0.0000000E+00;  3.6056488E-04;  9.9880352E+00;  4.5975602E-01; -1.2523737E+00;3; -6.2877387E-03;  0.0000000E+00;  3.7998485E-04;  0.0000000E+00;  0.0000000E+00;  0.0000000E+00;0;  2.2457458E-02;  7.7086044E+01;  0.0000000E+00;  6.8294071E-04;  1.0000000E+02;  0.0000000E+00;  9.7953217E+01;  2.1814302E-02;  0.0000000E+00;  6.4315688E-04;  0.0000000E+00;
  2.7440214E+00;  9.9999998E-03; -1.9918728E-01;312;  1.4773388E-02;  0.0000000E+00;  2.7821315E-04;  9.9875202E+00;  4.6152577E-01; -1.3047180E+00;3; -6.8418710E-03;  0.0000000E+00;  9.7774013E-05;  0.0000000E+00;  0.0000000E+00;  0.0000000E+00;0;  2.3661219E-02;  7.6585793E+01;  0.0000000E+00;  2.3852357E-04;  1.0000000E+02;  0.0000000E+00;  9.7831551E+01;  2.2970766E-02;  0.0000000E+00;  6.9045351E-04;  0.0000000E+00;
  2.9082808E+00;  9.9999998E-03; -1.0162964E+00;319;  1.7364174E-02;  0.0000000E+00; -1.0162026E-03;  9.9897518E+00;  4.6682307E-01; -1.0503126E+00;3;  5.9863989E-05;  0.0000000E+00;  3.8395607E-04;  0.0000000E+00;  0.0000000E+00;  0.0000000E+00;0;  2.2088243E-02;  7.5676727E+01;  0.0000000E+00; -2.7429606E-03;  1.0000000E+02;  0.0000000E+00;  9.6815948E+01;  2.1163417E-02;  0.0000000E+00;  9.2482596E-04;  0.0000000E+00;
  2.9178951E+00;  9.9999998E-03; -8.1210577E-01;320;  1.7453104E-02;  0.0000000E+00; -5.3684437E-04;  9.9893103E+00;  4.6743816E-01; -1.0939770E+00;3; -2.5757129E-04;  0.0000000E+00;  5.4367591E-04;  0.0000000E+00;  0.0000000E+00;  0.0000000E+00;0;  2.3205169E-02;  7.5487564E+01;  0.0000000E+00;  7.4324291E-04;  1.0000000E+02;  0.0000000E+00;  9.6795349E+01;  2.2212714E-02;  0.0000000E+00;  9.9245366E-04;  0.0000000E+00;
  2.9371450E+00;  9.9999998E-03; -6.0765147E-01;321;  2.0703686E-02;  0.0000000E+00; -2.1413168E-06;  9.9887953E+00;  4.6826205E-01; -1.1433685E+00;3; -3.2660239E-03;  0.0000000E+00;  4.8986869E-04;  0.0000000E+00;  0.0000000E+00;  0.0000000E+00;0;  2.4691554E-02;  7.5237968E+01;  0.0000000E+00;  1.4659866E-03;  1.0000000E+02;  0.0000000E+00;  9.6764145E+01;  2.3567682E-02;  0.0000000E+00;  1.1238711E-03;  0.0000000E+00;
  2.9593351E+00;  9.9999998E-03; -4.0312696E-01;322;  2.7445635E-02;  0.0000000E+00;  3.3363857E-04;  9.9883347E+00;  4.6905002E-01; -1.1862741E+00;3; -2.3477313E-03;  0.0000000E+00;  2.7945449E-04;  0.0000000E+00;  0.0000000E+00;  0.0000000E+00;0;  2.6167911E-02;  7.5012749E+01;  0.0000000E+00;  6.9701404E-05;  1.0000000E+02;  0.0000000E+00;  9.6717621E+01;  2.4820352E-02;  0.0000000E+00;  1.3475589E-03;  0.0000000E+00;
  2.9756615E+00;  9.9999998E-03; -2.0025373E-01;323;  3.0446397E-02;  0.0000000E+00;  2.2480257E-04;  9.9880295E+00;  4.6973342E-01; -1.2141142E+00;3; -4.2280788E-03;  0.0000000E+00;  1.1626735E-04;  0.0000000E+00;  0.0000000E+00;  0.0000000E+00;0;  2.7186319E-02;  7.4862869E+01;  0.0000000E+00; -4.0495447E-06;  1.0000000E+02;  0.0000000E+00;  9.6627731E+01;  2.5686335E-02;  0.0000000E+00;  1.4999837E-03;  0.0000000E+00;
  3.2082846E+00;  9.9999998E-03; -1.0252867E+00;330;  2.2077721E-02;  0.0000000E+00; -2.8825405E-03;  9.9886637E+00;  2.4213564E-01; -1.1020433E+00;3;  6.5618608E-04;  0.0000000E+00;  3.4576035E-03;  0.0000000E+00;  0.0000000E+00;  0.0000000E+00;1;  3.0415945E-02;  2.8664240E+02;  0.0000000E+00;  8.5319020E-02;  1.0000000E+02;  0.0000000E+00;  9.4989334E+01;  2.7482880E-02;  0.0000000E+00;  2.9330642E-03;  0.0000000E+00;
  3.2107711E+00;  9.9999998E-03; -8.1972796E-01;331;  2.4013352E-02;  0.0000000E+00; -1.7797954E-03;  9.9887581E+00;  2.4149165E-01; -1.0923723E+00;3;  3.6970985E-03;  0.0000000E+00;  2.7010092E-03;  0.0000000E+00;  0.0000000E+00;  0.0000000E+00;1;  2.9953336E-02;  2.8796884E+02;  0.0000000E+00;  7.1204595E-02;  1.0000000E+02;  0.0000000E+00;  9.5057732E+01;  2.7459690E-02;  0.0000000E+00;  2.4936455E-03;  0.0000000E+00;
  3.2230370E+00;  9.9999998E-03; -6.1420280E-01;332;  2.8316498E-02;  0.0000000E+00; -1.2147925E-03;  9.9887047E+00;  2.4087921E-01; -1.0949799E+00;3; -1.6177146E-03;  0.0000000E+00; -1.2240621E-04;  0.0000000E+00;  0.0000000E+00;  0.0000000E+00;1;  3.0548410E-02;  2.8920908E+02;  0.0000000E+00;  1.8505488E-02;  1.0000000E+02;  0.0000000E+00;  9.5127396E+01;  2.7706457E-02;  0.0000000E+00;  2.8419532E-03;  0.0000000E+00;
  3.2377429E+00;  9.9999998E-03; -4.0843886E-01;333;  3.2198325E-02;  0.0000000E+00; -8.6996355E-04;  9.9886389E+00;  2.4038999E-01; -1.0983456E+00;3;  3.7758520E-03;  0.0000000E+00; -1.7980937E-02;  0.0000000E+00;  0.0000000E+00;  0.0000000E+00;1;  3.1076826E-02;  2.9020773E+02;  0.0000000E+00;  2.6648482E-03;  1.0000000E+02;  0.0000000E+00;  9.5189453E+01;  2.8006224E-02;  0.0000000E+00;  3.0706020E-03;  0.0000000E+00;
  3.2515080E+00;  9.9999998E-03; -2.0286112E-01;334;  3.6466643E-02;  0.0000000E+00;  1.5410772E-06;  9.9885674E+00;  2.4009717E-01; -1.1024164E+00;3;  8.6507518E-03;  0.0000000E+00; -9.1373306E-03;  0.0000000E+00;  0.0000000E+00;  0.0000000E+00;1;  3.1293474E-02;  2.9087466E+02;  0.0000000E+00;  2.7872820E-04;  1.0000000E+02;  0.0000000E+00;  9.5195717E+01;  2.8254220E-02;  0.0000000E+00;  3.0392536E-03;  0.0000000E+00;
  3.4631538E+00;  9.9999998E-03; -1.0355966E+00;341;  3.2352760E-02;  0.0000000E+00; -4.9232389E-03;  9.9877434E+00;  2.5171867E-01; -1.1409953E+00;3; -1.5179995E-03;  0.0000000E+00;  6.3726061E-04;  0.0000000E+00;  0.0000000E+00;  0.0000000E+00;1;  3.8435612E-02;  2.7090103E+02;  0.0000000E+00; -4.5809243E-02;  1.0000000E+02;  0.0000000E+00;  9.2986122E+01;  3.3499099E-02;  0.0000000E+00;  4.9365126E-03;  0.0000000E+00;
  3.4591799E+00;  9.9999998E-03; -8.2854581E-01;342;  3.1241855E-02;  0.0000000E+00; -3.7629574E-03;  9.9880152E+00;  2.5047612E-01; -1.1163146E+00;3; -1.4926748E-03;  0.0000000E+00;  1.6778258E-03;  0.0000000E+00;  0.0000000E+00;  0.0000000E+00;1;  3.7488952E-02;  2.7315665E+02;  0.0000000E+00; -3.5334453E-02;  1.0000000E+02;  0.0000000E+00;  9.3138962E+01;  3.2685883E-02;  0.0000000E+00;  4.8030694E-03;  0.0000000E+00;
  3.4582930E+00;  9.9999998E-03; -6.2183285E-01;343;  3.1711988E-02;  0.0000000E+00; -2.5393236E-03;  9.9883270E+00;  2.4913727E-01; -1.0874143E+00;3;  6.2932976E-04;  0.0000000E+00; -8.0246897E-04;  0.0000000E+00;  0.0000000E+00;  0.0000000E+00;1;  3.6515150E-02;  2.7563956E+02;  0.0000000E+00; -1.8825814E-02;  1.0000000E+02;  0.0000000E+00;  9.3299126E+01;  3.1896036E-02;  0.0000000E+00;  4.6191141E-03;  0.0000000E+00;
  3.4651363E+00;  9.9999998E-03; -4.1524249E-01;344;  3.5386808E-02;  0.0000000E+00; -1.4073246E-03;  9.9885464E+00;  2.4797526E-01; -1.0659586E+00;3;  2.8374780E-07;  0.0000000E+00;  1.8454042E-03;  0.0000000E+00;  0.0000000E+00;  0.0000000E+00;1;  3.5992704E-02;  2.7783035E+02;  0.0000000E+00; -8.3083352E-03;  1.0000000E+02;  0.0000000E+00;  9.3433975E+01;  3.1383090E-02;  0.0000000E+00;  4.6096151E-03;  0.0000000E+00;
  3.4730022E+00;  9.9999998E-03; -2.0788112E-01;345;  3.8546920E-02;  0.0000000E+00; -4.4219068E-04;  9.9886751E+00;  2.4717297E-01; -1.0528338E+00;3; -3.4532489E-04;  0.0000000E+00;  3.1267898E-04;  0.0000000E+00;  0.0000000E+00;  0.0000000E+00;1;  3.5758030E-02;  2.7934415E+02;  0.0000000E+00; -2.7266007E-03;  1.0000000E+02;  0.0000000E+00;  9.3535950E+01;  3.1097269E-02;  0.0000000E+00;  4.6607619E-03;  0.0000000E+00;
  3.7199388E+00;  9.9999998E-03; -1.0443871E+00;352;  4.3578736E-02;  0.0000000E+00; -7.3018149E-03;  9.9871244E+00;  2.5975904E-01; -1.1672713E+00;3; -2.8261216E-03;  0.0000000E+00;  9.8761788E-04;  0.0000000E+00;  0.0000000E+00;  0.0000000E+00;1;  4.6472214E-02;  2.5867392E+02;  0.0000000E+00; -5.2575015E-02;  1.0000000E+02;  0.0000000E+00;  9.1436096E+01;  3.9141063E-02;  0.0000000E+00;  7.3311529E-03;  0.0000000E+00;
  3.7130129E+00;  9.9999998E-03; -8.3613926E-01;353;  4.0692061E-02;  0.0000000E+00; -5.8585536E-03;  9.9873867E+00;  2.5870308E-01; -1.1440567E+00;3; -3.2717255E-03;  0.0000000E+00;  7.1186805E-04;  0.0000000E+00;  0.0000000E+00;  0.0000000E+00;1;  4.5371138E-02;  2.6042426E+02;  0.0000000E+00; -8.5346721E-02;  1.0000000E+02;  0.0000000E+00;  9.1567551E+01;  3.8247529E-02;  0.0000000E+00;  7.1236095E-03;  0.0000000E+00;
  3.7099886E+00;  9.9999998E-03; -6.2834889E-01;354;  3.9447315E-02;  0.0000000E+00; -4.5536649E-03;  9.9876938E+00;  2.5749221E-01; -1.1164036E+00;3; -4.1649840E-03;  0.0000000E+00;  2.7018187E-03;  0.0000000E+00;  0.0000000E+00;  0.0000000E+00;1;  4.4161465E-02;  2.6247217E+02;  0.0000000E+00; -6.6652857E-02;  1.0000000E+02;  0.0000000E+00;  9.1714394E+01;  3.7220407E-02;  0.0000000E+00;  6.9410573E-03;  0.0000000E+00;
  3.7100933E+00;  9.9999998E-03; -4.2056212E-01;355;  4.0347133E-02;  0.0000000E+00; -3.2393958E-03;  9.9880228E+00;  2.5631988E-01; -1.0865467E+00;3; -3.8884385E-03;  0.0000000E+00;  1.1797177E-03;  0.0000000E+00;  0.0000000E+00;  0.0000000E+00;1;  4.3021299E-02;  2.6447885E+02;  0.0000000E+00; -3.0954449E-02;  1.0000000E+02;  0.0000000E+00;  9.1859146E+01;  3.6268957E-02;  0.0000000E+00;  6.7523434E-03;  0.0000000E+00;
  3.7107196E+00;  9.9999998E-03; -2.1205373E-01;356;  4.2103618E-02;  0.0000000E+00; -1.4051044E-03;  9.9882660E+00;  2.5543508E-01; -1.0644367E+00;3; -2.8202280E-03;  0.0000000E+00;  7.5963885E-04;  0.0000000E+00;  0.0000000E+00;  0.0000000E+00;1;  4.2168979E-02;  2.6600537E+02;  0.0000000E+00; -7.4741412E-03;  1.0000000E+02;  0.0000000E+00;  9.1967445E+01;  3.5597458E-02;  0.0000000E+00;  6.5715197E-03;  0.0000000E+00;
  3.9769609E+00;  9.9999998E-03; -1.0507958E+00;363;  5.7039924E-02;  0.0000000E+00; -9.1448603E-03;  9.9872036E+00;  2.6549089E-01; -1.1462016E+00;3; -1.1183121E-03;  0.0000000E+00;  2.5173856E-04;  0.0000000E+00;  0.0000000E+00;  0.0000000E+00;1;  5.1961984E-02;  2.5032481E+02;  0.0000000E+00; -1.6666148E-02;  1.0000000E+02;  0.0000000E+00;  9.0449242E+01;  4.3016884E-02;  0.0000000E+00;  8.9451000E-03;  0.0000000E+00;
  3.9714429E+00;  9.9999998E-03; -8.4151733E-01;364;  5.3820249E-02;  0.0000000E+00; -7.4929693E-03;  9.9872770E+00;  2.6505542E-01; -1.1398172E+00;3; -2.8932283E-03;  0.0000000E+00;  2.0958191E-04;  0.0000000E+00;  0.0000000E+00;  0.0000000E+00;1;  5.1514350E-02;  2.5100359E+02;  0.0000000E+00; -4.8218515E-02;  1.0000000E+02;  0.0000000E+00;  9.0502831E+01;  4.2693630E-02;  0.0000000E+00;  8.8207209E-03;  0.0000000E+00;
  3.9692700E+00;  9.9999998E-03; -6.3256449E-01;365;  5.3142384E-02;  0.0000000E+00; -5.9685605E-03;  9.9874315E+00;  2.6448330E-01; -1.1260059E+00;3; -3.3883741E-03;  0.0000000E+00;  5.4166786E-04;  0.0000000E+00;  0.0000000E+00;  0.0000000E+00;1;  5.0842524E-02;  2.5190840E+02;  0.0000000E+00; -4.0510233E-02;  1.0000000E+02;  0.0000000E+00;  9.0571709E+01;  4.2156670E-02;  0.0000000E+00;  8.6858552E-03;  0.0000000E+00;
  3.9669614E+00;  9.9999998E-03; -4.2349872E-01;366;  5.2928414E-02;  0.0000000E+00; -4.5001684E-03;  9.9875975E+00;  2.6386473E-01; -1.1112366E+00;3; -3.2426929E-03;  0.0000000E+00; -3.6631865E-04;  0.0000000E+00;  0.0000000E+00;  0.0000000E+00;1;  5.0129045E-02;  2.5288116E+02;  0.0000000E+00; -1.9421797E-02;  1.0000000E+02;  0.0000000E+00;  9.0648285E+01;  4.1568093E-02;  0.0000000E+00;  8.5609509E-03;  0.0000000E+00;
  3.9620872E+00;  9.9999998E-03; -2.1344201E-01;367;  5.1587231E-02;  0.0000000E+00; -2.8620444E-03;  9.9877367E+00;  2.6333392E-01; -1.0989009E+00;3; -3.4097170E-03;  0.0000000E+00; -1.8542244E-04;  0.0000000E+00;  0.0000000E+00;  0.0000000E+00;1;  4.9469158E-02;  2.5372177E+02;  0.0000000E+00; -4.8184805E-03;  1.0000000E+02;  0.0000000E+00;  9.0714752E+01;  4.1026473E-02;  0.0000000E+00;  8.4426869E-03;  0.0000000E+00;
  4.2288985E+00;  9.9999998E-03; -1.0552871E+00;374;  6.7236759E-02;  0.0000000E+00; -1.0327637E-02;  9.9875917E+00;  2.6963127E-01; -1.1062633E+00;3; -9.4566197E-04;  0.0000000E+00; -3.8137258E-04;  0.0000000E+00;  0.0000000E+00;  0.0000000E+00;1;  5.5189665E-02;  2.4440273E+02;  0.0000000E+00; -3.8826484E-03;  1.0000000E+02;  0.0000000E+00;  8.9822586E+01;  4.5386814E-02;  0.0000000E+00;  9.8028528E-03;  0.0000000E+00;
  4.2283616E+00;  9.9999998E-03; -8.4506613E-01;375;  6.6613153E-02;  0.0000000E+00; -8.4499884E-03;  9.9875746E+00;  2.6967782E-01; -1.1077577E+00;3; -1.7532636E-03;  0.0000000E+00;  7.6528740E-06;  0.0000000E+00;  0.0000000E+00;  0.0000000E+00;1;  5.5237502E-02;  2.4433385E+02;  0.0000000E+00; -1.7507387E-02;  1.0000000E+02;  0.0000000E+00;  8.9817047E+01;  4.5487456E-02;  0.0000000E+00;  9.7500449E-03;  0.0000000E+00;
  4.2283206E+00;  9.9999998E-03; -6.3487393E-01;376;  6.6600136E-02;  0.0000000E+00; -6.7277811E-03;  9.9875460E+00;  2.6970136E-01; -1.1103090E+00;3; -2.1471474E-03;  0.0000000E+00; -1.3318207E-04;  0.0000000E+00;  0.0000000E+00;  0.0000000E+00;1;  5.5363961E-02;  2.4429596E+02;  0.0000000E+00; -1.4482478E-02;  1.0000000E+02;  0.0000000E+00;  8.9814713E+01;  4.5562688E-02;  0.0000000E+00;  9.8012723E-03;  0.0000000E+00;
  4.2268515E+00;  9.9999998E-03; -4.2418742E-01;377;  6.6159964E-02;  0.0000000E+00; -4.7849882E-03;  9.9875431E+00;  2.6969033E-01; -1.1105927E+00;3; -2.4803574E-03;  0.0000000E+00; -6.7648990E-04;  0.0000000E+00;  0.0000000E+00;  0.0000000E+00;1;  5.5354659E-02;  2.4430226E+02;  0.0000000E+00; -6.6642254E-03;  1.0000000E+02;  0.0000000E+00;  8.9820122E+01;  4.5612413E-02;  0.0000000E+00;  9.7422460E-03;  0.0000000E+00;
  4.2222486E+00;  9.9999998E-03; -2.1177985E-01;378;  6.4473473E-02;  0.0000000E+00; -3.2812767E-03;  9.9875078E+00;  2.6964143E-01; -1.1137855E+00;3; -3.1586366E-03;  0.0000000E+00; -2.8022306E-04;  0.0000000E+00;  0.0000000E+00;  0.0000000E+00;1;  5.5431135E-02;  2.4435240E+02;  0.0000000E+00; -1.5559798E-03;  1.0000000E+02;  0.0000000E+00;  8.9834007E+01;  4.5612555E-02;  0.0000000E+00;  9.8185791E-03;  0.0000000E+00;
  4.1123033E+00;  9.9999998E-03; -1.0543941E+00;549;  6.7028850E-02;  0.0000000E+00; -9.8212520E-03;  9.9874697E+00;  2.6881579E-01; -1.1189184E+00;3; -8.9382177E-04;  0.0000000E+00; -1.1707345E-04; -4.3160208E+08; -4.3160208E+08; -4.3160208E+08;1;  5.3581659E-02;  2.4554172E+02;  0.0000000E+00; -4.4989283E-03;  1.0000000E+02;  0.0000000E+00;  8.9947495E+01;  4.4168770E-02;  0.0000000E+00;  9.4128875E-03;  0.0000000E+00;
  4.1108689E+00;  9.9999998E-03; -8.4435552E-01;550;  6.5229632E-02;  0.0000000E+00; -8.0623701E-03;  9.9874640E+00;  2.6879874E-01; -1.1194786E+00;3; -2.8348227E-03;  0.0000000E+00;  9.1453818E-05; -4.3160208E+08; -4.3160208E+08; -4.3160208E+08;1;  5.3559043E-02;  2.4556906E+02;  0.0000000E+00;  2.8454183E-04;  1.0000000E+02;  0.0000000E+00;  8.9949684E+01;  4.4194583E-02;  0.0000000E+00;  9.3644615E-03;  0.0000000E+00;
  4.1108222E+00;  9.9999998E-03; -6.3441390E-01;553;  6.5319411E-02;  0.0000000E+00; -6.4516519E-03;  9.9874907E+00;  2.6872361E-01; -1.1170843E+00;3; -3.0012012E-03;  0.0000000E+00;  4.9244083E-04; -4.3160208E+08; -4.3160208E+08; -4.3160208E+08;1;  5.3444669E-02;  2.4568413E+02;  0.0000000E+00; -7.6605653E-04;  1.0000000E+02;  0.0000000E+00;  8.9957680E+01;  4.4084918E-02;  0.0000000E+00;  9.3597528E-03;  0.0000000E+00;
  4.1095037E+00;  9.9999998E-03; -4.2410618E-01;555;  6.5234013E-02;  0.0000000E+00; -4.7885696E-03;  9.9875393E+00;  2.6860496E-01; -1.1127983E+00;3; -2.8134685E-03;  0.0000000E+00;  2.6516759E-04; -4.3160208E+08; -4.3160208E+08; -4.3160208E+08;1;  5.3216822E-02;  2.4586458E+02;  0.0000000E+00; -1.4615415E-03;  1.0000000E+02;  0.0000000E+00;  8.9973045E+01;  4.3924805E-02;  0.0000000E+00;  9.2920195E-03;  0.0000000E+00;
  4.1048512E+00;  9.9999998E-03; -2.1256804E-01;557;  6.3557416E-02;  0.0000000E+00; -3.2975278E-03;  9.9875669E+00;  2.6846278E-01; -1.1103877E+00;3; -3.3105740E-03;  0.0000000E+00;  3.5728738E-04; -4.3160208E+08; -4.3160208E+08; -4.3160208E+08;1;  5.3011544E-02;  2.4607443E+02;  0.0000000E+00; -7.2296953E-04;  1.0000000E+02;  0.0000000E+00;  8.9991508E+01;  4.3732427E-02;  0.0000000E+00;  9.2791179E-03;  0.0000000E+00;
  3.8589895E+00;  9.9999998E-03; -1.0495495E+00;566;  5.5069100E-02;  0.0000000E+00; -8.3613228E-03;  9.9871664E+00;  2.6442498E-01; -1.1543819E+00;3; -2.5852171E-03;  0.0000000E+00;  4.5622588E-04; -4.3160208E+08; -4.3160208E+08; -4.3160208E+08;1;  4.9495891E-02;  2.5182246E+02;  0.0000000E+00;  1.6642046E-03;  1.0000000E+02;  0.0000000E+00;  9.0637657E+01;  4.1238200E-02;  0.0000000E+00;  8.2576899E-03;  0.0000000E+00;
  3.8522656E+00;  9.9999998E-03; -8.4045488E-01;568;  4.9998328E-02;  0.0000000E+00; -6.8075038E-03;  9.9872866E+00;  2.6390842E-01; -1.1439470E+00;3; -6.1981636E-03;  0.0000000E+00; -1.9421917E-05; -4.3160208E+08; -4.3160208E+08; -4.3160208E+08;1;  4.8893888E-02;  2.5263843E+02;  0.0000000E+00; -2.4012035E-02;  1.0000000E+02;  0.0000000E+00;  9.0700989E+01;  4.0784892E-02;  0.0000000E+00;  8.1089968E-03;  0.0000000E+00;
  3.8509357E+00;  9.9999998E-03; -6.3172275E-01;572;  5.0587587E-02;  0.0000000E+00; -5.4694805E-03;  9.9874992E+00;  2.6323131E-01; -1.1248682E+00;3; -5.4408442E-03;  0.0000000E+00;  1.5168379E-03; -4.3160208E+08; -4.3160208E+08; -4.3160208E+08;1;  4.8037671E-02;  2.5372435E+02;  0.0000000E+00; -2.2916479E-02;  1.0000000E+02;  0.0000000E+00;  9.0780121E+01;  4.0022712E-02;  0.0000000E+00;  8.0149565E-03;  0.0000000E+00;
  3.8495288E+00;  9.9999998E-03; -4.2295989E-01;574;  5.1703360E-02;  0.0000000E+00; -4.1023544E-03;  9.9877357E+00;  2.6253292E-01; -1.1036458E+00;3; -3.8562755E-03;  0.0000000E+00;  1.1558554E-03; -4.3160208E+08; -4.3160208E+08; -4.3160208E+08;1;  4.7099032E-02;  2.5486197E+02;  0.0000000E+00; -1.2420787E-02;  1.0000000E+02;  0.0000000E+00;  9.0863777E+01;  3.9268088E-02;  0.0000000E+00;  7.8309439E-03;  0.0000000E+00;
  3.8452926E+00;  9.9999998E-03; -2.1349336E-01;576;  5.1223680E-02;  0.0000000E+00; -2.3230198E-03;  9.9879360E+00;  2.6193267E-01; -1.0858340E+00;3; -3.2079488E-03;  0.0000000E+00;  6.5792468E-04; -4.3160208E+08; -4.3160208E+08; -4.3160208E+08;1;  4.6245594E-02;  2.5583231E+02;  0.0000000E+00; -3.5529549E-03;  1.0000000E+02;  0.0000000E+00;  9.0935616E+01;  3.8611494E-02;  0.0000000E+00;  7.6340982E-03;  0.0000000E+00;
  3.6007061E+00;  9.9999998E-03; -1.0428417E+00;582;  3.9872985E-02;  0.0000000E+00; -6.2419139E-03;  9.9873600E+00;  2.5841856E-01; -1.1574707E+00;3; -5.6749373E-03;  0.0000000E+00;  1.0685388E-03; -4.3160208E+08; -4.3160208E+08; -4.3160208E+08;1;  4.2871986E-02;  2.6061014E+02;  0.0000000E+00; -3.3810496E-02;  1.0000000E+02;  0.0000000E+00;  9.1704330E+01;  3.6597177E-02;  0.0000000E+00;  6.2748068E-03;  0.0000000E+00;
  3.5939598E+00;  9.9999998E-03; -8.3480513E-01;584;  3.7081681E-02;  0.0000000E+00; -4.9334723E-03;  9.9876356E+00;  2.5738153E-01; -1.1330245E+00;3; -6.1879139E-03;  0.0000000E+00;  1.0777378E-03; -4.3160208E+08; -4.3160208E+08; -4.3160208E+08;1;  4.1784689E-02;  2.6236563E+02;  0.0000000E+00; -6.5268703E-02;  1.0000000E+02;  0.0000000E+00;  9.1831261E+01;  3.5677142E-02;  0.0000000E+00;  6.1075478E-03;  0.0000000E+00;
  3.5924556E+00;  9.9999998E-03; -6.2718606E-01;586;  3.7760511E-02;  0.0000000E+00; -3.5925654E-03;  9.9879923E+00;  2.5620902E-01; -1.1005309E+00;3; -5.6276363E-03;  0.0000000E+00;  7.3157554E-04; -4.3160208E+08; -4.3160208E+08; -4.3160208E+08;1;  4.0547647E-02;  2.6437936E+02;  0.0000000E+00; -5.1440232E-02;  1.0000000E+02;  0.0000000E+00;  9.1971840E+01;  3.4698457E-02;  0.0000000E+00;  5.8491896E-03;  0.0000000E+00;
  3.5933530E+00;  9.9999998E-03; -4.1966864E-01;588;  3.9882764E-02;  0.0000000E+00; -2.4577724E-03;  9.9882584E+00;  2.5510687E-01; -1.0760136E+00;3; -4.0020673E-03;  0.0000000E+00;  3.8311146E-03; -4.3160208E+08; -4.3160208E+08; -4.3160208E+08;1;  3.9634865E-02;  2.6631509E+02;  0.0000000E+00; -2.5660105E-02;  1.0000000E+02;  0.0000000E+00;  9.2099342E+01;  3.3860341E-02;  0.0000000E+00;  5.7745245E-03;  0.0000000E+00;
  3.5943468E+00;  9.9999998E-03; -2.1121418E-01;592;  4.2112228E-02;  0.0000000E+00; -4.5351349E-04;  9.9885035E+00;  2.5426522E-01; -1.0534571E+00;3; -2.7825648E-03;  0.0000000E+00;  3.7460585E-04; -4.3160208E+08; -4.3160208E+08; -4.3160208E+08;1;  3.8866933E-02;  2.6777478E+02;  0.0000000E+00; -6.6626575E-03;  1.0000000E+02;  0.0000000E+00;  9.2206322E+01;  3.3288598E-02;  0.0000000E+00;  5.5783363E-03;  0.0000000E+00;
  3.3451779E+00;  9.9999998E-03; -1.0343312E+00;601;  3.0039124E-02;  0.0000000E+00; -3.8083692E-03;  9.9882097E+00;  2.5057378E-01; -1.1179593E+00;3; -3.7764751E-03;  0.0000000E+00;  1.1948212E-03; -4.3160208E+08; -4.3160208E+08; -4.3160208E+08;1;  3.4372255E-02;  2.7267944E+02;  0.0000000E+00; -2.6436688E-02;  1.0000000E+02;  0.0000000E+00;  9.3234406E+01;  3.0641714E-02;  0.0000000E+00;  3.7305406E-03;  0.0000000E+00;
  3.3413537E+00;  9.9999998E-03; -8.2752335E-01;606;  2.9130854E-02;  0.0000000E+00; -2.8365126E-03;  9.9883871E+00;  2.4949664E-01; -1.1018375E+00;3; -3.6676880E-03;  0.0000000E+00;  6.4396887E-04; -4.3160208E+08; -4.3160208E+08; -4.3160208E+08;1;  3.3843163E-02;  2.7466858E+02;  0.0000000E+00; -1.4894952E-02;  1.0000000E+02;  0.0000000E+00;  9.3361626E+01;  3.0118665E-02;  0.0000000E+00;  3.7244989E-03;  0.0000000E+00;
  3.3405325E+00;  9.9999998E-03; -6.2102371E-01;608;  2.9717743E-02;  0.0000000E+00; -1.8756068E-03;  9.9885397E+00;  2.4834301E-01; -1.0875127E+00;3;  4.4856016E-03;  0.0000000E+00; -6.2564295E-03; -4.3160208E+08; -4.3160208E+08; -4.3160208E+08;1;  3.3383273E-02;  2.7685522E+02;  0.0000000E+00; -6.4959452E-03;  1.0000000E+02;  0.0000000E+00;  9.3487450E+01;  2.9674089E-02;  0.0000000E+00;  3.7091854E-03;  0.0000000E+00;
  3.3483837E+00;  9.9999998E-03; -4.1448817E-01;610;  3.5215855E-02;  0.0000000E+00; -6.9659500E-04;  9.9886713E+00;  2.4733871E-01; -1.0735729E+00;3;  2.7455899E-05;  0.0000000E+00;  1.1109762E-03; -4.3160208E+08; -4.3160208E+08; -4.3160208E+08;1;  3.3167869E-02;  2.7876950E+02;  0.0000000E+00; -3.7108953E-03;  1.0000000E+02;  0.0000000E+00;  9.3602722E+01;  2.9525731E-02;  0.0000000E+00;  3.6421362E-03;  0.0000000E+00;
  3.3563583E+00;  9.9999998E-03; -2.0748125E-01;612;  3.8516019E-02;  0.0000000E+00;  1.3832764E-04;  9.9887161E+00;  2.4665338E-01; -1.0678966E+00;3; -9.5924916E-04;  0.0000000E+00;  2.8643585E-04; -4.3160208E+08; -4.3160208E+08; -4.3160208E+08;1;  3.3198576E-02;  2.8010779E+02;  0.0000000E+00; -1.8694213E-03;  1.0000000E+02;  0.0000000E+00;  9.3675903E+01;  2.9466031E-02;  0.0000000E+00;  3.7325453E-03;  0.0000000E+00;
  3.0910296E+00;  9.9999998E-03; -1.0251064E+00;617;  2.1576352E-02;  0.0000000E+00; -1.8210299E-03;  9.9892778E+00;  2.4190044E-01; -1.0657507E+00;3; -9.7728963E-04;  0.0000000E+00; -6.1697755E-03; -4.3160208E+08; -4.3160208E+08; -4.3160208E+08;1;  2.6450817E-02;  2.8708954E+02;  0.0000000E+00;  9.2286795E-02;  1.0000000E+02;  0.0000000E+00;  9.5037712E+01;  2.4829794E-02;  0.0000000E+00;  1.6210224E-03;  0.0000000E+00;
  3.0934398E+00;  9.9999998E-03; -8.1960213E-01;623;  2.2655305E-02;  0.0000000E+00; -1.2449031E-03;  9.9890528E+00;  2.4133787E-01; -1.0876000E+00;3; -4.2511532E-03;  0.0000000E+00;  1.7304557E-04; -4.3160208E+08; -4.3160208E+08; -4.3160208E+08;1;  2.7093032E-02;  2.8823038E+02;  0.0000000E+00;  7.5110070E-02;  1.0000000E+02;  0.0000000E+00;  9.5098160E+01;  2.5243115E-02;  0.0000000E+00;  1.8499180E-03;  0.0000000E+00;
  3.1057808E+00;  9.9999998E-03; -6.1412793E-01;630;  2.7797924E-02;  0.0000000E+00; -3.2099898E-04;  9.9888668E+00;  2.4080612E-01; -1.1035368E+00;3; -4.2162631E-03;  0.0000000E+00; -5.5556081E-04; -4.3160208E+08; -4.3160208E+08; -4.3160208E+08;1;  2.7739450E-02;  2.8933102E+02;  0.0000000E+00;  1.9422701E-02;  1.0000000E+02;  0.0000000E+00;  9.5148285E+01;  2.5943225E-02;  0.0000000E+00;  1.7962247E-03;  0.0000000E+00;
  3.1204994E+00;  9.9999998E-03; -4.0840152E-01;632;  3.1855363E-02;  0.0000000E+00;  2.4852203E-04;  9.9886160E+00;  2.4036165E-01; -1.1252986E+00;3; -3.2284237E-03;  0.0000000E+00; -2.9770851E-03; -4.3160208E+08; -4.3160208E+08; -4.3160208E+08;1;  2.8702453E-02;  2.9024860E+02;  0.0000000E+00;  2.8034213E-03;  1.0000000E+02;  0.0000000E+00;  9.5198082E+01;  2.6635339E-02;  0.0000000E+00;  2.0671140E-03;  0.0000000E+00;
  3.1342776E+00;  9.9999998E-03; -2.0285819E-01;634;  3.6157727E-02;  0.0000000E+00;  4.1803787E-04;  9.9885130E+00;  2.4009067E-01; -1.1325413E+00;3; -1.4571487E-02;  0.0000000E+00;  5.0610583E-03; -4.3160208E+08; -4.3160208E+08; -4.3160208E+08;1;  2.9413376E-02;  2.9088223E+02;  0.0000000E+00;  2.8490543E-04;  1.0000000E+02;  0.0000000E+00;  9.5197388E+01;  2.7140738E-02;  0.0000000E+00;  2.2726373E-03;  0.0000000E+00;
  4.3611932E+00;  9.9999998E-03; -1.0580014E+00;544;  7.6159798E-02;  0.0000000E+00; -1.0771497E-02;  9.9877987E+00;  2.7263018E-01; -1.0865321E+00;3; -1.3747023E-03;  0.0000000E+00; -5.6398712E-04; -4.3160208E+08; -4.3160208E+08; -4.3160208E+08;1;  5.6377679E-02;  2.4012610E+02;  0.0000000E+00;  7.4994379E-05;  1.0000000E+02;  0.0000000E+00;  8.9423790E+01;  4.6286948E-02;  0.0000000E+00;  1.0090732E-02;  0.0000000E+00;
  4.3636317E+00;  9.9999998E-03; -8.4721166E-01;545;  7.6567546E-02;  0.0000000E+00; -8.7892488E-03;  9.9877520E+00;  2.7281791E-01; -1.0907081E+00;3; -1.8217368E-03;  0.0000000E+00;  1.6779696E-04; -4.3160208E+08; -4.3160208E+08; -4.3160208E+08;1;  5.6625336E-02;  2.3985414E+02;  0.0000000E+00; -5.8129465E-04;  1.0000000E+02;  0.0000000E+00;  8.9401550E+01;  4.6550713E-02;  0.0000000E+00;  1.0074622E-02;  0.0000000E+00;
  4.3663325E+00;  9.9999998E-03; -6.3625622E-01;538;  7.7217154E-02;  0.0000000E+00; -6.8847882E-03;  9.9876776E+00;  2.7303788E-01; -1.0973237E+00;3; -2.1294036E-03;  0.0000000E+00; -1.6904645E-05; -4.3160208E+08; -4.3160208E+08; -4.3160208E+08;1;  5.7012442E-02;  2.3953232E+02;  0.0000000E+00; -1.3001466E-03;  1.0000000E+02;  0.0000000E+00;  8.9377029E+01;  4.6853431E-02;  0.0000000E+00;  1.0159012E-02;  0.0000000E+00;
  4.3685770E+00;  9.9999998E-03; -4.2442593E-01;539;  7.7624165E-02;  0.0000000E+00; -4.7834856E-03;  9.9876080E+00;  2.7325237E-01; -1.1034647E+00;3; -2.4664060E-03;  0.0000000E+00; -4.7419305E-04; -4.3160208E+08; -4.3160208E+08; -4.3160208E+08;1;  5.7364777E-02;  2.3920987E+02;  0.0000000E+00; -8.5681130E-04;  1.0000000E+02;  0.0000000E+00;  8.9356178E+01;  4.7168382E-02;  0.0000000E+00;  1.0196394E-02;  0.0000000E+00;
  4.3688216E+00;  9.9999998E-03; -2.1018253E-01;389;  7.7248536E-02;  0.0000000E+00; -3.1170463E-03;  9.9875202E+00;  2.7341509E-01; -1.1113183E+00;3; -3.0691843E-03;  0.0000000E+00;  3.3415153E-04;  0.0000000E+00;  0.0000000E+00;  0.0000000E+00;1;  5.7776235E-02;  2.3895386E+02;  0.0000000E+00;  1.2652201E-05;  1.0000000E+02;  0.0000000E+00;  8.9344719E+01;  4.7429465E-02;  0.0000000E+00;  1.0346769E-02;  0.0000000E+00;
  4.4775190E+00;  9.9999998E-03; -1.0586412E+00;385;  7.6152854E-02;  0.0000000E+00; -1.1108981E-02;  9.9878654E+00;  2.7336347E-01; -1.0799248E+00;3; -1.4087232E-03;  0.0000000E+00; -7.4287632E-04;  0.0000000E+00;  0.0000000E+00;  0.0000000E+00;1;  5.7658970E-02;  2.3910280E+02;  0.0000000E+00; -8.7221526E-03;  1.0000000E+02;  0.0000000E+00;  8.9325729E+01;  4.7298331E-02;  0.0000000E+00;  1.0360640E-02;  0.0000000E+00;
  4.4800658E+00;  9.9999998E-03; -8.4770614E-01;386;  7.6607212E-02;  0.0000000E+00; -9.0507558E-03;  9.9878139E+00;  2.7354652E-01; -1.0845284E+00;3; -2.0174808E-03;  0.0000000E+00;  2.9102960E-04;  0.0000000E+00;  0.0000000E+00;  0.0000000E+00;1;  5.7924874E-02;  2.3884134E+02;  0.0000000E+00; -6.0011451E-03;  1.0000000E+02;  0.0000000E+00;  8.9304085E+01;  4.7570489E-02;  0.0000000E+00;  1.0354385E-02;  0.0000000E+00;
  4.4828758E+00;  9.9999998E-03; -6.3655019E-01;387;  7.7329040E-02;  0.0000000E+00; -7.0423824E-03;  9.9877319E+00;  2.7377117E-01; -1.0917832E+00;3; -2.3161471E-03;  0.0000000E+00;  2.1148770E-04;  0.0000000E+00;  0.0000000E+00;  0.0000000E+00;1;  5.8357887E-02;  2.3851425E+02;  0.0000000E+00; -1.7276623E-03;  1.0000000E+02;  0.0000000E+00;  8.9279068E+01;  4.7907371E-02;  0.0000000E+00;  1.0450518E-02;  0.0000000E+00;
  4.4853873E+00;  9.9999998E-03; -4.2437652E-01;388;  7.7886507E-02;  0.0000000E+00; -4.7043427E-03;  9.9876556E+00;  2.7399606E-01; -1.0985619E+00;3; -2.6537832E-03;  0.0000000E+00; -7.0849207E-04;  0.0000000E+00;  0.0000000E+00;  0.0000000E+00;1;  5.8749698E-02;  2.3817432E+02;  0.0000000E+00;  4.6047912E-04;  1.0000000E+02;  0.0000000E+00;  8.9258949E+01;  4.8274774E-02;  0.0000000E+00;  1.0474922E-02;  0.0000000E+00;
  4.6327419E+00;  9.9999998E-03; -2.0976606E-01;400;  9.0574518E-02;  0.0000000E+00; -2.5626980E-03;  9.9876051E+00;  2.7689159E-01; -1.1025752E+00;3; -3.1216983E-03;  0.0000000E+00;  1.5304313E-04;  0.0000000E+00;  0.0000000E+00;  0.0000000E+00;1;  6.0606968E-02;  2.3411876E+02;  0.0000000E+00;  6.5090391E-04;  1.0000000E+02;  0.0000000E+00;  8.8916161E+01;  4.9668815E-02;  0.0000000E+00;  1.0938153E-02;  0.0000000E+00;
  4.7296348E+00;  9.9999998E-03; -8.4994322E-01;397;  8.6223289E-02;  0.0000000E+00; -9.4919465E-03;  9.9877853E+00;  2.7713686E-01; -1.0863667E+00;3; -2.4648414E-03;  0.0000000E+00;  5.9636554E-04;  0.0000000E+00;  0.0000000E+00;  0.0000000E+00;1;  6.0442023E-02;  2.3384818E+02;  0.0000000E+00; -4.9414551E-03;  1.0000000E+02;  0.0000000E+00;  8.8863380E+01;  4.9604092E-02;  0.0000000E+00;  1.0837931E-02;  0.0000000E+00;
  4.7347755E+00;  9.9999998E-03; -6.3847542E-01;398;  8.7114960E-02;  0.0000000E+00; -7.3413569E-03;  9.9877462E+00;  2.7713546E-01; -1.0898041E+00;3; -2.8702803E-03;  0.0000000E+00;  4.3396157E-04;  0.0000000E+00;  0.0000000E+00;  0.0000000E+00;1;  6.0702581E-02;  2.3384276E+02;  0.0000000E+00;  2.9488453E-03;  1.0000000E+02;  0.0000000E+00;  8.8864304E+01;  4.9784720E-02;  0.0000000E+00;  1.0917860E-02;  0.0000000E+00;
  4.6250796E+00;  9.9999998E-03; -4.2567271E-01;399;  8.8625737E-02;  0.0000000E+00; -4.8094196E-03;  9.9876842E+00;  2.7677819E-01; -1.0955424E+00;3; -2.9306558E-03;  0.0000000E+00; -1.0448553E-03;  0.0000000E+00;  0.0000000E+00;  0.0000000E+00;1;  6.0145918E-02;  2.3430518E+02;  0.0000000E+00;  1.2304763E-03;  1.0000000E+02;  0.0000000E+00;  8.8918419E+01;  4.9369324E-02;  0.0000000E+00;  1.0776594E-02;  0.0000000E+00;
  4.7287474E+00;  9.9999998E-03; -1.0612185E+00;396;  8.8908732E-02;  0.0000000E+00; -1.1688089E-02;  9.9877815E+00;  2.7718818E-01; -1.0866863E+00;3;  5.4756989E-04;  0.0000000E+00; -1.0337896E-03;  0.0000000E+00;  0.0000000E+00;  0.0000000E+00;1;  6.0495391E-02;  2.3377336E+02;  0.0000000E+00; -1.2043178E-02;  1.0000000E+02;  0.0000000E+00;  8.8858154E+01;  4.9596019E-02;  0.0000000E+00;  1.0899374E-02;  0.0000000E+00;
  4.9886365E+00;  9.9999998E-03; -1.0625595E+00;407;  1.0325827E-01;  0.0000000E+00; -1.2026811E-02;  9.9873981E+00;  2.8005648E-01; -1.1204951E+00;3;  2.5380848E-03;  0.0000000E+00; -1.0275367E-03;  0.0000000E+00;  0.0000000E+00;  0.0000000E+00;1;  6.3177183E-02;  2.2986940E+02;  0.0000000E+00;  3.0224347E-03;  1.0000000E+02;  0.0000000E+00;  8.8520729E+01;  5.1805224E-02;  0.0000000E+00;  1.1371960E-02;  0.0000000E+00;
  4.9861641E+00;  9.9999998E-03; -8.5138971E-01;408;  9.8268248E-02;  0.0000000E+00; -9.8336255E-03;  9.9874954E+00;  2.7964768E-01; -1.1118579E+00;3; -1.9354492E-03;  0.0000000E+00;  9.1292674E-04;  0.0000000E+00;  0.0000000E+00;  0.0000000E+00;1;  6.2647477E-02;  2.3042993E+02;  0.0000000E+00; -8.7628150E-03;  1.0000000E+02;  0.0000000E+00;  8.8566154E+01;  5.1387548E-02;  0.0000000E+00;  1.1259929E-02;  0.0000000E+00;
  4.9907093E+00;  9.9999998E-03; -6.4036041E-01;409;  9.8854683E-02;  0.0000000E+00; -7.7618402E-03;  9.9875507E+00;  2.7920616E-01; -1.1069262E+00;3; -2.7224324E-03;  0.0000000E+00;  4.2224684E-04;  0.0000000E+00;  0.0000000E+00;  0.0000000E+00;1;  6.2398490E-02;  2.3102832E+02;  0.0000000E+00;  6.3161098E-04;  1.0000000E+02;  0.0000000E+00;  8.8616142E+01;  5.1125128E-02;  0.0000000E+00;  1.1273361E-02;  0.0000000E+00;
  4.9997816E+00;  9.9999998E-03; -4.2858416E-01;410;  1.0195935E-01;  0.0000000E+00; -5.0582998E-03;  9.9876499E+00;  2.7875355E-01; -1.0981232E+00;3; -2.1800858E-03;  0.0000000E+00;  3.5299170E-05;  0.0000000E+00;  0.0000000E+00;  0.0000000E+00;1;  6.1896525E-02;  2.3164893E+02;  0.0000000E+00;  2.5785477E-03;  1.0000000E+02;  0.0000000E+00;  8.8667336E+01;  5.0813258E-02;  0.0000000E+00;  1.1083267E-02;  0.0000000E+00;
  5.0129232E+00;  9.9999998E-03; -2.1427810E-01;411;  1.0731330E-01;  0.0000000E+00; -1.9584887E-03;  9.9877033E+00;  2.7839729E-01; -1.0933460E+00;3; -7.1900280E-04;  0.0000000E+00;  6.0792756E-04;  0.0000000E+00;  0.0000000E+00;  0.0000000E+00;1;  6.1603598E-02;  2.3214836E+02;  0.0000000E+00;  7.0341857E-04;  1.0000000E+02;  0.0000000E+00;  8.8703918E+01;  5.0510854E-02;  0.0000000E+00;  1.1092747E-02;  0.0000000E+00;
  5.2734919E+00;  9.9999998E-03; -1.0613753E+00;418;  1.1565695E-01;  0.0000000E+00; -1.1757058E-02;  9.9870987E+00;  2.7942032E-01; -1.1470474E+00;3; -1.9179557E-03;  0.0000000E+00; -6.7352742E-04;  0.0000000E+00;  0.0000000E+00;  0.0000000E+00;1;  6.3009560E-02;  2.3072890E+02;  0.0000000E+00; -6.1589247E-03;  1.0000000E+02;  0.0000000E+00;  8.8590378E+01;  5.1691428E-02;  0.0000000E+00;  1.1318135E-02;  0.0000000E+00;
  5.2700768E+00;  9.9999998E-03; -8.5069126E-01;419;  1.1652971E-01;  0.0000000E+00; -9.7457515E-03;  9.9871883E+00;  2.7887672E-01; -1.1390461E+00;3; -1.2739515E-03;  0.0000000E+00;  1.4283175E-03;  0.0000000E+00;  0.0000000E+00;  0.0000000E+00;1;  6.2570326E-02;  2.3147565E+02;  0.0000000E+00;  2.7168023E-03;  1.0000000E+02;  0.0000000E+00;  8.8649879E+01;  5.1295336E-02;  0.0000000E+00;  1.1274990E-02;  0.0000000E+00;
  5.2649527E+00;  9.9999998E-03; -6.4056826E-01;420;  1.1628950E-01;  0.0000000E+00; -7.9421140E-03;  9.9873390E+00;  2.7816701E-01; -1.1256927E+00;3; -9.0643769E-04;  0.0000000E+00;  5.0832366E-04;  0.0000000E+00;  0.0000000E+00;  0.0000000E+00;1;  6.1917037E-02;  2.3245496E+02;  0.0000000E+00; -7.2380709E-03;  1.0000000E+02;  0.0000000E+00;  8.8728783E+01;  5.0673842E-02;  0.0000000E+00;  1.1243195E-02;  0.0000000E+00;
  5.2630711E+00;  9.9999998E-03; -4.3048999E-01;421;  1.1637735E-01;  0.0000000E+00; -5.5592135E-03;  9.9875879E+00;  2.7736461E-01; -1.1035417E+00;3; -3.8020700E-04;  0.0000000E+00; -2.9321457E-04;  0.0000000E+00;  0.0000000E+00;  0.0000000E+00;1;  6.0720518E-02;  2.3358167E+02;  0.0000000E+00; -2.8637925E-03;  1.0000000E+02;  0.0000000E+00;  8.8816307E+01;  4.9807932E-02;  0.0000000E+00;  1.0912585E-02;  0.0000000E+00;
  5.2647619E+00;  9.9999998E-03; -2.1998397E-01;422;  1.1818412E-01;  0.0000000E+00; -2.6662715E-03;  9.9877863E+00;  2.7667502E-01; -1.0858945E+00;3;  8.5331412E-04;  0.0000000E+00;  2.5200733E-04;  0.0000000E+00;  0.0000000E+00;  0.0000000E+00;1;  5.9731238E-02;  2.3458855E+02;  0.0000000E+00; -2.7128324E-05;  1.0000000E+02;  0.0000000E+00;  8.8879417E+01;  4.8960701E-02;  0.0000000E+00;  1.0770539E-02;  0.0000000E+00;
  5.5899558E+00;  9.9999998E-03; -1.0568595E+00;429;  1.4362137E-01;  0.0000000E+00; -1.0491540E-02;  9.9871645E+00;  2.7383348E-01; -1.1411295E+00;3;  2.6116727E-03;  0.0000000E+00;  4.7011895E-04;  0.0000000E+00;  0.0000000E+00;  0.0000000E+00;1;  5.7413965E-02;  2.3850523E+02;  0.0000000E+00; -2.8057685E-01;  1.0000000E+02;  0.0000000E+00;  8.9235695E+01;  4.7116611E-02;  0.0000000E+00;  1.0297355E-02;  0.0000000E+00;
  5.5685596E+00;  9.9999998E-03; -8.4634739E-01;430;  1.3643257E-01;  0.0000000E+00; -8.6353263E-03;  9.9873905E+00;  2.7272281E-01; -1.1210468E+00;3;  3.5182394E-03;  0.0000000E+00;  1.9365359E-03;  0.0000000E+00;  0.0000000E+00;  0.0000000E+00;1;  5.6852531E-02;  2.4011273E+02;  0.0000000E+00;  1.8831603E-01;  1.0000000E+02;  0.0000000E+00;  8.9364601E+01;  4.6585847E-02;  0.0000000E+00;  1.0266684E-02;  0.0000000E+00;
  5.5684457E+00;  9.9999998E-03; -6.3678950E-01;431;  1.4409955E-01;  0.0000000E+00; -6.9622844E-03;  9.9875889E+00;  2.7192602E-01; -1.1034003E+00;3;  4.3121367E-03;  0.0000000E+00;  1.1938025E-04;  0.0000000E+00;  0.0000000E+00;  0.0000000E+00;1;  5.5994030E-02;  2.4127185E+02;  0.0000000E+00; -3.0276500E-02;  1.0000000E+02;  0.0000000E+00;  8.9458687E+01;  4.5772400E-02;  0.0000000E+00;  1.0221629E-02;  0.0000000E+00;
  5.5524592E+00;  9.9999998E-03; -4.2762300E-01;432;  1.3862075E-01;  0.0000000E+00; -5.0820070E-03;  9.9878759E+00;  2.7110222E-01; -1.0779122E+00;3;  3.2663583E-03;  0.0000000E+00; -5.2816788E-04;  0.0000000E+00;  0.0000000E+00;  0.0000000E+00;1;  5.5022858E-02;  2.4249208E+02;  0.0000000E+00; -5.9376258E-02;  1.0000000E+02;  0.0000000E+00;  8.9554634E+01;  4.5044836E-02;  0.0000000E+00;  9.9780215E-03;  0.0000000E+00;
  5.5264950E+00;  9.9999998E-03; -2.1872117E-01;433;  1.2842219E-01;  0.0000000E+00; -3.6349066E-03;  9.9880180E+00;  2.7067932E-01; -1.0652487E+00;3;  1.7416249E-03;  0.0000000E+00; -1.7456117E-04;  0.0000000E+00;  0.0000000E+00;  0.0000000E+00;1;  5.4871172E-02;  2.4310646E+02;  0.0000000E+00; -2.3926804E-02;  1.0000000E+02;  0.0000000E+00;  8.9610397E+01;  4.4896163E-02;  0.0000000E+00;  9.9750077E-03;  0.0000000E+00;
  5.7942214E+00;  9.9999998E-03; -1.0500720E+00;440;  1.4358586E-01;  0.0000000E+00; -9.0549169E-03;  9.9878349E+00;  2.6343521E-01; -1.0815591E+00;3;  3.0244440E-03;  0.0000000E+00;  1.1026694E-03;  0.0000000E+00;  0.0000000E+00;  0.0000000E+00;1;  4.9370009E-02;  2.5416304E+02;  0.0000000E+00; -2.1934187E-01;  1.0000000E+02;  0.0000000E+00;  9.0488037E+01;  4.0506970E-02;  0.0000000E+00;  8.8630393E-03;  0.0000000E+00;
  5.8239803E+00;  9.9999998E-03; -8.4013242E-01;441;  1.4946951E-01;  0.0000000E+00; -7.1327840E-03;  9.9877748E+00;  2.6374549E-01; -1.0868576E+00;3;  1.0031830E-03;  0.0000000E+00;  1.6732157E-03;  0.0000000E+00;  0.0000000E+00;  0.0000000E+00;1;  4.8756164E-02;  2.5366380E+02;  0.0000000E+00;  5.5389982E-02;  1.0000000E+02;  0.0000000E+00;  9.0451126E+01;  3.9897654E-02;  0.0000000E+00;  8.8585103E-03;  0.0000000E+00;
  5.8352499E+00;  9.9999998E-03; -6.3058585E-01;442;  1.5531744E-01;  0.0000000E+00; -5.3044558E-03;  9.9879274E+00;  2.6285946E-01; -1.0732915E+00;3;  7.2836707E-04;  0.0000000E+00;  4.1996816E-04;  0.0000000E+00;  0.0000000E+00;  0.0000000E+00;1;  4.7846127E-02;  2.5505269E+02;  0.0000000E+00; -2.2415209E-01;  1.0000000E+02;  0.0000000E+00;  9.0568588E+01;  3.9154999E-02;  0.0000000E+00;  8.6911274E-03;  0.0000000E+00;
  5.8512497E+00;  9.9999998E-03; -4.2142296E-01;443;  1.5646060E-01;  0.0000000E+00; -3.2614002E-03;  9.9883518E+00;  2.6142851E-01; -1.0355613E+00;3;  1.9103003E-03;  0.0000000E+00; -7.0156046E-04;  0.0000000E+00;  0.0000000E+00;  0.0000000E+00;1;  4.5720819E-02;  2.5735669E+02;  0.0000000E+00; -7.5853698E-02;  1.0000000E+02;  0.0000000E+00;  9.0749504E+01;  3.7439138E-02;  0.0000000E+00;  8.2816808E-03;  0.0000000E+00;
  5.8262796E+00;  9.9999998E-03; -2.0995593E-01;444;  1.4605477E-01;  0.0000000E+00; -1.2409732E-03;  9.9886236E+00;  2.6030335E-01; -1.0113975E+00;3;  1.2664561E-03;  0.0000000E+00; -1.5432661E-03;  0.0000000E+00;  0.0000000E+00;  0.0000000E+00;1;  4.5343392E-02;  2.5907791E+02;  0.0000000E+00; -5.8838569E-02;  1.0000000E+02;  0.0000000E+00;  9.0930992E+01;  3.7138887E-02;  0.0000000E+00;  8.2045058E-03;  0.0000000E+00;
  5.1540456E+00;  9.9999998E-03; -1.0620543E+00;494;  1.1331240E-01;  0.0000000E+00; -1.1982795E-02;  9.9871616E+00;  2.8022119E-01; -1.1414604E+00;3; -2.5795784E-03;  0.0000000E+00; -8.6961448E-04; -4.3160208E+08; -4.3160208E+08; -4.3160208E+08;1;  6.3740522E-02;  2.2964799E+02;  0.0000000E+00;  1.7057804E-03;  1.0000000E+02;  0.0000000E+00;  8.8499557E+01;  5.2278493E-02;  0.0000000E+00;  1.1462030E-02;  0.0000000E+00;
  4.8688726E+00;  9.9999998E-03; -1.0625598E+00;496;  9.9114411E-02;  0.0000000E+00; -1.1939743E-02;  9.9875584E+00;  2.7978146E-01; -1.1063838E+00;3; -8.2098425E-04;  0.0000000E+00; -1.0689439E-03; -4.3160208E+08; -4.3160208E+08; -4.3160208E+08;1;  6.2265113E-02;  2.3024202E+02;  0.0000000E+00;  4.4469219E-02;  1.0000000E+02;  0.0000000E+00;  8.8553764E+01;  5.1049344E-02;  0.0000000E+00;  1.1215767E-02;  0.0000000E+00;
  4.8680558E+00;  9.9999998E-03; -8.5133320E-01;498;  9.6687190E-02;  0.0000000E+00; -9.7408900E-03;  9.9876022E+00;  2.7947944E-01; -1.1024623E+00;3; -2.6337749E-03;  0.0000000E+00;  7.7661133E-04; -4.3160208E+08; -4.3160208E+08; -4.3160208E+08;1;  6.2001161E-02;  2.3065501E+02;  0.0000000E+00;  1.0074132E-02;  1.0000000E+02;  0.0000000E+00;  8.8587440E+01;  5.0868329E-02;  0.0000000E+00;  1.1132834E-02;  0.0000000E+00;
  5.1500483E+00;  9.9999998E-03; -8.5124093E-01;500;  1.1360203E-01;  0.0000000E+00; -9.9032149E-03;  9.9872370E+00;  2.7968135E-01; -1.1347843E+00;3; -2.2591504E-03;  0.0000000E+00;  1.1054857E-03; -4.3160208E+08; -4.3160208E+08; -4.3160208E+08;1;  6.3352108E-02;  2.3038300E+02;  0.0000000E+00; -6.9115362E-03;  1.0000000E+02;  0.0000000E+00;  8.8559265E+01;  5.1953837E-02;  0.0000000E+00;  1.1398274E-02;  0.0000000E+00;
  4.8727293E+00;  9.9999998E-03; -6.4020163E-01;502;  9.7571813E-02;  0.0000000E+00; -7.6560732E-03;  9.9876118E+00;  2.7916545E-01; -1.1016097E+00;3; -2.9938808E-03;  0.0000000E+00;  5.1563676E-04; -4.3160208E+08; -4.3160208E+08; -4.3160208E+08;1;  6.2001005E-02;  2.3107863E+02;  0.0000000E+00;  6.1518825E-03;  1.0000000E+02;  0.0000000E+00;  8.8623283E+01;  5.0806787E-02;  0.0000000E+00;  1.1194220E-02;  0.0000000E+00;
  5.1452904E+00;  9.9999998E-03; -6.4089847E-01;504;  1.1351606E-01;  0.0000000E+00; -7.9656923E-03;  9.9873657E+00;  2.7897966E-01; -1.1233389E+00;3; -1.9736015E-03;  0.0000000E+00;  5.6616671E-04; -4.3160208E+08; -4.3160208E+08; -4.3160208E+08;1;  6.2774017E-02;  2.3134233E+02;  0.0000000E+00; -1.6305324E-02;  1.0000000E+02;  0.0000000E+00;  8.8637329E+01;  5.1420368E-02;  0.0000000E+00;  1.1353648E-02;  0.0000000E+00;
  4.8815484E+00;  9.9999998E-03; -4.2823175E-01;506;  1.0033020E-01;  0.0000000E+00; -5.1447023E-03;  9.9876442E+00;  2.7886447E-01; -1.0987394E+00;3; -2.8470431E-03;  0.0000000E+00; -8.1539538E-04; -4.3160208E+08; -4.3160208E+08; -4.3160208E+08;1;  6.1864596E-02;  2.3147803E+02;  0.0000000E+00;  4.3911794E-03;  1.0000000E+02;  0.0000000E+00;  8.8662506E+01;  5.0745130E-02;  0.0000000E+00;  1.1119466E-02;  0.0000000E+00;
  4.8941665E+00;  9.9999998E-03; -2.1326973E-01;508;  1.0477729E-01;  0.0000000E+00; -2.4560352E-03;  9.9876509E+00;  2.7864203E-01; -1.0980921E+00;3; -2.1466878E-03;  0.0000000E+00; -2.6607321E-04; -4.3160208E+08; -4.3160208E+08; -4.3160208E+08;1;  6.1852135E-02;  2.3176411E+02;  0.0000000E+00;  1.1733143E-03;  1.0000000E+02;  0.0000000E+00;  8.8694359E+01;  5.0680161E-02;  0.0000000E+00;  1.1171976E-02;  0.0000000E+00;
  5.1450224E+00;  9.9999998E-03; -4.3041763E-01;511;  1.1470446E-01;  0.0000000E+00; -5.6268340E-03;  9.9875507E+00;  2.7823016E-01; -1.1068575E+00;3; -1.2626599E-03;  0.0000000E+00; -5.3107581E-04; -4.3160208E+08; -4.3160208E+08; -4.3160208E+08;1;  6.1852932E-02;  2.3237750E+02;  0.0000000E+00; -6.2644938E-03;  1.0000000E+02;  0.0000000E+00;  8.8721817E+01;  5.0719995E-02;  0.0000000E+00;  1.1132939E-02;  0.0000000E+00;
  5.1483479E+00;  9.9999998E-03; -2.1867518E-01;513;  1.1773388E-01;  0.0000000E+00; -2.5205850E-03;  9.9877071E+00;  2.7760509E-01; -1.0929718E+00;3;  2.6690241E-04;  0.0000000E+00; -3.1284732E-04; -4.3160208E+08; -4.3160208E+08; -4.3160208E+08;1;  6.1059948E-02;  2.3326047E+02;  0.0000000E+00; -6.3270982E-04;  1.0000000E+02;  0.0000000E+00;  8.8786461E+01;  5.0062984E-02;  0.0000000E+00;  1.0996965E-02;  0.0000000E+00;
  4.6097708E+00;  9.9999998E-03; -1.0608139E+00;516;  8.5878029E-02;  0.0000000E+00; -1.1450640E-02;  9.9878569E+00;  2.7650100E-01; -1.0802585E+00;3; -1.6275729E-03;  0.0000000E+00; -9.1087585E-04; -4.3160208E+08; -4.3160208E+08; -4.3160208E+08;1;  5.9162270E-02;  2.3471756E+02;  0.0000000E+00;  2.5962524E-02;  1.0000000E+02;  0.0000000E+00;  8.8942284E+01;  4.8507243E-02;  0.0000000E+00;  1.0655027E-02;  0.0000000E+00;
  4.6127110E+00;  9.9999998E-03; -8.4960723E-01;518;  8.5818917E-02;  0.0000000E+00; -9.3135834E-03;  9.9878149E+00;  2.7655804E-01; -1.0839623E+00;3; -2.3629314E-03;  0.0000000E+00;  4.2461287E-04; -4.3160208E+08; -4.3160208E+08; -4.3160208E+08;1;  5.9356924E-02;  2.3463844E+02;  0.0000000E+00;  9.8386360E-03;  1.0000000E+02;  0.0000000E+00;  8.8935333E+01;  4.8725564E-02;  0.0000000E+00;  1.0631359E-02;  0.0000000E+00;
  4.6179924E+00;  9.9999998E-03; -6.3821101E-01;520;  8.6922392E-02;  0.0000000E+00; -7.2396831E-03;  9.9877462E+00;  2.7665862E-01; -1.0900463E+00;3; -2.6379251E-03;  0.0000000E+00;  1.0754575E-04; -4.3160208E+08; -4.3160208E+08; -4.3160208E+08;1;  5.9772879E-02;  2.3449321E+02;  0.0000000E+00;  3.2741204E-03;  1.0000000E+02;  0.0000000E+00;  8.8924904E+01;  4.9027760E-02;  0.0000000E+00;  1.0745118E-02;  0.0000000E+00;
  4.7423491E+00;  9.9999998E-03; -4.2580843E-01;523;  8.9197636E-02;  0.0000000E+00; -4.7651562E-03;  9.9877129E+00;  2.7715474E-01; -1.0927604E+00;3; -2.9958317E-03;  0.0000000E+00; -4.0977332E-04; -4.3160208E+08; -4.3160208E+08; -4.3160208E+08;1;  6.0917538E-02;  2.3380319E+02;  0.0000000E+00;  2.6889229E-03;  1.0000000E+02;  0.0000000E+00;  8.8867950E+01;  4.9998108E-02;  0.0000000E+00;  1.0919429E-02;  0.0000000E+00;
  4.7510614E+00;  9.9999998E-03; -2.0966789E-01;525;  9.1968618E-02;  0.0000000E+00; -1.9033882E-03;  9.9876652E+00;  2.7718252E-01; -1.0969877E+00;3; -2.7784910E-03;  0.0000000E+00;  6.6499412E-04; -4.3160208E+08; -4.3160208E+08; -4.3160208E+08;1;  6.1207540E-02;  2.3374844E+02;  0.0000000E+00;  1.0112603E-03;  1.0000000E+02;  0.0000000E+00;  8.8870605E+01;  5.0173584E-02;  0.0000000E+00;  1.1033955E-02;  0.0000000E+00;
  5.4698715E+00;  9.9999998E-03; -1.0580934E+00;527;  1.4045064E-01;  0.0000000E+00; -1.1115219E-02;  9.9870338E+00;  2.7577171E-01; -1.1527965E+00;3;  6.6032936E-04;  0.0000000E+00; -1.1654793E-04; -4.3160208E+08; -4.3160208E+08; -4.3160208E+08;1;  6.0473774E-02;  2.3575546E+02;  0.0000000E+00; -2.8917551E-01;  1.0000000E+02;  0.0000000E+00;  8.9010483E+01;  4.9603585E-02;  0.0000000E+00;  1.0870188E-02;  0.0000000E+00;
  5.4438081E+00;  9.9999998E-03; -8.4778458E-01;529;  1.2791765E-01;  0.0000000E+00; -9.2319921E-03;  9.9872284E+00;  2.7468857E-01; -1.1354704E+00;3; -1.6821212E-03;  0.0000000E+00;  1.7559956E-03; -4.3160208E+08; -4.3160208E+08; -4.3160208E+08;1;  5.9978947E-02;  2.3729369E+02;  0.0000000E+00;  1.5205148E-01;  1.0000000E+02;  0.0000000E+00;  8.9133781E+01;  4.9150031E-02;  0.0000000E+00;  1.0828917E-02;  0.0000000E+00;
  5.4439187E+00;  9.9999998E-03; -6.3803846E-01;531;  1.3668117E-01;  0.0000000E+00; -7.4902759E-03;  9.9874182E+00;  2.7378935E-01; -1.1186187E+00;3;  1.1018674E-03;  0.0000000E+00;  1.8438265E-04; -4.3160208E+08; -4.3160208E+08; -4.3160208E+08;1;  5.9122190E-02;  2.3858524E+02;  0.0000000E+00; -2.9958768E-02;  1.0000000E+02;  0.0000000E+00;  8.9237206E+01;  4.8382204E-02;  0.0000000E+00;  1.0739985E-02;  0.0000000E+00;
  5.4311495E+00;  9.9999998E-03; -4.2895654E-01;533;  1.3367245E-01;  0.0000000E+00; -5.8742897E-03;  9.9876661E+00;  2.7292269E-01; -1.0965751E+00;3; -1.8087718E-04;  0.0000000E+00;  1.0676617E-03; -4.3160208E+08; -4.3160208E+08; -4.3160208E+08;1;  5.8159858E-02;  2.3987909E+02;  0.0000000E+00; -6.9050126E-02;  1.0000000E+02;  0.0000000E+00;  8.9323624E+01;  4.7553074E-02;  0.0000000E+00;  1.0606783E-02;  0.0000000E+00;
  4.4861870E+00;  9.9999998E-03; -2.0936300E-01;536;  7.7862710E-02;  0.0000000E+00; -2.6572421E-03;  9.9875574E+00;  2.7417040E-01; -1.1073107E+00;3; -3.1106304E-03;  0.0000000E+00;  2.4215117E-04; -4.3160208E+08; -4.3160208E+08; -4.3160208E+08;1;  5.9229854E-02;  2.3789577E+02;  0.0000000E+00;  6.3218089E-04;  1.0000000E+02;  0.0000000E+00;  8.9249573E+01;  4.8589941E-02;  0.0000000E+00;  1.0639914E-02;  0.0000000E+00;
  5.4099483E+00;  9.9999998E-03; -2.2025128E-01;540;  1.2773962E-01;  0.0000000E+00; -3.4178665E-03;  9.9878941E+00;  2.7234161E-01; -1.0762813E+00;3;  3.3573573E-04;  0.0000000E+00;  2.2900378E-05; -4.3160208E+08; -4.3160208E+08; -4.3160208E+08;1;  5.7407502E-02;  2.4074805E+02;  0.0000000E+00; -2.9223375E-02;  1.0000000E+02;  0.0000000E+00;  8.9384346E+01;  4.6998013E-02;  0.0000000E+00;  1.0409489E-02;  0.0000000E+00;
  5.6964173E+00;  9.9999998E-03; -8.4158105E-01;560;  1.4399567E-01;  0.0000000E+00; -7.9097776E-03;  9.9875879E+00;  2.6573458E-01; -1.1035006E+00;3;  4.5589926E-03;  0.0000000E+00;  2.1303089E-03; -4.3160208E+08; -4.3160208E+08; -4.3160208E+08;1;  5.3009562E-02;  2.5055487E+02;  0.0000000E+00;  9.0042494E-02;  1.0000000E+02;  0.0000000E+00;  9.0205261E+01;  4.3394484E-02;  0.0000000E+00;  9.6150786E-03;  0.0000000E+00;
  5.6781354E+00;  9.9999998E-03; -1.0515656E+00;562;  1.4368491E-01;  0.0000000E+00; -9.9062184E-03;  9.9873686E+00;  2.6600564E-01; -1.1230022E+00;3;  2.9674252E-03;  0.0000000E+00;  8.0522371E-04; -4.3160208E+08; -4.3160208E+08; -4.3160208E+08;1;  5.4418206E-02;  2.5012411E+02;  0.0000000E+00; -2.2967720E-01;  1.0000000E+02;  0.0000000E+00;  9.0173363E+01;  4.4654656E-02;  0.0000000E+00;  9.7635491E-03;  0.0000000E+00;
  5.7115149E+00;  9.9999998E-03; -6.3176376E-01;564;  1.5166587E-01;  0.0000000E+00; -6.0284743E-03;  9.9878139E+00;  2.6465791E-01; -1.0834161E+00;3; -1.1943275E-04;  0.0000000E+00;  8.1799645E-04; -4.3160208E+08; -4.3160208E+08; -4.3160208E+08;1;  5.1693145E-02;  2.5221599E+02;  0.0000000E+00; -1.9149812E-01;  1.0000000E+02;  0.0000000E+00;  9.0344780E+01;  4.2300228E-02;  0.0000000E+00;  9.3929181E-03;  0.0000000E+00;
  5.7324681E+00;  9.9999998E-03; -4.2275447E-01;570;  1.5344773E-01;  0.0000000E+00; -4.3314588E-03;  9.9881964E+00;  2.6322675E-01; -1.0493948E+00;3; -7.2998006E-04;  0.0000000E+00; -2.3570939E-04; -4.3160208E+08; -4.3160208E+08; -4.3160208E+08;1;  4.9554303E-02;  2.5451440E+02;  0.0000000E+00; -7.8949645E-02;  1.0000000E+02;  0.0000000E+00;  9.0510323E+01;  4.0437333E-02;  0.0000000E+00;  9.1169719E-03;  0.0000000E+00;
  5.7073193E+00;  9.9999998E-03; -2.1403757E-01;578;  1.4252394E-01;  0.0000000E+00; -2.5302810E-03;  9.9883909E+00;  2.6222894E-01; -1.0321202E+00;3; -2.1654905E-03;  0.0000000E+00;  1.0081831E-03; -4.3160208E+08; -4.3160208E+08; -4.3160208E+08;1;  4.9352873E-02;  2.5614325E+02;  0.0000000E+00; -6.5465681E-02;  1.0000000E+02;  0.0000000E+00;  9.0623215E+01;  4.0358432E-02;  0.0000000E+00;  8.9944424E-03;  0.0000000E+00;
  5.9131093E+00;  9.9999998E-03; -1.0433886E+00;597;  1.4700064E-01;  0.0000000E+00; -8.1426306E-03;  9.9882412E+00;  2.5410023E-01; -1.0454166E+00;3;  2.3873025E-03;  0.0000000E+00;  2.0103524E-03; -4.3160208E+08; -4.3160208E+08; -4.3160208E+08;1;  4.4231519E-02;  2.6966748E+02;  0.0000000E+00;  1.3551809E-01;  1.0000000E+02;  0.0000000E+00;  9.1673195E+01;  3.6265574E-02;  0.0000000E+00;  7.9659447E-03;  0.0000000E+00;
  5.9422431E+00;  9.9999998E-03; -8.3455580E-01;590;  1.5338856E-01;  0.0000000E+00; -6.3794940E-03;  9.9879017E+00;  2.5577575E-01; -1.0756214E+00;3;  1.5868510E-03;  0.0000000E+00;  1.6482687E-03; -4.3160208E+08; -4.3160208E+08; -4.3160208E+08;1;  4.4615280E-02;  2.6674817E+02;  0.0000000E+00; -8.0948621E-02;  1.0000000E+02;  0.0000000E+00;  9.1461418E+01;  3.6483437E-02;  0.0000000E+00;  8.1318440E-03;  0.0000000E+00;
  5.9427686E+00;  9.9999998E-03; -2.0630777E-01;603;  1.4885147E-01;  0.0000000E+00; -4.7549929E-05;  9.9888449E+00;  2.5167626E-01; -9.9173588E-01;3; -7.9757581E-04;  0.0000000E+00; -1.3889110E-04; -4.3160208E+08; -4.3160208E+08; -4.3160208E+08;1;  4.1153409E-02;  2.7384085E+02;  0.0000000E+00; -1.9671358E-01;  1.0000000E+02;  0.0000000E+00;  9.2031868E+01;  3.3762679E-02;  0.0000000E+00;  7.3907315E-03;  0.0000000E+00;
  5.9486914E+00;  9.9999998E-03; -6.2484151E-01;595;  1.5810990E-01;  0.0000000E+00; -4.4351756E-03;  9.9879799E+00;  2.5448537E-01; -1.0686265E+00;3;  3.1095867E-03;  0.0000000E+00;  1.5578524E-03; -4.3160208E+08; -4.3160208E+08; -4.3160208E+08;1;  4.4115826E-02;  2.6891870E+02;  0.0000000E+00; -3.7645680E-01;  1.0000000E+02;  0.0000000E+00;  9.1646294E+01;  3.6255926E-02;  0.0000000E+00;  7.8598987E-03;  0.0000000E+00;
  5.9581094E+00;  9.9999998E-03; -4.1645104E-01;599;  1.5976064E-01;  0.0000000E+00; -3.0734993E-03;  9.9882851E+00;  2.5333381E-01; -1.0414947E+00;3;  2.8908425E-03;  0.0000000E+00; -7.4207288E-04; -4.3160208E+08; -4.3160208E+08; -4.3160208E+08;1;  4.2732488E-02;  2.7095453E+02;  0.0000000E+00; -4.1408202E-01;  1.0000000E+02;  0.0000000E+00;  9.1792145E+01;  3.4925036E-02;  0.0000000E+00;  7.8074522E-03;  0.0000000E+00;
  6.0345678E+00;  9.9999998E-03; -1.0422739E+00;451;  1.5311632E-01;  0.0000000E+00; -7.4130138E-03;  9.9881201E+00;  2.5270408E-01; -1.0561726E+00;3;  4.4254302E-03;  0.0000000E+00;  1.4247026E-03;  0.0000000E+00;  0.0000000E+00;  0.0000000E+00;1;  4.0727720E-02;  2.7208740E+02;  0.0000000E+00;  1.5436719E-01;  1.0000000E+02;  0.0000000E+00;  9.1862129E+01;  3.3418320E-02;  0.0000000E+00;  7.3093995E-03;  0.0000000E+00;
  6.0605235E+00;  9.9999998E-03; -8.3342767E-01;452;  1.5553245E-01;  0.0000000E+00; -5.5701733E-03;  9.9881325E+00;  2.5398540E-01; -1.0550596E+00;3;  3.9635813E-03;  0.0000000E+00;  1.9894103E-03;  0.0000000E+00;  0.0000000E+00;  0.0000000E+00;1;  3.9781276E-02;  2.6984683E+02;  0.0000000E+00; -3.6575522E-02;  1.0000000E+02;  0.0000000E+00;  9.1694313E+01;  3.2547470E-02;  0.0000000E+00;  7.2338055E-03;  0.0000000E+00;
  6.0665627E+00;  9.9999998E-03; -6.2416643E-01;453;  1.5931016E-01;  0.0000000E+00; -4.2618574E-03;  9.9878654E+00;  2.5309852E-01; -1.0787997E+00;3;  7.4958387E-03;  0.0000000E+00;  4.6267211E-03;  0.0000000E+00;  0.0000000E+00;  0.0000000E+00;1;  4.0464275E-02;  2.7133826E+02;  0.0000000E+00; -3.4363163E-01;  1.0000000E+02;  0.0000000E+00;  9.1823967E+01;  3.2925714E-02;  0.0000000E+00;  7.5385626E-03;  0.0000000E+00;
  6.0613937E+00;  9.9999998E-03; -2.0615223E-01;455;  1.5267025E-01;  0.0000000E+00;  1.3981847E-04;  9.9889669E+00;  2.5043428E-01; -9.8087156E-01;3;  1.0583798E-03;  0.0000000E+00;  1.4061923E-05;  0.0000000E+00;  0.0000000E+00;  0.0000000E+00;1;  3.6983676E-02;  2.7612442E+02;  0.0000000E+00; -1.8899682E-01;  1.0000000E+02;  0.0000000E+00;  9.2182236E+01;  3.0289235E-02;  0.0000000E+00;  6.6944412E-03;  0.0000000E+00;
  6.0747976E+00;  9.9999998E-03; -4.1609147E-01;454;  1.6033994E-01;  0.0000000E+00; -2.1945627E-03;  9.9882450E+00;  2.5213328E-01; -1.0450970E+00;3;  4.1424506E-03;  0.0000000E+00;  2.8708919E-03;  0.0000000E+00;  0.0000000E+00;  0.0000000E+00;1;  3.8888730E-02;  2.7308298E+02;  0.0000000E+00; -3.9352959E-01;  1.0000000E+02;  0.0000000E+00;  9.1945953E+01;  3.1940728E-02;  0.0000000E+00;  6.9480031E-03;  0.0000000E+00;
  6.2616544E+00;  9.9999998E-03; -1.0341583E+00;462;  1.5769067E-01;  0.0000000E+00; -6.0301558E-03;  9.9879837E+00;  2.4210764E-01; -1.0683063E+00;3;  3.6289147E-03;  0.0000000E+00;  1.0294184E-02;  0.0000000E+00;  0.0000000E+00;  0.0000000E+00;1;  3.2215670E-02;  2.9181995E+02;  0.0000000E+00;  4.1666546E-01;  1.0000000E+02;  0.0000000E+00;  9.3309586E+01;  2.6024038E-02;  0.0000000E+00;  6.1916313E-03;  0.0000000E+00;
  6.2685452E+00;  9.9999998E-03; -8.2533050E-01;463;  1.5832318E-01;  0.0000000E+00; -3.9738803E-03;  9.9887447E+00;  2.4148692E-01; -1.0006363E+00;3; -3.2951417E-03;  0.0000000E+00; -7.5975512E-03;  0.0000000E+00;  0.0000000E+00;  0.0000000E+00;1;  3.0395290E-02;  2.9309402E+02;  0.0000000E+00;  1.2548590E-01;  1.0000000E+02;  0.0000000E+00;  9.3395882E+01;  2.5044596E-02;  0.0000000E+00;  5.3506941E-03;  0.0000000E+00;
  6.2803006E+00;  9.9999998E-03; -2.0263606E-01;466;  1.6078836E-01;  0.0000000E+00; -1.3826393E-03;  9.9881506E+00;  2.4104473E-01; -1.0534687E+00;3;  4.9930657E-03;  0.0000000E+00; -3.7911112E-04;  0.0000000E+00;  0.0000000E+00;  0.0000000E+00;1;  3.1421348E-02;  2.9403632E+02;  0.0000000E+00; -4.5097506E-01;  1.0000000E+02;  0.0000000E+00;  9.3427933E+01;  2.5536014E-02;  0.0000000E+00;  5.8853365E-03;  0.0000000E+00;
  6.2814960E+00;  9.9999998E-03; -6.1788845E-01;464;  1.6038354E-01;  0.0000000E+00; -3.3342482E-03;  9.9879370E+00;  2.4268158E-01; -1.0724397E+00;3;  4.4036787E-03;  0.0000000E+00; -1.9515736E-04;  0.0000000E+00;  0.0000000E+00;  0.0000000E+00;1;  3.2001201E-02;  2.9071021E+02;  0.0000000E+00; -5.8505011E-01;  1.0000000E+02;  0.0000000E+00;  9.3224174E+01;  2.5667541E-02;  0.0000000E+00;  6.3336589E-03;  0.0000000E+00;
  6.2824454E+00;  9.9999998E-03; -4.1015366E-01;465;  1.6180079E-01;  0.0000000E+00; -1.6617868E-03;  9.9878588E+00;  2.4190396E-01; -1.0794344E+00;3;  3.8152421E-03;  0.0000000E+00; -1.3007806E-04;  0.0000000E+00;  0.0000000E+00;  0.0000000E+00;1;  3.2072052E-02;  2.9226297E+02;  0.0000000E+00; -9.6903986E-01;  1.0000000E+02;  0.0000000E+00;  9.3325798E+01;  2.6254304E-02;  0.0000000E+00;  5.8177495E-03;  0.0000000E+00;
  6.4258008E+00;  9.9999998E-03; -4.0182075E-01;475;  1.6134581E-01;  0.0000000E+00; -9.6283102E-04;  9.9880266E+00;  4.5830372E-01; -1.0644906E+00;3;  4.3737059E-03;  0.0000000E+00; -7.3500426E-04;  0.0000000E+00;  0.0000000E+00;  0.0000000E+00;0;  2.5539519E-02;  7.9837936E+01;  0.0000000E+00;  8.4707677E-02;  1.0000000E+02;  0.0000000E+00;  9.5181198E+01;  2.0735914E-02;  0.0000000E+00;  4.8036058E-03;  0.0000000E+00;
  6.4240961E+00;  9.9999998E-03; -6.0941917E-01;474;  1.5986688E-01;  0.0000000E+00; -1.8556241E-03;  9.9888601E+00;  4.5796546E-01; -9.9040860E-01;3;  4.0656817E-03;  0.0000000E+00;  1.1070323E-03;  0.0000000E+00;  0.0000000E+00;  0.0000000E+00;0;  2.3733651E-02;  7.9928459E+01;  0.0000000E+00; -4.3363478E-02;  1.0000000E+02;  0.0000000E+00;  9.5227417E+01;  1.9181440E-02;  0.0000000E+00;  4.5522111E-03;  0.0000000E+00;
  6.4314570E+00;  9.9999998E-03; -8.1922728E-01;473;  1.6155794E-01;  0.0000000E+00; -3.4440912E-03;  9.9874544E+00;  4.6535471E-01; -1.1153622E+00;3;  8.8031301E-03;  0.0000000E+00;  5.4854797E-03;  0.0000000E+00;  0.0000000E+00;  0.0000000E+00;0;  2.6337305E-02;  7.7845665E+01;  0.0000000E+00; -6.5989323E-02;  1.0000000E+02;  0.0000000E+00;  9.4672760E+01;  2.1448776E-02;  0.0000000E+00;  4.8885285E-03;  0.0000000E+00;
  6.4367194E+00;  9.9999998E-03; -1.9922075E-01;476;  1.6155939E-01;  0.0000000E+00;  1.4027672E-04;  9.9878321E+00;  4.6329600E-01; -1.0817657E+00;3;  3.2538781E-03;  0.0000000E+00;  3.6741083E-05;  0.0000000E+00;  0.0000000E+00;  0.0000000E+00;0;  2.5358176E-02;  7.8461472E+01;  0.0000000E+00;  3.7419833E-02;  1.0000000E+02;  0.0000000E+00;  9.4772690E+01;  2.0679655E-02;  0.0000000E+00;  4.6785208E-03;  0.0000000E+00;
  6.6374798E+00;  9.9999998E-03; -3.9886722E-01;483;  1.6172975E-01;  0.0000000E+00;  3.5563021E-04;  9.9878263E+00;  4.4005141E-01; -1.0822954E+00;3;  4.1220747E-03;  0.0000000E+00;  4.0552852E-04;  0.0000000E+00;  0.0000000E+00;  0.0000000E+00;0;  1.5894985E-02;  8.5339508E+01;  0.0000000E+00; -1.4446642E-01;  1.0000000E+02;  0.0000000E+00;  9.6585274E+01;  1.2978693E-02;  0.0000000E+00;  2.9162928E-03;  0.0000000E+00;
  6.6479869E+00;  9.9999998E-03; -6.0823494E-01;482;  1.6510797E-01;  0.0000000E+00; -7.5953803E-04;  9.9835768E+00;  4.4983825E-01; -1.4601238E+00;3; -2.6846784E-03;  0.0000000E+00; -2.5001459E-04;  0.0000000E+00;  0.0000000E+00;  0.0000000E+00;0;  2.0772068E-02;  8.2237946E+01;  0.0000000E+00; -1.0390525E-01;  1.0000000E+02;  0.0000000E+00;  9.5839897E+01;  1.7962944E-02;  0.0000000E+00;  2.8091248E-03;  0.0000000E+00;
  6.6464419E+00;  9.9999998E-03; -1.9679150E-01;484;  1.6319449E-01;  0.0000000E+00;  7.9189695E-04;  9.9855824E+00;  4.4594631E-01; -1.2818078E+00;3;  3.9438438E-03;  0.0000000E+00;  1.8439465E-04;  0.0000000E+00;  0.0000000E+00;  0.0000000E+00;0;  1.8313089E-02;  8.3519699E+01;  0.0000000E+00; -2.1505754E-02;  1.0000000E+02;  0.0000000E+00;  9.6059448E+01;  1.4910119E-02;  0.0000000E+00;  3.4029710E-03;  0.0000000E+00;
  6.8541336E+00;  9.9999998E-03; -4.0130481E-01;489;  1.6518995E-01;  0.0000000E+00; -7.2710996E-04;  9.9640903E+00;  4.3382138E-01; -3.1925166E+00;3;  1.8534213E-02;  0.0000000E+00; -3.3280905E-03;  0.0000000E+00;  0.0000000E+00;  0.0000000E+00;0;  1.5052710E-02;  8.7120216E+01;  0.0000000E+00; -1.6777612E-01;  1.0000000E+02;  0.0000000E+00;  9.6916916E+01;  1.1822548E-02;  0.0000000E+00;  3.2301617E-03;  0.0000000E+00;
  6.8511076E+00;  9.9999998E-03; -1.9522665E-01;490;  1.6479421E-01;  0.0000000E+00;  7.5856567E-04;  9.9695177E+00;  4.2985430E-01; -2.7100303E+00;3;  6.1125960E-03;  0.0000000E+00;  8.6927135E-04;  0.0000000E+00;  0.0000000E+00;  0.0000000E+00;0;  1.3489599E-02;  8.8566902E+01;  0.0000000E+00; -1.3943253E-01;  1.0000000E+02;  0.0000000E+00;  9.7198540E+01;  1.0965363E-02;  0.0000000E+00;  2.5242360E-03;  0.0000000E+00;
  6.1653576E+00;  9.9999998E-03; -6.1782211E-01;615;  1.6060364E-01;  0.0000000E+00; -3.5142933E-03;  9.9878731E+00;  2.4314500E-01; -1.0781631E+00;3;  3.0605388E-03;  0.0000000E+00; -5.1614582E-03; -4.3160208E+08; -4.3160208E+08; -4.3160208E+08;1;  3.6856148E-02;  2.8980093E+02;  0.0000000E+00; -6.0294390E-01;  1.0000000E+02;  0.0000000E+00;  9.3159622E+01;  3.0144718E-02;  0.0000000E+00;  6.7114322E-03;  0.0000000E+00;
  6.1448588E+00;  9.9999998E-03; -1.0346286E+00;619;  1.5562148E-01;  0.0000000E+00; -6.4217807E-03;  9.9883337E+00;  2.4242505E-01; -1.0372009E+00;3;  1.9985507E-03;  0.0000000E+00; -2.6557604E-03; -4.3160208E+08; -4.3160208E+08; -4.3160208E+08;1;  3.6041964E-02;  2.9123138E+02;  0.0000000E+00;  4.0164125E-01;  1.0000000E+02;  0.0000000E+00;  9.3260185E+01;  2.9789528E-02;  0.0000000E+00;  6.2524355E-03;  0.0000000E+00;
  6.1661568E+00;  9.9999998E-03; -4.0963849E-01;621;  1.6148704E-01;  0.0000000E+00; -1.9316598E-03;  9.9880619E+00;  2.4215218E-01; -1.0613649E+00;3;  3.2876239E-03;  0.0000000E+00; -8.3571923E-04; -4.3160208E+08; -4.3160208E+08; -4.3160208E+08;1;  3.6147084E-02;  2.9175977E+02;  0.0000000E+00; -9.7397268E-01;  1.0000000E+02;  0.0000000E+00;  9.3299301E+01;  2.9695742E-02;  0.0000000E+00;  6.4513432E-03;  0.0000000E+00;
  6.1520104E+00;  9.9999998E-03; -8.2562596E-01;624;  1.5635811E-01;  0.0000000E+00; -5.1654382E-03;  9.9883165E+00;  2.4175349E-01; -1.0387375E+00;3;  5.5959024E-03;  0.0000000E+00;  5.2640047E-03; -4.3160208E+08; -4.3160208E+08; -4.3160208E+08;1;  3.5813216E-02;  2.9258902E+02;  0.0000000E+00;  1.2509555E-01;  1.0000000E+02;  0.0000000E+00;  9.3342682E+01;  2.8916910E-02;  0.0000000E+00;  6.8963044E-03;  0.0000000E+00;
  6.1640525E+00;  9.9999998E-03; -2.0239080E-01;628;  1.6049771E-01;  0.0000000E+00; -1.4613741E-03;  9.9883356E+00;  2.4118373E-01; -1.0370418E+00;3;  3.1257370E-03;  0.0000000E+00;  2.2161083E-04; -4.3160208E+08; -4.3160208E+08; -4.3160208E+08;1;  3.5391126E-02;  2.9375702E+02;  0.0000000E+00; -4.5172781E-01;  1.0000000E+02;  0.0000000E+00;  9.3412468E+01;  2.8915245E-02;  0.0000000E+00;  6.4758807E-03;  0.0000000E+00;
  2.7992527E-04;  9.9999998E-03;  1.0210589E-09;170;  2.4410784E-04;  0.0000000E+00;  2.2147424E-09;  9.9990749E+00;  3.9998278E-01; -9.9532142E-02;3;  1.8625466E-02;  0.0000000E+00; -8.5515254E-08;  0.0000000E+00;  0.0000000E+00;  0.0000000E+00;0;  4.1919400E-05;  9.9983261E+01;  0.0000000E+00; -8.9384740E-17;  1.0000000E+02;  0.0000000E+00;  1.0000816E+02;  3.9188584E-05;  0.0000000E+00;  2.7308158E-06;  0.0000000E+00;
  2.2325150E-04;  9.9999998E-03;  2.0003486E-01;171;  2.2836684E-04;  0.0000000E+00;  1.2574628E-05;  9.9989948E+00;  3.9999735E-01; -1.0812577E-01;3;  1.8317487E-02;  0.0000000E+00;  2.9882579E-03;  0.0000000E+00;  0.0000000E+00;  0.0000000E+00;0;  4.7340869E-05;  9.9976471E+01;  0.0000000E+00;  2.9021719E-06;  1.0000000E+02;  0.0000000E+00;  1.0000815E+02;  4.5086388E-05;  0.0000000E+00;  2.2544816E-06;  0.0000000E+00;
  7.0067697E-05;  9.9999998E-03;  4.0009594E-01;172;  1.8486237E-04;  0.0000000E+00;  3.6832469E-05;  9.9987965E+00;  4.0003222E-01; -1.2948157E-01;3;  1.8162092E-02;  0.0000000E+00;  7.8919204E-03;  0.0000000E+00;  0.0000000E+00;  0.0000000E+00;0;  6.1584877E-05;  9.9958839E+01;  0.0000000E+00;  9.6940676E-06;  1.0000000E+02;  0.0000000E+00;  1.0000729E+02;  6.0836253E-05;  0.0000000E+00;  7.4862191E-07;  0.0000000E+00;
 -1.5879975E-04;  9.9999998E-03;  6.0021466E-01;173;  1.2318257E-04;  0.0000000E+00;  7.1120026E-05;  9.9988050E+00;  4.0006298E-01; -1.2858373E-01;3;  1.7269166E-02;  0.0000000E+00;  1.7229337E-02;  0.0000000E+00;  0.0000000E+00;  0.0000000E+00;0;  7.9861478E-05;  9.9935516E+01;  0.0000000E+00;  9.1044903E-06;  1.0000000E+02;  0.0000000E+00;  9.9998749E+01;  8.1316561E-05;  0.0000000E+00; -1.4550842E-06;  0.0000000E+00;
 -3.2518114E-04;  9.9999998E-03;  8.0025578E-01;174;  7.6301214E-05;  0.0000000E+00;  7.8546364E-05;  9.9987917E+00;  4.0009755E-01; -1.2999462E-01;3;  1.7066808E-02;  0.0000000E+00;  2.4054136E-02;  0.0000000E+00;  0.0000000E+00;  0.0000000E+00;0;  9.5899602E-05;  9.9915817E+01;  0.0000000E+00; -6.7704391E-06;  1.0000000E+02;  0.0000000E+00;  1.0000000E+02;  9.8384189E-05;  0.0000000E+00; -2.4845849E-06;  0.0000000E+00;
 -4.5689053E-04;  9.9999998E-03;  1.0002257E+00;175;  2.9192912E-05;  0.0000000E+00;  6.1264844E-05;  9.9987268E+00;  4.0012002E-01; -1.3698496E-01;3;  1.3924124E-02;  0.0000000E+00;  1.6327735E-02;  0.0000000E+00;  0.0000000E+00;  0.0000000E+00;0;  1.0394976E-04;  9.9907158E+01;  0.0000000E+00; -7.4349759E-06;  1.0000000E+02;  0.0000000E+00;  9.9998260E+01;  1.0418402E-04;  0.0000000E+00; -2.3426583E-07;  0.0000000E+00;
  1.9990575E-01;  9.9999998E-03;  9.8801800E-10;181;  1.7357164E-04;  0.0000000E+00;  4.4286268E-09;  9.9986658E+00;  4.0043917E-01; -1.4352627E-01;3;  3.6809251E-02;  0.0000000E+00; -7.7562028E-08;  0.0000000E+00;  0.0000000E+00;  0.0000000E+00;0;  8.0304191E-05;  9.9735802E+01;  0.0000000E+00; -1.3397164E-15;  1.0000000E+02;  0.0000000E+00;  1.0001369E+02;  8.4903651E-05;  0.0000000E+00; -4.5994580E-06;  0.0000000E+00;
  1.9984975E-01;  9.9999998E-03;  1.9998653E-01;182;  1.5705983E-04;  0.0000000E+00;  4.0691111E-06;  9.9986315E+00;  4.0045506E-01; -1.4724590E-01;3;  3.5304960E-02;  0.0000000E+00;  8.1299376E-03;  0.0000000E+00;  0.0000000E+00;  0.0000000E+00;0;  9.2456015E-05;  9.9725922E+01;  0.0000000E+00; -7.5683674E-06;  1.0000000E+02;  0.0000000E+00;  1.0001254E+02;  9.7131182E-05;  0.0000000E+00; -4.6751634E-06;  0.0000000E+00;
  1.9969974E-01;  9.9999998E-03;  3.9998788E-01;183;  1.1317305E-04;  0.0000000E+00;  1.5905902E-05;  9.9984207E+00;  4.0049911E-01; -1.6994844E-01;3;  3.2353453E-02;  0.0000000E+00;  1.8143531E-02;  0.0000000E+00;  0.0000000E+00;  0.0000000E+00;0;  1.2488459E-04;  9.9701790E+01;  0.0000000E+00; -5.1874147E-05;  1.0000000E+02;  0.0000000E+00;  1.0001201E+02;  1.2975154E-04;  0.0000000E+00; -4.8669499E-06;  0.0000000E+00;
  1.9949402E-01;  9.9999998E-03;  6.0003191E-01;184;  5.5049193E-05;  0.0000000E+00;  3.9010851E-05;  9.9979782E+00;  4.0054864E-01; -2.1753402E-01;3;  2.9202236E-02;  0.0000000E+00;  2.9414693E-02;  0.0000000E+00;  0.0000000E+00;  0.0000000E+00;0;  1.6650002E-04;  9.9677361E+01;  0.0000000E+00; -1.3917623E-04;  1.0000000E+02;  0.0000000E+00;  1.0000382E+02;  1.7111706E-04;  0.0000000E+00; -4.6170517E-06;  0.0000000E+00;
  1.9942261E-01;  9.9999998E-03;  8.0000323E-01;185;  3.7086429E-05;  0.0000000E+00;  3.6272821E-05;  9.9977226E+00;  4.0055496E-01; -2.4504642E-01;3;  2.2899840E-02;  0.0000000E+00;  3.4444582E-02;  0.0000000E+00;  0.0000000E+00;  0.0000000E+00;0;  2.0305274E-04;  9.9668571E+01;  0.0000000E+00; -1.5528208E-04;  1.0000000E+02;  0.0000000E+00;  9.9999870E+01;  2.0582728E-04;  0.0000000E+00; -2.7745355E-06;  0.0000000E+00;
  1.9944148E-01;  9.9999998E-03;  9.9989676E-01;186;  5.3440581E-05;  0.0000000E+00;  1.0883276E-05;  9.9977932E+00;  4.0052748E-01; -2.3741478E-01;3;  1.6804898E-02;  0.0000000E+00;  2.8185578E-02;  0.0000000E+00;  0.0000000E+00;  0.0000000E+00;0;  2.2040326E-04;  9.9687263E+01;  0.0000000E+00;  1.0203282E-04;  1.0000000E+02;  0.0000000E+00;  1.0000108E+02;  2.1964753E-04;  0.0000000E+00;  7.5574098E-07;  0.0000000E+00;
  3.9962274E-01;  9.9999998E-03;  8.7322688E-10;192;  1.2471004E-04;  0.0000000E+00;  5.9089280E-09;  9.9969416E+00;  4.0143391E-01; -3.2905817E-01;3; -5.3294874E-03;  0.0000000E+00; -2.2238286E-08;  0.0000000E+00;  0.0000000E+00;  0.0000000E+00;0;  3.2097416E-04;  9.9207336E+01;  0.0000000E+00; -6.7126758E-16;  1.0000000E+02;  0.0000000E+00;  1.0001472E+02;  3.3167683E-04;  0.0000000E+00; -1.0702674E-05;  0.0000000E+00;
  3.9956889E-01;  9.9999998E-03;  1.9993690E-01;193;  1.0734009E-04;  0.0000000E+00; -7.7860259E-06;  9.9968204E+00;  4.0144926E-01; -3.4207684E-01;3; -5.0634909E-03;  0.0000000E+00;  2.2498120E-02;  0.0000000E+00;  0.0000000E+00;  0.0000000E+00;0;  3.3669974E-04;  9.9196617E+01;  0.0000000E+00; -8.5851665E-05;  1.0000000E+02;  0.0000000E+00;  1.0001472E+02;  3.4734851E-04;  0.0000000E+00; -1.0648761E-05;  0.0000000E+00;
  3.9940643E-01;  9.9999998E-03;  3.9988568E-01;194;  5.6201559E-05;  0.0000000E+00; -1.1751410E-05;  9.9966516E+00;  4.0149134E-01; -3.6029014E-01;3; -4.6228380E-03;  0.0000000E+00;  5.1169738E-02;  0.0000000E+00;  0.0000000E+00;  0.0000000E+00;0;  3.7826339E-04;  9.9172585E+01;  0.0000000E+00; -3.7748794E-04;  1.0000000E+02;  0.0000000E+00;  1.0001488E+02;  3.8846667E-04;  0.0000000E+00; -1.0203276E-05;  0.0000000E+00;
  3.9923653E-01;  9.9999998E-03;  5.9980947E-01;195; -3.3754343E-06;  0.0000000E+00; -1.9279560E-05;  9.9963923E+00;  4.0152782E-01; -3.8818729E-01;3; -4.4905101E-03;  0.0000000E+00;  8.6555742E-02;  0.0000000E+00;  0.0000000E+00;  0.0000000E+00;0;  4.2985345E-04;  9.9155373E+01;  0.0000000E+00; -6.0307380E-04;  1.0000000E+02;  0.0000000E+00;  1.0001562E+02;  4.3841658E-04;  0.0000000E+00; -8.5631400E-06;  0.0000000E+00;
  3.9925513E-01;  9.9999998E-03;  7.9965562E-01;196; -5.1400193E-06;  0.0000000E+00; -5.1742401E-05;  9.9960814E+00;  4.0149963E-01; -4.2159975E-01;3; -7.0161545E-03;  0.0000000E+00;  1.2062255E-01;  0.0000000E+00;  0.0000000E+00;  0.0000000E+00;0;  4.7014290E-04;  9.9171112E+01;  0.0000000E+00;  1.0887445E-04;  1.0000000E+02;  0.0000000E+00;  9.9999763E+01;  4.7612790E-04;  0.0000000E+00; -5.9849917E-06;  0.0000000E+00;
  3.9962667E-01;  9.9999998E-03;  9.9949938E-01;197;  1.1378236E-04;  0.0000000E+00; -9.8763194E-05;  9.9962606E+00;  4.0136537E-01; -4.0236035E-01;3; -1.1679049E-02;  0.0000000E+00;  1.5006022E-01;  0.0000000E+00;  0.0000000E+00;  0.0000000E+00;0;  4.8417083E-04;  9.9236656E+01;  0.0000000E+00;  2.3050185E-03;  1.0000000E+02;  0.0000000E+00;  1.0000108E+02;  4.9023126E-04;  0.0000000E+00; -6.0604434E-06;  0.0000000E+00;
  5.9947097E-01;  9.9999998E-03;  7.5871270E-10;203;  9.3970782E-05;  0.0000000E+00;  7.5898843E-09;  9.9941711E+00;  4.0312219E-01; -6.2713867E-01;3;  4.1176635E-03;  0.0000000E+00;  2.7764756E-08;  0.0000000E+00;  0.0000000E+00;  0.0000000E+00;0;  9.3044719E-04;  9.8331650E+01;  0.0000000E+00; -2.5964336E-15;  1.0000000E+02;  0.0000000E+00;  1.0000758E+02;  9.4047445E-04;  0.0000000E+00; -1.0027273E-05;  0.0000000E+00;
  5.9940815E-01;  9.9999998E-03;  1.9991222E-01;204;  7.1307142E-05;  0.0000000E+00; -1.5731079E-05;  9.9941378E+00;  4.0313843E-01; -6.3072997E-01;3;  6.0094367E-03;  0.0000000E+00;  2.3742111E-02;  0.0000000E+00;  0.0000000E+00;  0.0000000E+00;0;  9.4230392E-04;  9.8321854E+01;  0.0000000E+00; -2.8357198E-04;  1.0000000E+02;  0.0000000E+00;  1.0000809E+02;  9.5267658E-04;  0.0000000E+00; -1.0372679E-05;  0.0000000E+00;
  5.9920001E-01;  9.9999998E-03;  3.9982069E-01;205; -2.4549797E-06;  0.0000000E+00; -3.3403576E-05;  9.9940329E+00;  4.0317202E-01; -6.4201707E-01;3;  1.3109520E-02;  0.0000000E+00;  5.7130061E-02;  0.0000000E+00;  0.0000000E+00;  0.0000000E+00;0;  9.7251579E-04;  9.8301994E+01;  0.0000000E+00; -9.7341149E-04;  1.0000000E+02;  0.0000000E+00;  1.0001054E+02;  9.8358409E-04;  0.0000000E+00; -1.1068321E-05;  0.0000000E+00;
  5.9898907E-01;  9.9999998E-03;  5.9963548E-01;206; -8.4658488E-05;  0.0000000E+00; -7.9555961E-05;  9.9938850E+00;  4.0317062E-01; -6.5792161E-01;3;  2.3808554E-02;  0.0000000E+00;  1.0718572E-01;  0.0000000E+00;  0.0000000E+00;  0.0000000E+00;0;  1.0023965E-03;  9.8297890E+01;  0.0000000E+00; -4.5550297E-04;  1.0000000E+02;  0.0000000E+00;  1.0001272E+02;  1.0154127E-03;  0.0000000E+00; -1.3016259E-05;  0.0000000E+00;
  5.9895921E-01;  9.9999998E-03;  7.9934567E-01;207; -1.1962509E-04;  0.0000000E+00; -1.5502235E-04;  9.9939861E+00;  4.0305960E-01; -6.4708346E-01;3;  4.7363803E-02;  0.0000000E+00;  1.7386757E-01;  0.0000000E+00;  0.0000000E+00;  0.0000000E+00;0;  9.9964568E-04;  9.8349762E+01;  0.0000000E+00;  4.9339640E-03;  1.0000000E+02;  0.0000000E+00;  1.0001552E+02;  1.0190711E-03;  0.0000000E+00; -1.9425381E-05;  0.0000000E+00;
  5.9965295E-01;  9.9999998E-03;  9.9916250E-01;208;  5.1207466E-05;  0.0000000E+00; -1.9775216E-04;  9.9943228E+00;  4.0279275E-01; -6.1084932E-01;3;  8.3891593E-02;  0.0000000E+00;  2.3514315E-01;  0.0000000E+00;  0.0000000E+00;  0.0000000E+00;0;  9.6904999E-04;  9.8475578E+01;  0.0000000E+00;  1.5779860E-02;  1.0000000E+02;  0.0000000E+00;  1.0002715E+02;  9.9852763E-04;  0.0000000E+00; -2.9477655E-05;  0.0000000E+00;
  7.9945558E-01;  9.9999998E-03;  5.3220317E-10;214;  7.1512331E-05;  0.0000000E+00;  8.5054950E-09;  9.9910221E+00;  4.0550330E-01; -9.6593601E-01;3;  2.7557558E-03;  0.0000000E+00;  4.1165755E-08;  0.0000000E+00;  0.0000000E+00;  0.0000000E+00;0;  1.9868892E-03;  9.7137756E+01;  0.0000000E+00;  1.7358613E-15;  1.0000000E+02;  0.0000000E+00;  9.9989334E+01;  1.9859034E-03;  0.0000000E+00;  9.8589317E-07;  0.0000000E+00;
  7.9932845E-01;  9.9999998E-03;  1.9995505E-01;215;  3.8519640E-05;  0.0000000E+00; -8.9579717E-06;  9.9910421E+00;  4.0551576E-01; -9.6381968E-01;3;  6.6336789E-03;  0.0000000E+00;  1.9775778E-02;  0.0000000E+00;  0.0000000E+00;  0.0000000E+00;0;  1.9857793E-03;  9.7129829E+01;  0.0000000E+00; -4.4889102E-04;  1.0000000E+02;  0.0000000E+00;  9.9989700E+01;  1.9858230E-03;  0.0000000E+00; -4.3775799E-08;  0.0000000E+00;
  7.9904789E-01;  9.9999998E-03;  3.9990145E-01;216; -6.7056390E-05;  0.0000000E+00; -2.2887378E-05;  9.9911032E+00;  4.0554506E-01; -9.5721424E-01;3;  2.0055035E-02;  0.0000000E+00;  5.0224800E-02;  0.0000000E+00;  0.0000000E+00;  0.0000000E+00;0;  1.9803620E-03;  9.7114807E+01;  0.0000000E+00; -8.5849367E-04;  1.0000000E+02;  0.0000000E+00;  9.9994034E+01;  1.9831324E-03;  0.0000000E+00; -2.7704859E-06;  0.0000000E+00;
  7.9874212E-01;  9.9999998E-03;  5.9973192E-01;217; -2.1477905E-04;  0.0000000E+00; -7.3397197E-05;  9.9912653E+00;  4.0551123E-01; -9.3977082E-01;3;  5.4638255E-02;  0.0000000E+00;  1.0299004E-01;  0.0000000E+00;  0.0000000E+00;  0.0000000E+00;0;  1.9490707E-03;  9.7124329E+01;  0.0000000E+00;  4.1360725E-03;  1.0000000E+02;  0.0000000E+00;  1.0000183E+02;  1.9603616E-03;  0.0000000E+00; -1.1290831E-05;  0.0000000E+00;
  7.9883242E-01;  9.9999998E-03;  7.9964769E-01;218; -2.4333762E-04;  0.0000000E+00; -8.8880974E-05;  9.9916210E+00;  4.0532321E-01; -9.0154886E-01;3;  1.5413971E-01;  0.0000000E+00;  1.5397017E-01;  0.0000000E+00;  0.0000000E+00;  0.0000000E+00;0;  1.8732045E-03;  9.7207565E+01;  0.0000000E+00;  2.4205217E-02;  1.0000000E+02;  0.0000000E+00;  1.0001283E+02;  1.8920625E-03;  0.0000000E+00; -1.8858002E-05;  0.0000000E+00;
  8.0310351E-01;  9.9999998E-03;  1.0001070E+00;219;  9.2041376E-04;  0.0000000E+00;  6.0273498E-05;  9.9905195E+00;  4.0543625E-01; -1.0200621E+00;3;  2.6315674E-01;  0.0000000E+00;  1.1183856E-01;  0.0000000E+00;  0.0000000E+00;  0.0000000E+00;0;  2.1744489E-03;  9.7153511E+01;  0.0000000E+00;  4.0680647E-02;  1.0000000E+02;  0.0000000E+00;  9.9995651E+01;  2.1543438E-03;  0.0000000E+00;  2.0105250E-05;  0.0000000E+00;
  1.0014182E+00;  9.9999998E-03;  3.5573438E-09;225;  5.0690094E-05;  0.0000000E+00;  1.0290525E-08;  9.9883995E+00;  4.0846500E-01; -1.2480888E+00;3;  7.4042671E-04;  0.0000000E+00;  3.9944123E-08;  0.0000000E+00;  0.0000000E+00;  0.0000000E+00;0;  3.4292685E-03;  9.5703522E+01;  0.0000000E+00;  1.0109150E-14;  1.0000000E+02;  0.0000000E+00;  9.9969131E+01;  3.4079908E-03;  0.0000000E+00;  2.1277674E-05;  0.0000000E+00;
  1.0007287E+00;  9.9999998E-03;  2.0015179E-01;226;  3.0483989E-06;  0.0000000E+00;  2.3125473E-05;  9.9884672E+00;  4.0848213E-01; -1.2408425E+00;3;  5.3631659E-03;  0.0000000E+00;  1.3451591E-02;  0.0000000E+00;  0.0000000E+00;  0.0000000E+00;0;  3.4069021E-03;  9.5696960E+01;  0.0000000E+00; -3.8180986E-04;  1.0000000E+02;  0.0000000E+00;  9.9968239E+01;  3.3863029E-03;  0.0000000E+00;  2.0599309E-05;  0.0000000E+00;
  1.0009876E+00;  9.9999998E-03;  4.0021738E-01;227; -1.3334303E-04;  0.0000000E+00;  2.1662712E-05;  9.9886475E+00;  4.0855506E-01; -1.2214111E+00;3;  2.2571355E-02;  0.0000000E+00;  3.1610608E-02;  0.0000000E+00;  0.0000000E+00;  0.0000000E+00;0;  3.3570074E-03;  9.5668228E+01;  0.0000000E+00;  4.5487698E-04;  1.0000000E+02;  0.0000000E+00;  9.9968262E+01;  3.3388953E-03;  0.0000000E+00;  1.8112225E-05;  0.0000000E+00;
  1.0005662E+00;  9.9999998E-03;  6.0012454E-01;228; -2.9959987E-04;  0.0000000E+00;  5.5167084E-06;  9.9890099E+00;  4.0854725E-01; -1.1824205E+00;3;  7.8732744E-02;  0.0000000E+00;  5.4058768E-02;  0.0000000E+00;  0.0000000E+00;  0.0000000E+00;0;  3.2495265E-03;  9.5671555E+01;  0.0000000E+00;  1.4360096E-02;  1.0000000E+02;  0.0000000E+00;  9.9971642E+01;  3.2383872E-03;  0.0000000E+00;  1.1139234E-05;  0.0000000E+00;
  1.0039511E+00;  9.9999998E-03;  8.0089957E-01;229;  6.3109002E-04;  0.0000000E+00;  1.0302114E-04;  9.9886675E+00;  4.0879473E-01; -1.2192944E+00;3;  1.9028230E-01;  0.0000000E+00; -9.8509185E-02;  0.0000000E+00;  0.0000000E+00;  0.0000000E+00;0;  3.3665297E-03;  9.5595703E+01;  0.0000000E+00;  4.1100554E-02;  1.0000000E+02;  0.0000000E+00;  9.9921272E+01;  3.3257157E-03;  0.0000000E+00;  4.0814080E-05;  0.0000000E+00;
  1.0149952E+00;  9.9999998E-03;  1.0007830E+00;230;  2.1071997E-03;  0.0000000E+00;  5.9068912E-05;  9.9869499E+00;  4.1045076E-01; -1.4040495E+00;3;  5.8147874E-02;  0.0000000E+00; -4.8367929E-02;  0.0000000E+00;  0.0000000E+00;  0.0000000E+00;0;  3.9142151E-03;  9.4788467E+01;  0.0000000E+00;  6.7597399E-03;  1.0000000E+02;  0.0000000E+00;  9.9933243E+01;  3.8939354E-03;  0.0000000E+00;  2.0279920E-05;  0.0000000E+00;
  1.2113075E+00;  9.9999998E-03; -1.2382464E-09;236;  4.3296244E-05;  0.0000000E+00;  4.3271480E-09;  9.9869719E+00;  4.1194662E-01; -1.4016846E+00;3;  5.3690484E-04;  0.0000000E+00;  1.1985715E-07;  0.0000000E+00;  0.0000000E+00;  0.0000000E+00;0;  5.0791921E-03;  9.4085167E+01;  0.0000000E+00;  5.0292725E-15;  1.0000000E+02;  0.0000000E+00;  9.9946899E+01;  5.0332528E-03;  0.0000000E+00;  4.5939207E-05;  0.0000000E+00;
  1.2090079E+00;  9.9999998E-03;  2.0032941E-01;237; -7.7404375E-06;  0.0000000E+00;  3.5925706E-05;  9.9870481E+00;  4.1200539E-01; -1.3934773E+00;3;  4.6583591E-03;  0.0000000E+00;  8.0942335E-03;  0.0000000E+00;  0.0000000E+00;  0.0000000E+00;0;  5.0330609E-03;  9.4063248E+01;  0.0000000E+00; -1.0444530E-03;  1.0000000E+02;  0.0000000E+00;  9.9943924E+01;  4.9880119E-03;  0.0000000E+00;  4.5048790E-05;  0.0000000E+00;
  1.2049741E+00;  9.9999998E-03;  4.0025312E-01;238; -1.4048041E-04;  0.0000000E+00;  2.1027130E-05;  9.9872952E+00;  4.1205940E-01; -1.3668662E+00;3;  2.2274096E-02;  0.0000000E+00;  1.5527155E-02;  0.0000000E+00;  0.0000000E+00;  0.0000000E+00;0;  4.9102223E-03;  9.4043991E+01;  0.0000000E+00;  1.4723584E-03;  1.0000000E+02;  0.0000000E+00;  9.9940056E+01;  4.8721544E-03;  0.0000000E+00;  3.8067858E-05;  0.0000000E+00;
  1.2033348E+00;  9.9999998E-03;  6.0011077E-01;239; -1.2560646E-04;  0.0000000E+00;  8.3294515E-05;  9.9876404E+00;  4.1199809E-01; -1.3297373E+00;3;  9.1756150E-02;  0.0000000E+00;  9.3237385E-03;  0.0000000E+00;  0.0000000E+00;  0.0000000E+00;0;  4.7669793E-03;  9.4069862E+01;  0.0000000E+00;  2.7900521E-02;  1.0000000E+02;  0.0000000E+00;  9.9949127E+01;  4.7143097E-03;  0.0000000E+00;  5.2669544E-05;  0.0000000E+00;
  1.2138230E+00;  9.9999998E-03;  8.0074883E-01;240;  2.0432682E-03;  0.0000000E+00;  1.4093486E-04;  9.9868221E+00;  4.1297749E-01; -1.4177796E+00;3;  1.1193793E-01;  0.0000000E+00; -1.3137057E-01;  0.0000000E+00;  0.0000000E+00;  0.0000000E+00;0;  5.1466697E-03;  9.3669342E+01;  0.0000000E+00;  2.1925556E-02;  1.0000000E+02;  0.0000000E+00;  9.9891342E+01;  5.0609494E-03;  0.0000000E+00;  8.5720545E-05;  0.0000000E+00;
  1.2205205E+00;  9.9999998E-03;  1.0007168E+00;241;  3.0117987E-03;  0.0000000E+00;  1.0551319E-04;  9.9859104E+00;  4.1421986E-01; -1.5158261E+00;3;  1.1216421E-02;  0.0000000E+00; -1.1474660E-01;  0.0000000E+00;  0.0000000E+00;  0.0000000E+00;0;  5.5155815E-03;  9.3074883E+01;  0.0000000E+00; -1.5806349E-03;  1.0000000E+02;  0.0000000E+00;  9.9907806E+01;  5.4553682E-03;  0.0000000E+00;  6.0213351E-05;  0.0000000E+00;
  1.4238205E+00;  9.9999998E-03; -4.8801816E-09;247;  3.3593047E-03;  0.0000000E+00; -1.7742096E-09;  9.9870930E+00;  4.1588956E-01; -1.3884659E+00;3; -1.7392942E-03;  0.0000000E+00;  2.5762486E-07;  0.0000000E+00;  0.0000000E+00;  0.0000000E+00;0;  6.5298369E-03;  9.2323822E+01;  0.0000000E+00; -2.0358877E-14;  1.0000000E+02;  0.0000000E+00;  9.9933517E+01;  6.4621526E-03;  0.0000000E+00;  6.7684537E-05;  0.0000000E+00;
  1.4217732E+00;  9.9999998E-03;  2.0058149E-01;248;  1.4415652E-03;  0.0000000E+00;  7.2747782E-05;  9.9870501E+00;  4.1602397E-01; -1.3930844E+00;3;  1.7662275E-04;  0.0000000E+00;  4.3689217E-03;  0.0000000E+00;  0.0000000E+00;  0.0000000E+00;0;  6.5238755E-03;  9.2273987E+01;  0.0000000E+00; -2.5198762E-03;  1.0000000E+02;  0.0000000E+00;  9.9918869E+01;  6.4544161E-03;  0.0000000E+00;  6.9459340E-05;  0.0000000E+00;
  1.4136733E+00;  9.9999998E-03;  4.0009084E-01;249;  7.8831850E-05;  0.0000000E+00; -1.1407822E-04;  9.9872570E+00;  4.1615421E-01; -1.3708421E+00;3;  1.5937034E-02;  0.0000000E+00;  9.0918839E-03;  0.0000000E+00;  0.0000000E+00;  0.0000000E+00;0;  6.3606910E-03;  9.2226967E+01;  0.0000000E+00; -2.7300972E-03;  1.0000000E+02;  0.0000000E+00;  9.9924095E+01;  6.3423365E-03;  0.0000000E+00;  1.8354574E-05;  0.0000000E+00;
  1.4129837E+00;  9.9999998E-03;  6.0010529E-01;250;  1.0698095E-03;  0.0000000E+00;  4.5186600E-05;  9.9872398E+00;  4.1619650E-01; -1.3727024E+00;3;  5.2066866E-02;  0.0000000E+00; -7.2007589E-03;  0.0000000E+00;  0.0000000E+00;  0.0000000E+00;0;  6.3397228E-03;  9.2204124E+01;  0.0000000E+00;  1.3873075E-02;  1.0000000E+02;  0.0000000E+00;  9.9920204E+01;  6.2855100E-03;  0.0000000E+00;  5.4212775E-05;  0.0000000E+00;
  1.4208318E+00;  9.9999998E-03;  8.0041623E-01;251;  3.1638346E-03;  0.0000000E+00;  9.6591837E-05;  9.9868240E+00;  4.1677091E-01; -1.4174513E+00;3;  6.9022700E-02;  0.0000000E+00; -7.6418936E-02;  0.0000000E+00;  0.0000000E+00;  0.0000000E+00;0;  6.6246442E-03;  9.1967316E+01;  0.0000000E+00;  1.1640630E-02;  1.0000000E+02;  0.0000000E+00;  9.9895050E+01;  6.5438026E-03;  0.0000000E+00;  8.0841375E-05;  0.0000000E+00;
  1.4261874E+00;  9.9999998E-03;  1.0005826E+00;252;  3.9910260E-03;  0.0000000E+00;  9.4909723E-05;  9.9863977E+00;  4.1747817E-01; -1.4632922E+00;3;  1.4696480E-02;  0.0000000E+00; -1.0017576E-01;  0.0000000E+00;  0.0000000E+00;  0.0000000E+00;0;  6.8438086E-03;  9.1646935E+01;  0.0000000E+00; -2.4528920E-03;  1.0000000E+02;  0.0000000E+00;  9.9900047E+01;  6.7764116E-03;  0.0000000E+00;  6.7397159E-05;  0.0000000E+00;
  1.6267279E+00;  9.9999998E-03; -1.3170193E-10;258;  6.9520604E-03;  0.0000000E+00; -1.1717016E-08;  9.9881849E+00;  4.2078027E-01; -1.2707236E+00;3;  4.6399573E-04;  0.0000000E+00;  3.6551228E-07;  0.0000000E+00;  0.0000000E+00;  0.0000000E+00;0;  7.5403475E-03;  9.0229454E+01;  0.0000000E+00; -5.9229023E-14;  1.0000000E+02;  0.0000000E+00;  9.9912804E+01;  7.4604591E-03;  0.0000000E+00;  7.9888508E-05;  0.0000000E+00;
  1.6276087E+00;  9.9999998E-03;  2.0068602E-01;259;  6.9834562E-03;  0.0000000E+00;  1.0869510E-04;  9.9880495E+00;  4.2089519E-01; -1.2853382E+00;3;  1.0755367E-03;  0.0000000E+00;  3.0037907E-03;  0.0000000E+00;  0.0000000E+00;  0.0000000E+00;0;  7.6285070E-03;  9.0197281E+01;  0.0000000E+00; -1.7839555E-03;  1.0000000E+02;  0.0000000E+00;  9.9890114E+01;  7.5421007E-03;  0.0000000E+00;  8.6406268E-05;  0.0000000E+00;
  1.6287433E+00;  9.9999998E-03;  4.0029866E-01;260;  5.9314817E-03;  0.0000000E+00;  2.0404372E-05;  9.9878101E+00;  4.2107412E-01; -1.3110428E+00;3;  1.2349893E-03;  0.0000000E+00;  3.3328531E-03;  0.0000000E+00;  0.0000000E+00;  0.0000000E+00;0;  7.7717393E-03;  9.0129822E+01;  0.0000000E+00; -8.6716758E-03;  1.0000000E+02;  0.0000000E+00;  9.9869606E+01;  7.7076424E-03;  0.0000000E+00;  6.4096872E-05;  0.0000000E+00;
  1.6239960E+00;  9.9999998E-03;  5.9998620E-01;261;  2.5654503E-03;  0.0000000E+00; -6.0813181E-05;  9.9879513E+00;  4.2097270E-01; -1.2958589E+00;3;  1.9144375E-02;  0.0000000E+00;  1.8755463E-03;  0.0000000E+00;  0.0000000E+00;  0.0000000E+00;0;  7.6486161E-03;  9.0167595E+01;  0.0000000E+00; -2.4847742E-03;  1.0000000E+02;  0.0000000E+00;  9.9885506E+01;  7.6502790E-03;  0.0000000E+00; -1.6628433E-06;  0.0000000E+00;
  1.6285545E+00;  9.9999998E-03;  8.0022836E-01;262;  4.5724935E-03;  0.0000000E+00;  6.1602681E-05;  9.9875736E+00;  4.2094767E-01; -1.3364935E+00;3;  3.4873534E-02;  0.0000000E+00; -2.4104208E-02;  0.0000000E+00;  0.0000000E+00;  0.0000000E+00;0;  7.9420442E-03;  9.0172142E+01;  0.0000000E+00;  3.8653326E-03;  1.0000000E+02;  0.0000000E+00;  9.9885170E+01;  7.8744814E-03;  0.0000000E+00;  6.7562658E-05;  0.0000000E+00;
  1.6333928E+00;  9.9999998E-03;  1.0005454E+00;263;  5.1614419E-03;  0.0000000E+00;  8.1259066E-05;  9.9874268E+00;  4.2098331E-01; -1.3522533E+00;3;  2.1792909E-02;  0.0000000E+00; -4.8553590E-02;  0.0000000E+00;  0.0000000E+00;  0.0000000E+00;0;  8.0581624E-03;  9.0157021E+01;  0.0000000E+00; -2.1404044E-03;  1.0000000E+02;  0.0000000E+00;  9.9887260E+01;  7.9900939E-03;  0.0000000E+00;  6.8068504E-05;  0.0000000E+00;
  1.8276609E+00;  9.9999998E-03;  1.0639035E-08;269;  6.9204415E-03;  0.0000000E+00;  7.5241235E-09;  9.9891567E+00;  4.2722926E-01; -1.1656749E+00;3;  1.1733796E-04;  0.0000000E+00;  2.5029661E-07;  0.0000000E+00;  0.0000000E+00;  0.0000000E+00;0;  8.5909162E-03;  8.7591675E+01;  0.0000000E+00; -1.4261304E-14;  1.0000000E+02;  0.0000000E+00;  9.9855331E+01;  8.5116280E-03;  0.0000000E+00;  7.9287915E-05;  0.0000000E+00;
  1.8286817E+00;  9.9999998E-03;  2.0031315E-01;270;  7.1101771E-03;  0.0000000E+00;  2.7876248E-04;  9.9890137E+00;  4.2721239E-01; -1.1810491E+00;3;  3.7135911E-04;  0.0000000E+00;  1.5885256E-03;  0.0000000E+00;  0.0000000E+00;  0.0000000E+00;0;  8.7134829E-03;  8.7617805E+01;  0.0000000E+00; -1.9384272E-04;  1.0000000E+02;  0.0000000E+00;  9.9833397E+01;  8.6020427E-03;  0.0000000E+00;  1.1144056E-04;  0.0000000E+00;
  1.8317282E+00;  9.9999998E-03;  3.9995030E-01;271;  7.2313119E-03;  0.0000000E+00;  1.2667551E-04;  9.9887657E+00;  4.2706826E-01; -1.2076919E+00;3;  6.9182157E-04;  0.0000000E+00;  2.9416219E-03;  0.0000000E+00;  0.0000000E+00;  0.0000000E+00;0;  8.9385882E-03;  8.7694580E+01;  0.0000000E+00; -1.6084582E-03;  1.0000000E+02;  0.0000000E+00;  9.9808914E+01;  8.8296225E-03;  0.0000000E+00;  1.0896561E-04;  0.0000000E+00;
  1.8366189E+00;  9.9999998E-03;  5.9982836E-01;272;  7.2898157E-03;  0.0000000E+00;  2.1420246E-05;  9.9885502E+00;  4.2670655E-01; -1.2308660E+00;3;  4.5414385E-03;  0.0000000E+00;  4.5415126E-03;  0.0000000E+00;  0.0000000E+00;  0.0000000E+00;0;  9.1732573E-03;  8.7826523E+01;  0.0000000E+00; -5.3912215E-03;  1.0000000E+02;  0.0000000E+00;  9.9818306E+01;  9.1056852E-03;  0.0000000E+00;  6.7572182E-05;  0.0000000E+00;
  1.8400884E+00;  9.9999998E-03;  8.0020678E-01;273;  5.9715058E-03;  0.0000000E+00;  6.1097970E-05;  9.9884357E+00;  4.2612588E-01; -1.2431529E+00;3;  1.1173068E-02;  0.0000000E+00;  1.7619808E-03;  0.0000000E+00;  0.0000000E+00;  0.0000000E+00;0;  9.3172668E-03;  8.8055580E+01;  0.0000000E+00; -6.6125388E-03;  1.0000000E+02;  0.0000000E+00;  9.9831909E+01;  9.2249271E-03;  0.0000000E+00;  9.2339338E-05;  0.0000000E+00;
  1.8431939E+00;  9.9999998E-03;  1.0007333E+00;274;  6.6034417E-03;  0.0000000E+00;  7.3163217E-05;  9.9883690E+00;  4.2536655E-01; -1.2503148E+00;3;  1.6147872E-02;  0.0000000E+00; -1.0112420E-02;  0.0000000E+00;  0.0000000E+00;  0.0000000E+00;0;  9.4017815E-03;  8.8364365E+01;  0.0000000E+00; -3.7683868E-03;  1.0000000E+02;  0.0000000E+00;  9.9840393E+01;  9.3255211E-03;  0.0000000E+00;  7.6260680E-05;  0.0000000E+00;
  2.0319333E+00;  9.9999998E-03; -1.0830095E-08;280;  6.8631195E-03;  0.0000000E+00; -2.8430364E-08;  9.9893255E+00;  4.3535644E-01; -1.1463029E+00;3; -1.8293806E-04;  0.0000000E+00;  2.6654251E-07;  0.0000000E+00;  0.0000000E+00;  0.0000000E+00;0;  1.0428643E-02;  8.4482384E+01;  0.0000000E+00;  1.1032612E-13;  1.0000000E+02;  0.0000000E+00;  9.9708000E+01;  1.0358685E-02;  0.0000000E+00;  6.9957903E-05;  0.0000000E+00;
  2.0332227E+00;  9.9999998E-03;  1.9948646E-01;281;  7.0919525E-03;  0.0000000E+00;  2.0450490E-04;  9.9892673E+00;  4.3511677E-01; -1.1525002E+00;3; -4.2737665E-05;  0.0000000E+00;  4.7929282E-04;  0.0000000E+00;  0.0000000E+00;  0.0000000E+00;0;  1.0522901E-02;  8.4580673E+01;  0.0000000E+00;  1.4118561E-04;  1.0000000E+02;  0.0000000E+00;  9.9696701E+01;  1.0422095E-02;  0.0000000E+00;  1.0080678E-04;  0.0000000E+00;
  2.0383284E+00;  9.9999998E-03;  3.9926979E-01;282;  7.4195596E-03;  0.0000000E+00;  1.7292479E-04;  9.9891005E+00;  4.3446392E-01; -1.1703753E+00;3; -1.0910675E-04;  0.0000000E+00;  1.4824971E-03;  0.0000000E+00;  0.0000000E+00;  0.0000000E+00;0;  1.0742631E-02;  8.4844093E+01;  0.0000000E+00;  3.3908527E-04;  1.0000000E+02;  0.0000000E+00;  9.9684151E+01;  1.0596179E-02;  0.0000000E+00;  1.4645151E-04;  0.0000000E+00;
  2.0519834E+00;  9.9999998E-03;  5.9964097E-01;283;  7.9929940E-03;  0.0000000E+00;  2.5548043E-05;  9.9890432E+00;  4.3359989E-01; -1.1763896E+00;3; -2.7255941E-04;  0.0000000E+00;  3.2128091E-03;  0.0000000E+00;  0.0000000E+00;  0.0000000E+00;0;  1.0984350E-02;  8.5178757E+01;  0.0000000E+00; -2.2748096E-03;  1.0000000E+02;  0.0000000E+00;  9.9686783E+01;  1.0870806E-02;  0.0000000E+00;  1.1354373E-04;  0.0000000E+00;
  2.0589483E+00;  9.9999998E-03;  8.0045819E-01;284;  8.6126002E-03;  0.0000000E+00;  2.6240934E-05;  9.9889927E+00;  4.3232733E-01; -1.1817598E+00;3;  1.8465243E-03;  0.0000000E+00;  4.4841403E-03;  0.0000000E+00;  0.0000000E+00;  0.0000000E+00;0;  1.1121663E-02;  8.5668060E+01;  0.0000000E+00; -1.1875136E-02;  1.0000000E+02;  0.0000000E+00;  9.9704735E+01;  1.1026286E-02;  0.0000000E+00;  9.5377443E-05;  0.0000000E+00;
  2.0583894E+00;  9.9999998E-03;  1.0013436E+00;285;  8.5474597E-03;  0.0000000E+00;  7.1028124E-05;  9.9890480E+00;  4.3077037E-01; -1.1758140E+00;3;  5.5775745E-03;  0.0000000E+00;  2.3030888E-03;  0.0000000E+00;  0.0000000E+00;  0.0000000E+00;0;  1.1093036E-02;  8.6274117E+01;  0.0000000E+00; -1.1639358E-02;  1.0000000E+02;  0.0000000E+00;  9.9724785E+01;  1.0999798E-02;  0.0000000E+00;  9.3238399E-05;  0.0000000E+00;
  2.2524984E+00;  9.9999998E-03; -1.7943202E-08;291;  6.8991804E-03;  0.0000000E+00; -3.1221294E-08;  9.9887028E+00;  4.4481912E-01; -1.2099373E+00;3; -2.7319253E-04;  0.0000000E+00;  2.3407998E-07;  0.0000000E+00;  0.0000000E+00;  0.0000000E+00;0;  1.3747608E-02;  8.1185516E+01;  0.0000000E+00;  1.2206031E-13;  1.0000000E+02;  0.0000000E+00;  9.9375229E+01;  1.3660882E-02;  0.0000000E+00;  8.6726795E-05;  0.0000000E+00;
  2.2537694E+00;  9.9999998E-03;  1.9889612E-01;292;  7.0495643E-03;  0.0000000E+00; -1.0245154E-04;  9.9887352E+00;  4.4433054E-01; -1.2063986E+00;3; -2.6521471E-04;  0.0000000E+00;  1.5254349E-04;  0.0000000E+00;  0.0000000E+00;  0.0000000E+00;0;  1.3730863E-02;  8.1365593E+01;  0.0000000E+00; -2.0570734E-04;  1.0000000E+02;  0.0000000E+00;  9.9375305E+01;  1.3637129E-02;  0.0000000E+00;  9.3733717E-05;  0.0000000E+00;
  2.2590828E+00;  9.9999998E-03;  3.9840785E-01;293;  7.9044569E-03;  0.0000000E+00;  1.0920397E-04;  9.9887714E+00;  4.4291347E-01; -1.2023877E+00;3; -8.7665557E-04;  0.0000000E+00;  4.1679601E-04;  0.0000000E+00;  0.0000000E+00;  0.0000000E+00;0;  1.3785519E-02;  8.1859238E+01;  0.0000000E+00; -7.9728576E-04;  1.0000000E+02;  0.0000000E+00;  9.9412613E+01;  1.3593538E-02;  0.0000000E+00;  1.9198099E-04;  0.0000000E+00;
  2.2756925E+00;  9.9999998E-03;  5.9967065E-01;294;  8.5214246E-03;  0.0000000E+00; -3.8755679E-06;  9.9889584E+00;  4.4103646E-01; -1.1820343E+00;3; -1.3273872E-03;  0.0000000E+00;  7.0418016E-04;  0.0000000E+00;  0.0000000E+00;  0.0000000E+00;0;  1.3808490E-02;  8.2545143E+01;  0.0000000E+00;  5.6366413E-04;  1.0000000E+02;  0.0000000E+00;  9.9424362E+01;  1.3616977E-02;  0.0000000E+00;  1.9151247E-04;  0.0000000E+00;
  2.2847166E+00;  9.9999998E-03;  8.0125368E-01;295;  1.1553907E-02;  0.0000000E+00;  8.2546903E-06;  9.9892874E+00;  4.3885455E-01; -1.1466048E+00;3; -2.0933778E-03;  0.0000000E+00;  1.2426011E-03;  0.0000000E+00;  0.0000000E+00;  0.0000000E+00;0;  1.3520948E-02;  8.3362442E+01;  0.0000000E+00; -1.3510917E-03;  1.0000000E+02;  0.0000000E+00;  9.9444305E+01;  1.3373483E-02;  0.0000000E+00;  1.4746460E-04;  0.0000000E+00;
  2.2881908E+00;  9.9999998E-03;  1.0027512E+00;296;  1.5133720E-02;  0.0000000E+00;  1.0490810E-04;  9.9896822E+00;  4.3674329E-01; -1.1042292E+00;3; -1.0597359E-03;  0.0000000E+00;  9.4536430E-04;  0.0000000E+00;  0.0000000E+00;  0.0000000E+00;0;  1.3097554E-02;  8.4154518E+01;  0.0000000E+00; -1.4345484E-02;  1.0000000E+02;  0.0000000E+00;  9.9467712E+01;  1.2952737E-02;  0.0000000E+00;  1.4481785E-04;  0.0000000E+00;
  2.5009096E+00;  9.9999998E-03; -2.3574806E-08;302;  7.5297328E-03;  0.0000000E+00; -3.1440880E-08;  9.9876842E+00;  4.5428601E-01; -1.3092757E+00;3; -1.5355509E-03;  0.0000000E+00; -1.4604841E-07;  0.0000000E+00;  0.0000000E+00;  0.0000000E+00;0;  1.8916978E-02;  7.8315224E+01;  0.0000000E+00; -1.3304604E-13;  1.0000000E+02;  0.0000000E+00;  9.8745667E+01;  1.8674007E-02;  0.0000000E+00;  2.4297123E-04;  0.0000000E+00;
  2.4993074E+00;  9.9999998E-03;  1.9879846E-01;303;  7.7254176E-03;  0.0000000E+00; -2.7648653E-04;  9.9878283E+00;  4.5356566E-01; -1.2940974E+00;3; -1.8533162E-03;  0.0000000E+00;  6.7095447E-05;  0.0000000E+00;  0.0000000E+00;  0.0000000E+00;0;  1.8667752E-02;  7.8556450E+01;  0.0000000E+00;  4.5386216E-05;  1.0000000E+02;  0.0000000E+00;  9.8758560E+01;  1.8425040E-02;  0.0000000E+00;  2.4271212E-04;  0.0000000E+00;
  2.4983003E+00;  9.9999998E-03;  3.9836162E-01;304;  1.0443370E-02;  0.0000000E+00; -3.4679519E-04;  9.9882669E+00;  4.5147580E-01; -1.2475126E+00;3; -2.7019088E-03;  0.0000000E+00;  1.0321481E-04;  0.0000000E+00;  0.0000000E+00;  0.0000000E+00;0;  1.8015847E-02;  7.9219269E+01;  0.0000000E+00;  5.8474019E-05;  1.0000000E+02;  0.0000000E+00;  9.8853714E+01;  1.7778946E-02;  0.0000000E+00;  2.3689972E-04;  0.0000000E+00;
  2.4949362E+00;  9.9999998E-03;  6.0056514E-01;305;  1.4518973E-02;  0.0000000E+00; -1.0550344E-04;  9.9888239E+00;  4.4871548E-01; -1.1884352E+00;3; -2.5706738E-03;  0.0000000E+00;  3.0991963E-05;  0.0000000E+00;  0.0000000E+00;  0.0000000E+00;0;  1.7112222E-02;  8.0155701E+01;  0.0000000E+00;  2.4889942E-04;  1.0000000E+02;  0.0000000E+00;  9.8915222E+01;  1.6812552E-02;  0.0000000E+00;  2.9966893E-04;  0.0000000E+00;
  2.4924242E+00;  9.9999998E-03;  8.0306995E-01;306;  1.6946284E-02;  0.0000000E+00;  7.5408650E-05;  9.9894714E+00;  4.4594797E-01; -1.1197244E+00;3; -4.1659405E-03;  0.0000000E+00; -4.1251662E-04;  0.0000000E+00;  0.0000000E+00;  0.0000000E+00;0;  1.6119080E-02;  8.1128159E+01;  0.0000000E+00;  5.4331822E-04;  1.0000000E+02;  0.0000000E+00;  9.8957977E+01;  1.5802352E-02;  0.0000000E+00;  3.1672756E-04;  0.0000000E+00;
  2.4898088E+00;  9.9999998E-03;  1.0053043E+00;307;  1.7433705E-02;  0.0000000E+00;  2.2042185E-04;  9.9900761E+00;  4.4360265E-01; -1.0555668E+00;3;  6.1260478E-05;  0.0000000E+00;  4.1613422E-04;  0.0000000E+00;  0.0000000E+00;  0.0000000E+00;0;  1.5170011E-02;  8.1967659E+01;  0.0000000E+00;  2.3312165E-05;  1.0000000E+02;  0.0000000E+00;  9.8997841E+01;  1.4908624E-02;  0.0000000E+00;  2.6138694E-04;  0.0000000E+00;
  2.7493737E+00;  9.9999998E-03; -1.8701719E-08;313;  1.5214677E-02;  0.0000000E+00; -3.8085496E-08;  9.9873533E+00;  4.6212345E-01; -1.3214697E+00;3; -9.1264509E-03;  0.0000000E+00; -2.2504858E-08;  0.0000000E+00;  0.0000000E+00;  0.0000000E+00;0;  2.4082400E-02;  7.6411491E+01;  0.0000000E+00; -5.1961376E-13;  1.0000000E+02;  0.0000000E+00;  9.7799255E+01;  2.3383198E-02;  0.0000000E+00;  6.9920206E-04;  0.0000000E+00;
  2.7440214E+00;  9.9999998E-03;  1.9918723E-01;314;  1.4773379E-02;  0.0000000E+00; -2.7828888E-04;  9.9875202E+00;  4.6152577E-01; -1.3047180E+00;3; -6.8420372E-03;  0.0000000E+00; -9.7832024E-05;  0.0000000E+00;  0.0000000E+00;  0.0000000E+00;0;  2.3661228E-02;  7.6585785E+01;  0.0000000E+00;  2.3850077E-04;  1.0000000E+02;  0.0000000E+00;  9.7831543E+01;  2.2970773E-02;  0.0000000E+00;  6.9045514E-04;  0.0000000E+00;
  2.7315810E+00;  9.9999998E-03;  3.9985916E-01;315;  1.5914457E-02;  0.0000000E+00; -3.6064567E-04;  9.9880352E+00;  4.5975605E-01; -1.2523737E+00;3; -6.2878588E-03;  0.0000000E+00; -3.8005749E-04;  0.0000000E+00;  0.0000000E+00;  0.0000000E+00;0;  2.2457486E-02;  7.7086052E+01;  0.0000000E+00;  6.8288291E-04;  1.0000000E+02;  0.0000000E+00;  9.7953209E+01;  2.1814331E-02;  0.0000000E+00;  6.4315507E-04;  0.0000000E+00;
  2.7114680E+00;  9.9999998E-03;  6.0306710E-01;316;  1.6774477E-02;  0.0000000E+00; -1.0973573E-04;  9.9887342E+00;  4.5747969E-01; -1.1813680E+00;3; -3.1783073E-03;  0.0000000E+00; -4.2565822E-04;  0.0000000E+00;  0.0000000E+00;  0.0000000E+00;0;  2.0795386E-02;  7.7797615E+01;  0.0000000E+00;  2.6744131E-03;  1.0000000E+02;  0.0000000E+00;  9.8046722E+01;  2.0206206E-02;  0.0000000E+00;  5.8917998E-04;  0.0000000E+00;
  2.6996396E+00;  9.9999998E-03;  8.0653179E-01;317;  1.7354378E-02;  0.0000000E+00;  1.4521634E-04;  9.9894886E+00;  4.5518190E-01; -1.1033802E+00;3; -2.4407981E-04;  0.0000000E+00; -1.8230648E-04;  0.0000000E+00;  0.0000000E+00;  0.0000000E+00;0;  1.9192675E-02;  7.8548637E+01;  0.0000000E+00;  3.2607079E-03;  1.0000000E+02;  0.0000000E+00;  9.8106186E+01;  1.8722178E-02;  0.0000000E+00;  4.7049709E-04;  0.0000000E+00;
  2.6935816E+00;  9.9999998E-03;  1.0096594E+00;318;  1.7413972E-02;  0.0000000E+00;  4.4582871E-04;  9.9901094E+00;  4.5328301E-01; -1.0387832E+00;3;  4.3620189E-06;  0.0000000E+00; -2.2105753E-04;  0.0000000E+00;  0.0000000E+00;  0.0000000E+00;0;  1.7973755E-02;  7.9177666E+01;  0.0000000E+00;  3.7238493E-03;  1.0000000E+02;  0.0000000E+00;  9.8153008E+01;  1.7548934E-02;  0.0000000E+00;  4.2482108E-04;  0.0000000E+00;
  2.9824901E+00;  9.9999998E-03; -4.2440660E-09;324;  3.1651016E-02;  0.0000000E+00; -1.0499627E-08;  9.9879427E+00;  4.7001141E-01; -1.2215734E+00;3; -4.8819920E-03;  0.0000000E+00; -1.7311095E-07;  0.0000000E+00;  0.0000000E+00;  0.0000000E+00;0;  2.7523234E-02;  7.4810944E+01;  0.0000000E+00; -8.1028077E-13;  1.0000000E+02;  0.0000000E+00;  9.6578247E+01;  2.5991494E-02;  0.0000000E+00;  1.5317400E-03;  0.0000000E+00;
  2.9756618E+00;  9.9999998E-03;  2.0025370E-01;325;  3.0446451E-02;  0.0000000E+00; -2.2484569E-04;  9.9880295E+00;  4.6973348E-01; -1.2141142E+00;3; -4.2282734E-03;  0.0000000E+00; -1.1661605E-04;  0.0000000E+00;  0.0000000E+00;  0.0000000E+00;0;  2.7186338E-02;  7.4862854E+01;  0.0000000E+00; -4.0880414E-06;  1.0000000E+02;  0.0000000E+00;  9.6627739E+01;  2.5686340E-02;  0.0000000E+00;  1.4999969E-03;  0.0000000E+00;
  2.9593351E+00;  9.9999998E-03;  4.0312693E-01;326;  2.7445605E-02;  0.0000000E+00; -3.3367466E-04;  9.9883347E+00;  4.6905002E-01; -1.1862741E+00;3; -2.3481196E-03;  0.0000000E+00; -2.7936333E-04;  0.0000000E+00;  0.0000000E+00;  0.0000000E+00;0;  2.6167981E-02;  7.5012741E+01;  0.0000000E+00;  6.9647889E-05;  1.0000000E+02;  0.0000000E+00;  9.6717621E+01;  2.4820399E-02;  0.0000000E+00;  1.3475836E-03;  0.0000000E+00;
  2.9371450E+00;  9.9999998E-03;  6.0765141E-01;327;  2.0703612E-02;  0.0000000E+00;  2.1412181E-06;  9.9887953E+00;  4.6826202E-01; -1.1433685E+00;3; -3.2666051E-03;  0.0000000E+00; -4.8787586E-04;  0.0000000E+00;  0.0000000E+00;  0.0000000E+00;0;  2.4691666E-02;  7.5237961E+01;  0.0000000E+00;  1.4658802E-03;  1.0000000E+02;  0.0000000E+00;  9.6764114E+01;  2.3567738E-02;  0.0000000E+00;  1.1239274E-03;  0.0000000E+00;
  2.9178953E+00;  9.9999998E-03;  8.1210577E-01;328;  1.7453279E-02;  0.0000000E+00;  5.3674780E-04;  9.9893103E+00;  4.6743846E-01; -1.0939770E+00;3; -2.5824324E-04;  0.0000000E+00; -5.4129685E-04;  0.0000000E+00;  0.0000000E+00;  0.0000000E+00;0;  2.3205182E-02;  7.5487556E+01;  0.0000000E+00;  7.4275868E-04;  1.0000000E+02;  0.0000000E+00;  9.6795303E+01;  2.2212779E-02;  0.0000000E+00;  9.9240278E-04;  0.0000000E+00;
  2.9082811E+00;  9.9999998E-03;  1.0162964E+00;329;  1.7364424E-02;  0.0000000E+00;  1.0161902E-03;  9.9897518E+00;  4.6682304E-01; -1.0503126E+00;3;  5.8642261E-05;  0.0000000E+00; -3.8509996E-04;  0.0000000E+00;  0.0000000E+00;  0.0000000E+00;0;  2.2088382E-02;  7.5676727E+01;  0.0000000E+00; -2.7435848E-03;  1.0000000E+02;  0.0000000E+00;  9.6815987E+01;  2.1163492E-02;  0.0000000E+00;  9.2489127E-04;  0.0000000E+00;
  3.1411479E+00;  9.9999998E-03;  9.7717496E-09;335;  3.7777696E-02;  0.0000000E+00;  5.6766383E-09;  9.9884996E+00;  2.4004689E-01; -1.1323588E+00;3; -3.1659082E-02;  0.0000000E+00; -1.0810095E-07;  0.0000000E+00;  0.0000000E+00;  0.0000000E+00;1;  2.9686851E-02;  2.9109921E+02;  0.0000000E+00; -3.1988509E-12;  1.0000000E+02;  0.0000000E+00;  9.5160507E+01;  2.7327847E-02;  0.0000000E+00;  2.3590042E-03;  0.0000000E+00;
  3.2515082E+00;  9.9999998E-03;  2.0286131E-01;336;  3.6466680E-02;  0.0000000E+00; -1.5499070E-06;  9.9885674E+00;  2.4009718E-01; -1.1024164E+00;3;  8.6509287E-03;  0.0000000E+00;  9.1365669E-03;  0.0000000E+00;  0.0000000E+00;  0.0000000E+00;1;  3.1293504E-02;  2.9087454E+02;  0.0000000E+00;  2.7872494E-04;  1.0000000E+02;  0.0000000E+00;  9.5195740E+01;  2.8254220E-02;  0.0000000E+00;  3.0392855E-03;  0.0000000E+00;
  3.2377429E+00;  9.9999998E-03;  4.0844047E-01;337;  3.2198325E-02;  0.0000000E+00;  8.6995581E-04;  9.9886389E+00;  2.4039000E-01; -1.0983456E+00;3;  3.7760660E-03;  0.0000000E+00;  1.7980676E-02;  0.0000000E+00;  0.0000000E+00;  0.0000000E+00;1;  3.1076912E-02;  2.9020776E+02;  0.0000000E+00;  2.6646529E-03;  1.0000000E+02;  0.0000000E+00;  9.5189445E+01;  2.8006248E-02;  0.0000000E+00;  3.0706632E-03;  0.0000000E+00;
  3.2230372E+00;  9.9999998E-03;  6.1421436E-01;338;  2.8316466E-02;  0.0000000E+00;  1.2147635E-03;  9.9887047E+00;  2.4087921E-01; -1.0949799E+00;3; -1.6182879E-03;  0.0000000E+00;  1.2211333E-04;  0.0000000E+00;  0.0000000E+00;  0.0000000E+00;1;  3.0548457E-02;  2.8920905E+02;  0.0000000E+00;  1.8504925E-02;  1.0000000E+02;  0.0000000E+00;  9.5127388E+01;  2.7706476E-02;  0.0000000E+00;  2.8419821E-03;  0.0000000E+00;
  3.2107708E+00;  9.9999998E-03;  8.1977403E-01;339;  2.4012594E-02;  0.0000000E+00;  1.7800458E-03;  9.9887571E+00;  2.4149168E-01; -1.0924304E+00;3;  3.6930023E-03;  0.0000000E+00; -2.7004946E-03;  0.0000000E+00;  0.0000000E+00;  0.0000000E+00;1;  2.9953515E-02;  2.8796890E+02;  0.0000000E+00;  7.1204014E-02;  1.0000000E+02;  0.0000000E+00;  9.5057762E+01;  2.7459720E-02;  0.0000000E+00;  2.4937952E-03;  0.0000000E+00;
  3.2082846E+00;  9.9999998E-03;  1.0253454E+00;340;  2.2078412E-02;  0.0000000E+00;  2.8830024E-03;  9.9886637E+00;  2.4213567E-01; -1.1020433E+00;3;  6.5751962E-04;  0.0000000E+00; -3.4608757E-03;  0.0000000E+00;  0.0000000E+00;  0.0000000E+00;1;  3.0416530E-02;  2.8664236E+02;  0.0000000E+00;  8.5319445E-02;  1.0000000E+02;  0.0000000E+00;  9.4989349E+01;  2.7482981E-02;  0.0000000E+00;  2.9335485E-03;  0.0000000E+00;
  3.3588769E+00;  9.9999998E-03; -1.9807174E-09;346;  3.9588369E-02;  0.0000000E+00; -2.9001730E-09;  9.9887180E+00;  2.4639609E-01; -1.0672765E+00;3; -6.1275321E-04;  0.0000000E+00; -1.6236663E-07;  0.0000000E+00;  0.0000000E+00;  0.0000000E+00;1;  3.3245292E-02;  2.8062048E+02;  0.0000000E+00;  1.0213235E-12;  1.0000000E+02;  0.0000000E+00;  9.3700348E+01;  2.9434733E-02;  0.0000000E+00;  3.8105601E-03;  0.0000000E+00;
  3.4730024E+00;  9.9999998E-03;  2.0788051E-01;347;  3.8546998E-02;  0.0000000E+00;  4.4215305E-04;  9.9886751E+00;  2.4717297E-01; -1.0528338E+00;3; -3.4467469E-04;  0.0000000E+00; -3.1360591E-04;  0.0000000E+00;  0.0000000E+00;  0.0000000E+00;1;  3.5758071E-02;  2.7934412E+02;  0.0000000E+00; -2.7270864E-03;  1.0000000E+02;  0.0000000E+00;  9.3535934E+01;  3.1097265E-02;  0.0000000E+00;  4.6608075E-03;  0.0000000E+00;
  3.4651368E+00;  9.9999998E-03;  4.1524315E-01;348;  3.5386935E-02;  0.0000000E+00;  1.4072864E-03;  9.9885464E+00;  2.4797529E-01; -1.0659586E+00;3;  1.2508826E-06;  0.0000000E+00; -1.8461230E-03;  0.0000000E+00;  0.0000000E+00;  0.0000000E+00;1;  3.5992764E-02;  2.7783029E+02;  0.0000000E+00; -8.3093289E-03;  1.0000000E+02;  0.0000000E+00;  9.3433968E+01;  3.1383067E-02;  0.0000000E+00;  4.6096975E-03;  0.0000000E+00;
  3.4582932E+00;  9.9999998E-03;  6.2184054E-01;349;  3.1711884E-02;  0.0000000E+00;  2.5393991E-03;  9.9883270E+00;  2.4913728E-01; -1.0874143E+00;3;  6.3000445E-04;  0.0000000E+00;  8.0224173E-04;  0.0000000E+00;  0.0000000E+00;  0.0000000E+00;1;  3.6515299E-02;  2.7563950E+02;  0.0000000E+00; -1.8827794E-02;  1.0000000E+02;  0.0000000E+00;  9.3299072E+01;  3.1896040E-02;  0.0000000E+00;  4.6192608E-03;  0.0000000E+00;
  3.4591799E+00;  9.9999998E-03;  8.2855415E-01;350;  3.1241896E-02;  0.0000000E+00;  3.7632803E-03;  9.9880152E+00;  2.5047618E-01; -1.1163146E+00;3; -1.4909976E-03;  0.0000000E+00; -1.6737434E-03;  0.0000000E+00;  0.0000000E+00;  0.0000000E+00;1;  3.7489433E-02;  2.7315656E+02;  0.0000000E+00; -3.5332561E-02;  1.0000000E+02;  0.0000000E+00;  9.3138893E+01;  3.2685917E-02;  0.0000000E+00;  4.8035155E-03;  0.0000000E+00;
  3.4631536E+00;  9.9999998E-03;  1.0355926E+00;351;  3.2352775E-02;  0.0000000E+00;  4.9229739E-03;  9.9877443E+00;  2.5171858E-01; -1.1409398E+00;3; -1.5165308E-03;  0.0000000E+00; -6.2795851E-04;  0.0000000E+00;  0.0000000E+00;  0.0000000E+00;1;  3.8435172E-02;  2.7090085E+02;  0.0000000E+00; -4.5806225E-02;  1.0000000E+02;  0.0000000E+00;  9.2986145E+01;  3.3499084E-02;  0.0000000E+00;  4.9360888E-03;  0.0000000E+00;
  3.5917339E+00;  9.9999998E-03; -2.8212066E-08;357;  4.1203044E-02;  0.0000000E+00; -1.8493827E-08;  9.9885712E+00;  2.5388360E-01; -1.0475100E+00;3; -2.0325738E-03;  0.0000000E+00; -6.0445745E-07;  0.0000000E+00;  0.0000000E+00;  0.0000000E+00;1;  3.8586657E-02;  2.6840723E+02;  0.0000000E+00;  8.4747495E-12;  1.0000000E+02;  0.0000000E+00;  9.2266747E+01;  3.2967988E-02;  0.0000000E+00;  5.6186686E-03;  0.0000000E+00;
  3.7107198E+00;  9.9999998E-03;  2.1205118E-01;358;  4.2103767E-02;  0.0000000E+00;  1.4049389E-03;  9.9882660E+00;  2.5543508E-01; -1.0644367E+00;3; -2.8189453E-03;  0.0000000E+00; -7.6133758E-04;  0.0000000E+00;  0.0000000E+00;  0.0000000E+00;1;  4.2168949E-02;  2.6600531E+02;  0.0000000E+00; -7.4744634E-03;  1.0000000E+02;  0.0000000E+00;  9.1967430E+01;  3.5597391E-02;  0.0000000E+00;  6.5715569E-03;  0.0000000E+00;
  3.7100937E+00;  9.9999998E-03;  4.2055237E-01;359;  4.0347356E-02;  0.0000000E+00;  3.2392058E-03;  9.9880228E+00;  2.5631988E-01; -1.0865467E+00;3; -3.8860766E-03;  0.0000000E+00; -1.1804929E-03;  0.0000000E+00;  0.0000000E+00;  0.0000000E+00;1;  4.3021228E-02;  2.6447885E+02;  0.0000000E+00; -3.0953508E-02;  1.0000000E+02;  0.0000000E+00;  9.1859146E+01;  3.6268823E-02;  0.0000000E+00;  6.7524067E-03;  0.0000000E+00;
  3.7099888E+00;  9.9999998E-03;  6.2832999E-01;360;  3.9447457E-02;  0.0000000E+00;  4.5539117E-03;  9.9876938E+00;  2.5749224E-01; -1.1164036E+00;3; -4.1617923E-03;  0.0000000E+00; -2.6970080E-03;  0.0000000E+00;  0.0000000E+00;  0.0000000E+00;1;  4.4161659E-02;  2.6247214E+02;  0.0000000E+00; -6.6648774E-02;  1.0000000E+02;  0.0000000E+00;  9.1714386E+01;  3.7220214E-02;  0.0000000E+00;  6.9414438E-03;  0.0000000E+00;
  3.7130125E+00;  9.9999998E-03;  8.3611399E-01;361;  4.0691782E-02;  0.0000000E+00;  5.8586034E-03;  9.9873867E+00;  2.5870278E-01; -1.1440567E+00;3; -3.2677609E-03;  0.0000000E+00; -7.1385212E-04;  0.0000000E+00;  0.0000000E+00;  0.0000000E+00;1;  4.5371264E-02;  2.6042413E+02;  0.0000000E+00; -8.5345104E-02;  1.0000000E+02;  0.0000000E+00;  9.1567551E+01;  3.8247321E-02;  0.0000000E+00;  7.1239439E-03;  0.0000000E+00;
  3.7199385E+00;  9.9999998E-03;  1.0443646E+00;362;  4.3578617E-02;  0.0000000E+00;  7.3018773E-03;  9.9871254E+00;  2.5975883E-01; -1.1671631E+00;3; -2.8222827E-03;  0.0000000E+00; -9.6860877E-04;  0.0000000E+00;  0.0000000E+00;  0.0000000E+00;1;  4.6472337E-02;  2.5867374E+02;  0.0000000E+00; -5.2572835E-02;  1.0000000E+02;  0.0000000E+00;  9.1436058E+01;  3.9140888E-02;  0.0000000E+00;  7.3314481E-03;  0.0000000E+00;
  3.8415327E+00;  9.9999998E-03; -5.5852084E-08;368;  4.9752988E-02;  0.0000000E+00; -7.7929187E-08;  9.9880266E+00;  2.6163068E-01; -1.0778673E+00;3; -3.5917766E-03;  0.0000000E+00; -1.2099860E-06;  0.0000000E+00;  0.0000000E+00;  0.0000000E+00;1;  4.5824938E-02;  2.5626083E+02;  0.0000000E+00;  1.6170645E-11;  1.0000000E+02;  0.0000000E+00;  9.0994675E+01;  3.8279414E-02;  0.0000000E+00;  7.5455229E-03;  0.0000000E+00;
  3.9620872E+00;  9.9999998E-03;  2.1344024E-01;369;  5.1587269E-02;  0.0000000E+00;  2.8619394E-03;  9.9877367E+00;  2.6333392E-01; -1.0989009E+00;3; -3.4083878E-03;  0.0000000E+00;  1.8263308E-04;  0.0000000E+00;  0.0000000E+00;  0.0000000E+00;1;  4.9469084E-02;  2.5372174E+02;  0.0000000E+00; -4.8186304E-03;  1.0000000E+02;  0.0000000E+00;  9.0714752E+01;  4.1026372E-02;  0.0000000E+00;  8.4427111E-03;  0.0000000E+00;
  3.9669611E+00;  9.9999998E-03;  4.2349070E-01;370;  5.2928392E-02;  0.0000000E+00;  4.4999435E-03;  9.9875975E+00;  2.6386476E-01; -1.1112366E+00;3; -3.2400601E-03;  0.0000000E+00;  3.6419748E-04;  0.0000000E+00;  0.0000000E+00;  0.0000000E+00;1;  5.0128885E-02;  2.5288115E+02;  0.0000000E+00; -1.9421283E-02;  1.0000000E+02;  0.0000000E+00;  9.0648277E+01;  4.1567914E-02;  0.0000000E+00;  8.5609704E-03;  0.0000000E+00;
  3.9692702E+00;  9.9999998E-03;  6.3254750E-01;371;  5.3142525E-02;  0.0000000E+00;  5.9687505E-03;  9.9874315E+00;  2.6448339E-01; -1.1260059E+00;3; -3.3843657E-03;  0.0000000E+00; -5.4139807E-04;  0.0000000E+00;  0.0000000E+00;  0.0000000E+00;1;  5.0842628E-02;  2.5190836E+02;  0.0000000E+00; -4.0508416E-02;  1.0000000E+02;  0.0000000E+00;  9.0571701E+01;  4.2156458E-02;  0.0000000E+00;  8.6861718E-03;  0.0000000E+00;
  3.9714432E+00;  9.9999998E-03;  8.4149683E-01;372;  5.3820267E-02;  0.0000000E+00;  7.4931676E-03;  9.9872770E+00;  2.6505542E-01; -1.1398172E+00;3; -2.8878329E-03;  0.0000000E+00; -2.0554521E-04;  0.0000000E+00;  0.0000000E+00;  0.0000000E+00;1;  5.1514581E-02;  2.5100363E+02;  0.0000000E+00; -4.8216511E-02;  1.0000000E+02;  0.0000000E+00;  9.0502808E+01;  4.2693369E-02;  0.0000000E+00;  8.8212099E-03;  0.0000000E+00;
  3.9769614E+00;  9.9999998E-03;  1.0507864E+00;373;  5.7040084E-02;  0.0000000E+00;  9.1449348E-03;  9.9872036E+00;  2.6549065E-01; -1.1462016E+00;3; -1.1119043E-03;  0.0000000E+00; -2.5394521E-04;  0.0000000E+00;  0.0000000E+00;  0.0000000E+00;1;  5.1961988E-02;  2.5032458E+02;  0.0000000E+00; -1.6665446E-02;  1.0000000E+02;  0.0000000E+00;  9.0449280E+01;  4.3016672E-02;  0.0000000E+00;  8.9453179E-03;  0.0000000E+00;
  4.1013508E+00;  9.9999998E-03; -2.9942871E-08;379;  6.2125374E-02;  0.0000000E+00; -6.2104554E-08;  9.9876003E+00;  2.6840383E-01; -1.1074759E+00;3; -3.7630612E-03;  0.0000000E+00; -1.8595817E-06;  0.0000000E+00;  0.0000000E+00;  0.0000000E+00;1;  5.2805893E-02;  2.4618599E+02;  0.0000000E+00;  1.7363895E-11;  1.0000000E+02;  0.0000000E+00;  8.9990738E+01;  4.3618117E-02;  0.0000000E+00;  9.1877766E-03;  0.0000000E+00;
  4.2222490E+00;  9.9999998E-03;  2.1177942E-01;380;  6.4473376E-02;  0.0000000E+00;  3.2812261E-03;  9.9875078E+00;  2.6964149E-01; -1.1137855E+00;3; -3.1579994E-03;  0.0000000E+00;  2.7644559E-04;  0.0000000E+00;  0.0000000E+00;  0.0000000E+00;1;  5.5431064E-02;  2.4435236E+02;  0.0000000E+00; -1.5560972E-03;  1.0000000E+02;  0.0000000E+00;  8.9834000E+01;  4.5612529E-02;  0.0000000E+00;  9.8185362E-03;  0.0000000E+00;
  4.2268515E+00;  9.9999998E-03;  4.2418498E-01;381;  6.6159777E-02;  0.0000000E+00;  4.7849119E-03;  9.9875431E+00;  2.6969036E-01; -1.1105927E+00;3; -2.4789008E-03;  0.0000000E+00;  6.7359593E-04;  0.0000000E+00;  0.0000000E+00;  0.0000000E+00;1;  5.5354495E-02;  2.4430220E+02;  0.0000000E+00; -6.6640666E-03;  1.0000000E+02;  0.0000000E+00;  8.9820107E+01;  4.5612313E-02;  0.0000000E+00;  9.7421808E-03;  0.0000000E+00;
  4.2283206E+00;  9.9999998E-03;  6.3486779E-01;382;  6.6599824E-02;  0.0000000E+00;  6.7277518E-03;  9.9875460E+00;  2.6970127E-01; -1.1103090E+00;3; -2.1444513E-03;  0.0000000E+00;  1.3353492E-04;  0.0000000E+00;  0.0000000E+00;  0.0000000E+00;1;  5.5363826E-02;  2.4429579E+02;  0.0000000E+00; -1.4482166E-02;  1.0000000E+02;  0.0000000E+00;  8.9814682E+01;  4.5562569E-02;  0.0000000E+00;  9.8012565E-03;  0.0000000E+00;
  4.2283626E+00;  9.9999998E-03;  8.4505838E-01;383;  6.6613205E-02;  0.0000000E+00;  8.4501514E-03;  9.9875746E+00;  2.6967773E-01; -1.1077577E+00;3; -1.7486509E-03;  0.0000000E+00;  7.7661598E-06;  0.0000000E+00;  0.0000000E+00;  0.0000000E+00;1;  5.5237621E-02;  2.4433385E+02;  0.0000000E+00; -1.7507052E-02;  1.0000000E+02;  0.0000000E+00;  8.9817078E+01;  4.5487300E-02;  0.0000000E+00;  9.7503234E-03;  0.0000000E+00;
  4.2289000E+00;  9.9999998E-03;  1.0552843E+00;384;  6.7237101E-02;  0.0000000E+00;  1.0327988E-02;  9.9875917E+00;  2.6963124E-01; -1.1062633E+00;3; -9.3941047E-04;  0.0000000E+00;  3.5674119E-04;  0.0000000E+00;  0.0000000E+00;  0.0000000E+00;1;  5.5190243E-02;  2.4440262E+02;  0.0000000E+00; -3.8827853E-03;  1.0000000E+02;  0.0000000E+00;  8.9822601E+01;  4.5386679E-02;  0.0000000E+00;  9.8035634E-03;  0.0000000E+00;
  4.1108699E+00;  9.9999998E-03;  8.4436327E-01;551;  6.5230034E-02;  0.0000000E+00;  8.0626467E-03;  9.9874640E+00;  2.6879868E-01; -1.1194786E+00;3; -2.8290376E-03;  0.0000000E+00; -7.8451842E-05; -4.3160208E+08; -4.3160208E+08; -4.3160208E+08;1;  5.3559151E-02;  2.4556903E+02;  0.0000000E+00;  2.8353333E-04;  1.0000000E+02;  0.0000000E+00;  8.9949677E+01;  4.4194397E-02;  0.0000000E+00;  9.3647530E-03;  0.0000000E+00;
  4.1123042E+00;  9.9999998E-03;  1.0543971E+00;552;  6.7029357E-02;  0.0000000E+00;  9.8219747E-03;  9.9874697E+00;  2.6881590E-01; -1.1189184E+00;3; -8.8721863E-04;  0.0000000E+00;  1.1566915E-04; -4.3160208E+08; -4.3160208E+08; -4.3160208E+08;1;  5.3582609E-02;  2.4554161E+02;  0.0000000E+00; -4.5018536E-03;  1.0000000E+02;  0.0000000E+00;  8.9947556E+01;  4.4168554E-02;  0.0000000E+00;  9.4140554E-03;  0.0000000E+00;
  4.1108232E+00;  9.9999998E-03;  6.3442010E-01;554;  6.5319628E-02;  0.0000000E+00;  6.4515779E-03;  9.9874907E+00;  2.6872376E-01; -1.1170843E+00;3; -2.9974221E-03;  0.0000000E+00; -4.8857904E-04; -4.3160208E+08; -4.3160208E+08; -4.3160208E+08;1;  5.3444400E-02;  2.4568408E+02;  0.0000000E+00; -7.6549518E-04;  1.0000000E+02;  0.0000000E+00;  8.9957703E+01;  4.4084683E-02;  0.0000000E+00;  9.3597155E-03;  0.0000000E+00;
  4.1095042E+00;  9.9999998E-03;  4.2410871E-01;556;  6.5234140E-02;  0.0000000E+00;  4.7885240E-03;  9.9875393E+00;  2.6860502E-01; -1.1127983E+00;3; -2.8112354E-03;  0.0000000E+00; -2.6770256E-04; -4.3160208E+08; -4.3160208E+08; -4.3160208E+08;1;  5.3216670E-02;  2.4586446E+02;  0.0000000E+00; -1.4609997E-03;  1.0000000E+02;  0.0000000E+00;  8.9973053E+01;  4.3924652E-02;  0.0000000E+00;  9.2920177E-03;  0.0000000E+00;
  4.2185321E+00;  9.9999998E-03; -4.5483919E-09;558;  6.2763467E-02;  0.0000000E+00; -2.4892294E-08;  9.9875126E+00;  2.6965299E-01; -1.1134074E+00;3; -3.8345370E-03;  0.0000000E+00; -2.0359114E-06; -4.3160208E+08; -4.3160208E+08; -4.3160208E+08;1;  5.5342861E-02;  2.4439291E+02;  0.0000000E+00;  1.2771066E-11;  1.0000000E+02;  0.0000000E+00;  8.9811813E+01;  4.5585878E-02;  0.0000000E+00;  9.7569805E-03;  0.0000000E+00;
  4.1048517E+00;  9.9999998E-03;  2.1256849E-01;559;  6.3557349E-02;  0.0000000E+00;  3.2974649E-03;  9.9875669E+00;  2.6846278E-01; -1.1103877E+00;3; -3.3094967E-03;  0.0000000E+00; -3.6074460E-04; -4.3160208E+08; -4.3160208E+08; -4.3160208E+08;1;  5.3011462E-02;  2.4607440E+02;  0.0000000E+00; -7.2279817E-04;  1.0000000E+02;  0.0000000E+00;  8.9991516E+01;  4.3732338E-02;  0.0000000E+00;  9.2791235E-03;  0.0000000E+00;
  3.8589904E+00;  9.9999998E-03;  1.0495590E+00;567;  5.5070255E-02;  0.0000000E+00;  8.3613908E-03;  9.9871664E+00;  2.6442498E-01; -1.1543819E+00;3; -2.5786497E-03;  0.0000000E+00; -4.5813830E-04; -4.3160208E+08; -4.3160208E+08; -4.3160208E+08;1;  4.9495682E-02;  2.5182219E+02;  0.0000000E+00;  1.6609683E-03;  1.0000000E+02;  0.0000000E+00;  9.0637634E+01;  4.1238043E-02;  0.0000000E+00;  8.2576387E-03;  0.0000000E+00;
  3.8522663E+00;  9.9999998E-03;  8.4047538E-01;569;  4.9999144E-02;  0.0000000E+00;  6.8080486E-03;  9.9872856E+00;  2.6390851E-01; -1.1440006E+00;3; -6.1921477E-03;  0.0000000E+00;  1.0173723E-05; -4.3160208E+08; -4.3160208E+08; -4.3160208E+08;1;  4.8894383E-02;  2.5263823E+02;  0.0000000E+00; -2.4009842E-02;  1.0000000E+02;  0.0000000E+00;  9.0700905E+01;  4.0784772E-02;  0.0000000E+00;  8.1096115E-03;  0.0000000E+00;
  3.8509362E+00;  9.9999998E-03;  6.3173985E-01;573;  5.0587784E-02;  0.0000000E+00;  5.4696128E-03;  9.9874992E+00;  2.6323146E-01; -1.1248682E+00;3; -5.4369778E-03;  0.0000000E+00; -1.5155567E-03; -4.3160208E+08; -4.3160208E+08; -4.3160208E+08;1;  4.8037726E-02;  2.5372424E+02;  0.0000000E+00; -2.2915559E-02;  1.0000000E+02;  0.0000000E+00;  9.0780090E+01;  4.0022619E-02;  0.0000000E+00;  8.0151074E-03;  0.0000000E+00;
  3.8495288E+00;  9.9999998E-03;  4.2296794E-01;575;  5.1703386E-02;  0.0000000E+00;  4.1022748E-03;  9.9877357E+00;  2.6253292E-01; -1.1036458E+00;3; -3.8536813E-03;  0.0000000E+00; -1.1571507E-03; -4.3160208E+08; -4.3160208E+08; -4.3160208E+08;1;  4.7098994E-02;  2.5486200E+02;  0.0000000E+00; -1.2420294E-02;  1.0000000E+02;  0.0000000E+00;  9.0863754E+01;  3.9267983E-02;  0.0000000E+00;  7.8310091E-03;  0.0000000E+00;
  3.8452926E+00;  9.9999998E-03;  2.1349512E-01;577;  5.1223740E-02;  0.0000000E+00;  2.3229485E-03;  9.9879360E+00;  2.6193267E-01; -1.0858340E+00;3; -3.2065995E-03;  0.0000000E+00; -6.6016929E-04; -4.3160208E+08; -4.3160208E+08; -4.3160208E+08;1;  4.6245571E-02;  2.5583221E+02;  0.0000000E+00; -3.5529770E-03;  1.0000000E+02;  0.0000000E+00;  9.0935616E+01;  3.8611431E-02;  0.0000000E+00;  7.6341415E-03;  0.0000000E+00;
  3.9582641E+00;  9.9999998E-03; -6.8773765E-08;580;  5.0081100E-02;  0.0000000E+00; -9.8218486E-08;  9.9878092E+00;  2.6307729E-01; -1.0925657E+00;3; -3.8219031E-03;  0.0000000E+00; -1.5264932E-06; -4.3160208E+08; -4.3160208E+08; -4.3160208E+08;1;  4.9098581E-02;  2.5409198E+02;  0.0000000E+00;  1.7361520E-11;  1.0000000E+02;  0.0000000E+00;  9.0760651E+01;  4.0754143E-02;  0.0000000E+00;  8.3444389E-03;  0.0000000E+00;
  3.6007071E+00;  9.9999998E-03;  1.0428643E+00;583;  3.9874338E-02;  0.0000000E+00;  6.2420038E-03;  9.9873600E+00;  2.5841853E-01; -1.1574706E+00;3; -5.6713112E-03;  0.0000000E+00; -1.0678937E-03; -4.3160208E+08; -4.3160208E+08; -4.3160208E+08;1;  4.2871948E-02;  2.6060986E+02;  0.0000000E+00; -3.3801418E-02;  1.0000000E+02;  0.0000000E+00;  9.1704292E+01;  3.6597241E-02;  0.0000000E+00;  6.2747067E-03;  0.0000000E+00;
  3.5939598E+00;  9.9999998E-03;  8.3483058E-01;585;  3.7082031E-02;  0.0000000E+00;  4.9343728E-03;  9.9876356E+00;  2.5738147E-01; -1.1330245E+00;3; -6.1851367E-03;  0.0000000E+00; -1.0931276E-03; -4.3160208E+08; -4.3160208E+08; -4.3160208E+08;1;  4.1785844E-02;  2.6236526E+02;  0.0000000E+00; -6.5264419E-02;  1.0000000E+02;  0.0000000E+00;  9.1831207E+01;  3.5677195E-02;  0.0000000E+00;  6.1086472E-03;  0.0000000E+00;
  3.5924556E+00;  9.9999998E-03;  6.2720495E-01;587;  3.7760589E-02;  0.0000000E+00;  3.5927079E-03;  9.9879923E+00;  2.5620911E-01; -1.1005309E+00;3; -5.6252098E-03;  0.0000000E+00; -7.3597074E-04; -4.3160208E+08; -4.3160208E+08; -4.3160208E+08;1;  4.0547833E-02;  2.6437930E+02;  0.0000000E+00; -5.1439639E-02;  1.0000000E+02;  0.0000000E+00;  9.1971809E+01;  3.4698471E-02;  0.0000000E+00;  5.8493596E-03;  0.0000000E+00;
  3.5933533E+00;  9.9999998E-03;  4.1967836E-01;589;  3.9882839E-02;  0.0000000E+00;  2.4575554E-03;  9.9882584E+00;  2.5510687E-01; -1.0760136E+00;3; -4.0003005E-03;  0.0000000E+00; -3.8314003E-03; -4.3160208E+08; -4.3160208E+08; -4.3160208E+08;1;  3.9634891E-02;  2.6631494E+02;  0.0000000E+00; -2.5660489E-02;  1.0000000E+02;  0.0000000E+00;  9.2099350E+01;  3.3860352E-02;  0.0000000E+00;  5.7745385E-03;  0.0000000E+00;
  3.5943470E+00;  9.9999998E-03;  2.1121672E-01;593;  4.2112328E-02;  0.0000000E+00;  4.5345840E-04;  9.9885035E+00;  2.5426522E-01; -1.0534570E+00;3; -2.7815681E-03;  0.0000000E+00; -3.7579605E-04; -4.3160208E+08; -4.3160208E+08; -4.3160208E+08;1;  3.8866967E-02;  2.6777475E+02;  0.0000000E+00; -6.6631082E-03;  1.0000000E+02;  0.0000000E+00;  9.2206299E+01;  3.3288583E-02;  0.0000000E+00;  5.5783829E-03;  0.0000000E+00;
  3.7081251E+00;  9.9999998E-03; -3.6243954E-08;594;  4.1196309E-02;  0.0000000E+00; -5.2712757E-08;  9.9883595E+00;  2.5502083E-01; -1.0562000E+00;3; -2.0841598E-03;  0.0000000E+00; -8.6022192E-07; -4.3160208E+08; -4.3160208E+08; -4.3160208E+08;1;  4.1783512E-02;  2.6666638E+02;  0.0000000E+00;  1.2646210E-11;  1.0000000E+02;  0.0000000E+00;  9.2038429E+01;  3.5243612E-02;  0.0000000E+00;  6.5399003E-03;  0.0000000E+00;
  3.3451774E+00;  9.9999998E-03;  1.0343353E+00;602;  3.0039247E-02;  0.0000000E+00;  3.8083370E-03;  9.9882097E+00;  2.5057366E-01; -1.1179594E+00;3; -3.7757009E-03;  0.0000000E+00; -1.1910700E-03; -4.3160208E+08; -4.3160208E+08; -4.3160208E+08;1;  3.4372237E-02;  2.7267929E+02;  0.0000000E+00; -2.6434308E-02;  1.0000000E+02;  0.0000000E+00;  9.3234413E+01;  3.0641751E-02;  0.0000000E+00;  3.7304838E-03;  0.0000000E+00;
  3.3413534E+00;  9.9999998E-03;  8.2751507E-01;607;  2.9130870E-02;  0.0000000E+00;  2.8358616E-03;  9.9883871E+00;  2.4949670E-01; -1.1018375E+00;3; -3.6669881E-03;  0.0000000E+00; -6.4658583E-04; -4.3160208E+08; -4.3160208E+08; -4.3160208E+08;1;  3.3842470E-02;  2.7466846E+02;  0.0000000E+00; -1.4894194E-02;  1.0000000E+02;  0.0000000E+00;  9.3361557E+01;  3.0118687E-02;  0.0000000E+00;  3.7237823E-03;  0.0000000E+00;
  3.3405330E+00;  9.9999998E-03;  6.2101603E-01;609;  2.9717982E-02;  0.0000000E+00;  1.8755370E-03;  9.9885397E+00;  2.4834301E-01; -1.0875127E+00;3;  4.4861832E-03;  0.0000000E+00;  6.2548555E-03; -4.3160208E+08; -4.3160208E+08; -4.3160208E+08;1;  3.3383336E-02;  2.7685522E+02;  0.0000000E+00; -6.4972015E-03;  1.0000000E+02;  0.0000000E+00;  9.3487404E+01;  2.9674074E-02;  0.0000000E+00;  3.7092608E-03;  0.0000000E+00;
  3.3483841E+00;  9.9999998E-03;  4.1448748E-01;611;  3.5215974E-02;  0.0000000E+00;  6.9658755E-04;  9.9886713E+00;  2.4733871E-01; -1.0735726E+00;3;  2.8316776E-05;  0.0000000E+00; -1.1115221E-03; -4.3160208E+08; -4.3160208E+08; -4.3160208E+08;1;  3.3167958E-02;  2.7876944E+02;  0.0000000E+00; -3.7120059E-03;  1.0000000E+02;  0.0000000E+00;  9.3602707E+01;  2.9525742E-02;  0.0000000E+00;  3.6422149E-03;  0.0000000E+00;
  3.3563585E+00;  9.9999998E-03;  2.0748180E-01;613;  3.8516078E-02;  0.0000000E+00; -1.3833592E-04;  9.9887161E+00;  2.4665338E-01; -1.0678966E+00;3; -9.5876300E-04;  0.0000000E+00; -2.8682398E-04; -4.3160208E+08; -4.3160208E+08; -4.3160208E+08;1;  3.3198629E-02;  2.8010776E+02;  0.0000000E+00; -1.8699362E-03;  1.0000000E+02;  0.0000000E+00;  9.3675888E+01;  2.9466044E-02;  0.0000000E+00;  3.7325833E-03;  0.0000000E+00;
  3.4755273E+00;  9.9999998E-03; -3.6875112E-09;614;  3.9623491E-02;  0.0000000E+00;  1.2591171E-08;  9.9887152E+00;  2.4687672E-01; -1.0487598E+00;3; -1.4460849E-04;  0.0000000E+00; -4.0817395E-07; -4.3160208E+08; -4.3160208E+08; -4.3160208E+08;1;  3.5682555E-02;  2.7991684E+02;  0.0000000E+00;  2.5835011E-12;  1.0000000E+02;  0.0000000E+00;  9.3569138E+01;  3.0984465E-02;  0.0000000E+00;  4.6980898E-03;  0.0000000E+00;
  3.0910296E+00;  9.9999998E-03;  1.0250475E+00;618;  2.1576766E-02;  0.0000000E+00;  1.8207065E-03;  9.9892778E+00;  2.4190047E-01; -1.0657507E+00;3; -9.7751908E-04;  0.0000000E+00;  6.1865458E-03; -4.3160208E+08; -4.3160208E+08; -4.3160208E+08;1;  2.6450787E-02;  2.8708951E+02;  0.0000000E+00;  9.2287414E-02;  1.0000000E+02;  0.0000000E+00;  9.5037720E+01;  2.4829945E-02;  0.0000000E+00;  1.6208420E-03;  0.0000000E+00;
  3.0934398E+00;  9.9999998E-03;  8.1955600E-01;625;  2.2655673E-02;  0.0000000E+00;  1.2444305E-03;  9.9890528E+00;  2.4133790E-01; -1.0876000E+00;3; -4.2501721E-03;  0.0000000E+00; -1.7247560E-04; -4.3160208E+08; -4.3160208E+08; -4.3160208E+08;1;  2.7092876E-02;  2.8823044E+02;  0.0000000E+00;  7.5111069E-02;  1.0000000E+02;  0.0000000E+00;  9.5098175E+01;  2.5243273E-02;  0.0000000E+00;  1.8496037E-03;  0.0000000E+00;
  3.1057811E+00;  9.9999998E-03;  6.1411631E-01;631;  2.7798329E-02;  0.0000000E+00;  3.2092744E-04;  9.9888668E+00;  2.4080612E-01; -1.1035368E+00;3; -4.2136358E-03;  0.0000000E+00;  5.5350427E-04; -4.3160208E+08; -4.3160208E+08; -4.3160208E+08;1;  2.7739594E-02;  2.8933099E+02;  0.0000000E+00;  1.9422198E-02;  1.0000000E+02;  0.0000000E+00;  9.5148270E+01;  2.5943307E-02;  0.0000000E+00;  1.7962857E-03;  0.0000000E+00;
  3.1204994E+00;  9.9999998E-03;  4.0839985E-01;633;  3.1855397E-02;  0.0000000E+00; -2.4853041E-04;  9.9886160E+00;  2.4036166E-01; -1.1252986E+00;3; -3.2276141E-03;  0.0000000E+00;  2.9764487E-03; -4.3160208E+08; -4.3160208E+08; -4.3160208E+08;1;  2.8702557E-02;  2.9024863E+02;  0.0000000E+00;  2.8032118E-03;  1.0000000E+02;  0.0000000E+00;  9.5198074E+01;  2.6635394E-02;  0.0000000E+00;  2.0671638E-03;  0.0000000E+00;
  3.1342776E+00;  9.9999998E-03;  2.0285805E-01;635;  3.6157764E-02;  0.0000000E+00; -4.1803875E-04;  9.9885130E+00;  2.4009068E-01; -1.1325413E+00;3; -1.4571695E-02;  0.0000000E+00; -5.0611603E-03; -4.3160208E+08; -4.3160208E+08; -4.3160208E+08;1;  2.9413417E-02;  2.9088211E+02;  0.0000000E+00;  2.8489990E-04;  1.0000000E+02;  0.0000000E+00;  9.5197411E+01;  2.7140753E-02;  0.0000000E+00;  2.2726636E-03;  0.0000000E+00;
  3.2583554E+00;  9.9999998E-03;  9.7710036E-09;636;  3.7947841E-02;  0.0000000E+00;  5.3475384E-09;  9.9885283E+00;  2.4004954E-01; -1.1047438E+00;3;  3.1506172E-03;  0.0000000E+00; -1.8254028E-07; -4.3160208E+08; -4.3160208E+08; -4.3160208E+08;1;  3.1453036E-02;  2.9109641E+02;  0.0000000E+00; -3.1948979E-12;  1.0000000E+02;  0.0000000E+00;  9.5159851E+01;  2.8352652E-02;  0.0000000E+00;  3.1003847E-03;  0.0000000E+00;
  4.3611941E+00;  9.9999998E-03;  1.0580012E+00;546;  7.6159984E-02;  0.0000000E+00;  1.0771502E-02;  9.9877987E+00;  2.7263007E-01; -1.0865321E+00;3; -1.3711358E-03;  0.0000000E+00;  5.6988437E-04; -4.3160208E+08; -4.3160208E+08; -4.3160208E+08;1;  5.6377716E-02;  2.4012602E+02;  0.0000000E+00;  7.5313117E-05;  1.0000000E+02;  0.0000000E+00;  8.9423775E+01;  4.6286985E-02;  0.0000000E+00;  1.0090729E-02;  0.0000000E+00;
  4.3636327E+00;  9.9999998E-03;  8.4721303E-01;547;  7.6567531E-02;  0.0000000E+00;  8.7894872E-03;  9.9877520E+00;  2.7281815E-01; -1.0907081E+00;3; -1.8190237E-03;  0.0000000E+00; -1.4566348E-04; -4.3160208E+08; -4.3160208E+08; -4.3160208E+08;1;  5.6625515E-02;  2.3985406E+02;  0.0000000E+00; -5.8101525E-04;  1.0000000E+02;  0.0000000E+00;  8.9401588E+01;  4.6550687E-02;  0.0000000E+00;  1.0074828E-02;  0.0000000E+00;
  4.3663325E+00;  9.9999998E-03;  6.3625753E-01;541;  7.7216789E-02;  0.0000000E+00;  6.8847272E-03;  9.9876776E+00;  2.7303782E-01; -1.0973237E+00;3; -2.1285107E-03;  0.0000000E+00;  1.7144132E-05; -4.3160208E+08; -4.3160208E+08; -4.3160208E+08;1;  5.7012226E-02;  2.3953224E+02;  0.0000000E+00; -1.3000540E-03;  1.0000000E+02;  0.0000000E+00;  8.9377060E+01;  4.6853397E-02;  0.0000000E+00;  1.0158829E-02;  0.0000000E+00;
  4.3685770E+00;  9.9999998E-03;  4.2442650E-01;542;  7.7623717E-02;  0.0000000E+00;  4.7835568E-03;  9.9876080E+00;  2.7325228E-01; -1.1034647E+00;3; -2.4663967E-03;  0.0000000E+00;  4.7106654E-04; -4.3160208E+08; -4.3160208E+08; -4.3160208E+08;1;  5.7364643E-02;  2.3920970E+02;  0.0000000E+00; -8.5680198E-04;  1.0000000E+02;  0.0000000E+00;  8.9356186E+01;  4.7168382E-02;  0.0000000E+00;  1.0196263E-02;  0.0000000E+00;
  4.3688216E+00;  9.9999998E-03;  2.1018255E-01;391;  7.7248216E-02;  0.0000000E+00;  3.1170940E-03;  9.9875202E+00;  2.7341500E-01; -1.1113183E+00;3; -3.0693824E-03;  0.0000000E+00; -3.3805447E-04;  0.0000000E+00;  0.0000000E+00;  0.0000000E+00;1;  5.7776161E-02;  2.3895389E+02;  0.0000000E+00;  1.2673629E-05;  1.0000000E+02;  0.0000000E+00;  8.9344727E+01;  4.7429476E-02;  0.0000000E+00;  1.0346684E-02;  0.0000000E+00;
  4.3699536E+00;  9.9999998E-03;  7.0761438E-08;390;  7.6881185E-02;  0.0000000E+00;  9.4681091E-08;  9.9875002E+00;  2.7358994E-01; -1.1130619E+00;3; -3.9230888E-03;  0.0000000E+00; -1.9887618E-06;  0.0000000E+00;  0.0000000E+00;  0.0000000E+00;1;  5.7886768E-02;  2.3884157E+02;  0.0000000E+00;  2.9878604E-12;  1.0000000E+02;  0.0000000E+00;  8.9272278E+01;  4.7551338E-02;  0.0000000E+00;  1.0335431E-02;  0.0000000E+00;
  4.4775200E+00;  9.9999998E-03;  1.0586416E+00;395;  7.6152988E-02;  0.0000000E+00;  1.1110037E-02;  9.9878654E+00;  2.7336362E-01; -1.0799248E+00;3; -1.4058818E-03;  0.0000000E+00;  7.3614396E-04;  0.0000000E+00;  0.0000000E+00;  0.0000000E+00;1;  5.7661071E-02;  2.3910291E+02;  0.0000000E+00; -8.7249214E-03;  1.0000000E+02;  0.0000000E+00;  8.9325691E+01;  4.7298573E-02;  0.0000000E+00;  1.0362498E-02;  0.0000000E+00;
  4.4800668E+00;  9.9999998E-03;  8.4770477E-01;394;  7.6607056E-02;  0.0000000E+00;  9.0504559E-03;  9.9878139E+00;  2.7354661E-01; -1.0845284E+00;3; -2.0174480E-03;  0.0000000E+00; -2.7242218E-04;  0.0000000E+00;  0.0000000E+00;  0.0000000E+00;1;  5.7924580E-02;  2.3884125E+02;  0.0000000E+00; -6.0027633E-03;  1.0000000E+02;  0.0000000E+00;  8.9304016E+01;  4.7570687E-02;  0.0000000E+00;  1.0353893E-02;  0.0000000E+00;
  4.4828758E+00;  9.9999998E-03;  6.3654888E-01;393;  7.7328473E-02;  0.0000000E+00;  7.0422781E-03;  9.9877319E+00;  2.7377117E-01; -1.0917832E+00;3; -2.3174209E-03;  0.0000000E+00; -2.1105663E-04;  0.0000000E+00;  0.0000000E+00;  0.0000000E+00;1;  5.8357701E-02;  2.3851418E+02;  0.0000000E+00; -1.7282693E-03;  1.0000000E+02;  0.0000000E+00;  8.9279045E+01;  4.7907487E-02;  0.0000000E+00;  1.0450214E-02;  0.0000000E+00;
  4.4853873E+00;  9.9999998E-03;  4.2437607E-01;392;  7.7885963E-02;  0.0000000E+00;  4.7045099E-03;  9.9876556E+00;  2.7399597E-01; -1.0985619E+00;3; -2.6553872E-03;  0.0000000E+00;  7.0518564E-04;  0.0000000E+00;  0.0000000E+00;  0.0000000E+00;1;  5.8749598E-02;  2.3817426E+02;  0.0000000E+00;  4.6016989E-04;  1.0000000E+02;  0.0000000E+00;  8.9258942E+01;  4.8274860E-02;  0.0000000E+00;  1.0474738E-02;  0.0000000E+00;
  4.6439624E+00;  9.9999998E-03;  1.4585511E-07;401;  9.5329210E-02;  0.0000000E+00;  2.7324538E-07;  9.9875727E+00;  2.7712414E-01; -1.1054641E+00;3; -2.1952321E-03;  0.0000000E+00; -1.0926959E-06;  0.0000000E+00;  0.0000000E+00;  0.0000000E+00;1;  6.0863607E-02;  2.3397617E+02;  0.0000000E+00; -3.3019295E-12;  1.0000000E+02;  0.0000000E+00;  8.8820953E+01;  4.9869895E-02;  0.0000000E+00;  1.0993713E-02;  0.0000000E+00;
  4.6327419E+00;  9.9999998E-03;  2.0976612E-01;402;  9.0574048E-02;  0.0000000E+00;  2.5629713E-03;  9.9876051E+00;  2.7689153E-01; -1.1025752E+00;3; -3.1239730E-03;  0.0000000E+00; -1.5564400E-04;  0.0000000E+00;  0.0000000E+00;  0.0000000E+00;1;  6.0606975E-02;  2.3411884E+02;  0.0000000E+00;  6.5094227E-04;  1.0000000E+02;  0.0000000E+00;  8.8916168E+01;  4.9668998E-02;  0.0000000E+00;  1.0937977E-02;  0.0000000E+00;
  4.6250796E+00;  9.9999998E-03;  4.2567280E-01;403;  8.8625163E-02;  0.0000000E+00;  4.8098424E-03;  9.9876842E+00;  2.7677807E-01; -1.0955424E+00;3; -2.9345157E-03;  0.0000000E+00;  1.0414941E-03;  0.0000000E+00;  0.0000000E+00;  0.0000000E+00;1;  6.0145926E-02;  2.3430519E+02;  0.0000000E+00;  1.2301112E-03;  1.0000000E+02;  0.0000000E+00;  8.8918427E+01;  4.9369559E-02;  0.0000000E+00;  1.0776367E-02;  0.0000000E+00;
  4.7347760E+00;  9.9999998E-03;  6.3847727E-01;404;  8.7114431E-02;  0.0000000E+00;  7.3413686E-03;  9.9877462E+00;  2.7713558E-01; -1.0898041E+00;3; -2.8774382E-03;  0.0000000E+00; -4.3828596E-04;  0.0000000E+00;  0.0000000E+00;  0.0000000E+00;1;  6.0702659E-02;  2.3384268E+02;  0.0000000E+00;  2.9464245E-03;  1.0000000E+02;  0.0000000E+00;  8.8864357E+01;  4.9785282E-02;  0.0000000E+00;  1.0917378E-02;  0.0000000E+00;
  4.7296352E+00;  9.9999998E-03;  8.4995091E-01;405;  8.6223111E-02;  0.0000000E+00;  9.4910273E-03;  9.9877853E+00;  2.7713692E-01; -1.0863667E+00;3; -2.4721764E-03;  0.0000000E+00; -5.8095239E-04;  0.0000000E+00;  0.0000000E+00;  0.0000000E+00;1;  6.0441222E-02;  2.3384813E+02;  0.0000000E+00; -4.9469359E-03;  1.0000000E+02;  0.0000000E+00;  8.8863419E+01;  4.9604814E-02;  0.0000000E+00;  1.0836407E-02;  0.0000000E+00;
  4.7287493E+00;  9.9999998E-03;  1.0612379E+00;406;  8.8909946E-02;  0.0000000E+00;  1.1688921E-02;  9.9877815E+00;  2.7718833E-01; -1.0866863E+00;3;  5.4193288E-04;  0.0000000E+00;  1.0582730E-03;  0.0000000E+00;  0.0000000E+00;  0.0000000E+00;1;  6.0497493E-02;  2.3377325E+02;  0.0000000E+00; -1.2046792E-02;  1.0000000E+02;  0.0000000E+00;  8.8858299E+01;  4.9596973E-02;  0.0000000E+00;  1.0900518E-02;  0.0000000E+00;
  4.9033847E+00;  9.9999998E-03;  1.3876429E-07;412;  1.0962523E-01;  0.0000000E+00;  3.7577078E-07;  9.9876404E+00;  2.7864558E-01; -1.0990384E+00;3; -2.9960443E-05;  0.0000000E+00;  1.1781667E-06;  0.0000000E+00;  0.0000000E+00;  0.0000000E+00;1;  6.1923943E-02;  2.3184869E+02;  0.0000000E+00;  4.9925506E-12;  1.0000000E+02;  0.0000000E+00;  8.8659386E+01;  5.0705325E-02;  0.0000000E+00;  1.1218620E-02;  0.0000000E+00;
  5.0129232E+00;  9.9999998E-03;  2.1427879E-01;413;  1.0731351E-01;  0.0000000E+00;  1.9590966E-03;  9.9877033E+00;  2.7839708E-01; -1.0933460E+00;3; -7.2462932E-04;  0.0000000E+00; -6.0374563E-04;  0.0000000E+00;  0.0000000E+00;  0.0000000E+00;1;  6.1603837E-02;  2.3214839E+02;  0.0000000E+00;  7.0326787E-04;  1.0000000E+02;  0.0000000E+00;  8.8703880E+01;  5.0511312E-02;  0.0000000E+00;  1.1092526E-02;  0.0000000E+00;
  4.9997821E+00;  9.9999998E-03;  4.2858687E-01;414;  1.0195924E-01;  0.0000000E+00;  5.0584688E-03;  9.9876490E+00;  2.7875352E-01; -1.0982292E+00;3; -2.1905554E-03;  0.0000000E+00; -3.4506862E-05;  0.0000000E+00;  0.0000000E+00;  0.0000000E+00;1;  6.1896887E-02;  2.3164891E+02;  0.0000000E+00;  2.5776064E-03;  1.0000000E+02;  0.0000000E+00;  8.8667366E+01;  5.0814129E-02;  0.0000000E+00;  1.1082756E-02;  0.0000000E+00;
  4.9907098E+00;  9.9999998E-03;  6.4036578E-01;415;  9.8854661E-02;  0.0000000E+00;  7.7614817E-03;  9.9875507E+00;  2.7920613E-01; -1.1069262E+00;3; -2.7362788E-03;  0.0000000E+00; -4.2902076E-04;  0.0000000E+00;  0.0000000E+00;  0.0000000E+00;1;  6.2398762E-02;  2.3102832E+02;  0.0000000E+00;  6.2918873E-04;  1.0000000E+02;  0.0000000E+00;  8.8616142E+01;  5.1126346E-02;  0.0000000E+00;  1.1272416E-02;  0.0000000E+00;
  4.9861646E+00;  9.9999998E-03;  8.5140264E-01;416;  9.8268449E-02;  0.0000000E+00;  9.8319687E-03;  9.9874964E+00;  2.7964750E-01; -1.1118048E+00;3; -1.9515855E-03;  0.0000000E+00; -9.1178442E-04;  0.0000000E+00;  0.0000000E+00;  0.0000000E+00;1;  6.2646374E-02;  2.3042986E+02;  0.0000000E+00; -8.7673394E-03;  1.0000000E+02;  0.0000000E+00;  8.8566109E+01;  5.1389106E-02;  0.0000000E+00;  1.1257267E-02;  0.0000000E+00;
  4.9886389E+00;  9.9999998E-03;  1.0625943E+00;417;  1.0326020E-01;  0.0000000E+00;  1.2027546E-02;  9.9873981E+00;  2.8005633E-01; -1.1204951E+00;3;  2.5210867E-03;  0.0000000E+00;  1.0367468E-03;  0.0000000E+00;  0.0000000E+00;  0.0000000E+00;1;  6.3179851E-02;  2.2986923E+02;  0.0000000E+00;  3.0234740E-03;  1.0000000E+02;  0.0000000E+00;  8.8520607E+01;  5.1807143E-02;  0.0000000E+00;  1.1372706E-02;  0.0000000E+00;
  5.1456552E+00;  9.9999998E-03;  1.2270934E-07;423;  1.1637706E-01;  0.0000000E+00;  3.6306236E-07;  9.9877701E+00;  2.7724874E-01; -1.0873551E+00;3;  1.2314611E-04;  0.0000000E+00;  4.7265567E-06;  0.0000000E+00;  0.0000000E+00;  0.0000000E+00;1;  6.0763896E-02;  2.3366478E+02;  0.0000000E+00;  1.9797844E-11;  1.0000000E+02;  0.0000000E+00;  8.8861382E+01;  4.9723033E-02;  0.0000000E+00;  1.1040864E-02;  0.0000000E+00;
  5.2647619E+00;  9.9999998E-03;  2.1998367E-01;424;  1.1818440E-01;  0.0000000E+00;  2.6669528E-03;  9.9877853E+00;  2.7667490E-01; -1.0860004E+00;3;  8.4570755E-04;  0.0000000E+00; -2.4017511E-04;  0.0000000E+00;  0.0000000E+00;  0.0000000E+00;1;  5.9731733E-02;  2.3458859E+02;  0.0000000E+00; -2.7178763E-05;  1.0000000E+02;  0.0000000E+00;  8.8879433E+01;  4.8961326E-02;  0.0000000E+00;  1.0770406E-02;  0.0000000E+00;
  5.2630715E+00;  9.9999998E-03;  4.3048587E-01;425;  1.1637814E-01;  0.0000000E+00;  5.5597043E-03;  9.9875870E+00;  2.7736431E-01; -1.1036477E+00;3; -3.9465621E-04;  0.0000000E+00;  2.9922419E-04;  0.0000000E+00;  0.0000000E+00;  0.0000000E+00;1;  6.0721375E-02;  2.3358173E+02;  0.0000000E+00; -2.8646574E-03;  1.0000000E+02;  0.0000000E+00;  8.8816277E+01;  4.9809102E-02;  0.0000000E+00;  1.0912274E-02;  0.0000000E+00;
  5.2649531E+00;  9.9999998E-03;  6.4055753E-01;426;  1.1629017E-01;  0.0000000E+00;  7.9419743E-03;  9.9873390E+00;  2.7816704E-01; -1.1256927E+00;3; -9.2700921E-04;  0.0000000E+00; -5.1569036E-04;  0.0000000E+00;  0.0000000E+00;  0.0000000E+00;1;  6.1918013E-02;  2.3245517E+02;  0.0000000E+00; -7.2400197E-03;  1.0000000E+02;  0.0000000E+00;  8.8728737E+01;  5.0675552E-02;  0.0000000E+00;  1.1242460E-02;  0.0000000E+00;
  5.2700772E+00;  9.9999998E-03;  8.5068679E-01;427;  1.1653052E-01;  0.0000000E+00;  9.7430805E-03;  9.9871883E+00;  2.7887669E-01; -1.1390461E+00;3; -1.2993558E-03;  0.0000000E+00; -1.4586826E-03;  0.0000000E+00;  0.0000000E+00;  0.0000000E+00;1;  6.2568679E-02;  2.3147557E+02;  0.0000000E+00;  2.7174819E-03;  1.0000000E+02;  0.0000000E+00;  8.8649818E+01;  5.1297635E-02;  0.0000000E+00;  1.1271043E-02;  0.0000000E+00;
  5.2734928E+00;  9.9999998E-03;  1.0613735E+00;428;  1.1565734E-01;  0.0000000E+00;  1.1757035E-02;  9.9870987E+00;  2.7941993E-01; -1.1470474E+00;3; -1.9483637E-03;  0.0000000E+00;  6.9355161E-04;  0.0000000E+00;  0.0000000E+00;  0.0000000E+00;1;  6.3012287E-02;  2.3072873E+02;  0.0000000E+00; -6.1553842E-03;  1.0000000E+02;  0.0000000E+00;  8.8590355E+01;  5.1694304E-02;  0.0000000E+00;  1.1317987E-02;  0.0000000E+00;
  5.4005914E+00;  9.9999998E-03;  1.1324348E-09;434;  1.2715270E-01;  0.0000000E+00;  3.2536128E-08;  9.9879913E+00;  2.7196118E-01; -1.0676445E+00;3;  1.4852104E-03;  0.0000000E+00;  8.7626686E-06;  0.0000000E+00;  0.0000000E+00;  0.0000000E+00;1;  5.7081655E-02;  2.4104785E+02;  0.0000000E+00;  1.8763317E-11;  1.0000000E+02;  0.0000000E+00;  8.9524445E+01;  4.6733182E-02;  0.0000000E+00;  1.0348475E-02;  0.0000000E+00;
  5.5264926E+00;  9.9999998E-03;  2.1870135E-01;435;  1.2842065E-01;  0.0000000E+00;  3.6338973E-03;  9.9880180E+00;  2.7067912E-01; -1.0652487E+00;3;  1.7333482E-03;  0.0000000E+00;  1.9210024E-04;  0.0000000E+00;  0.0000000E+00;  0.0000000E+00;1;  5.4871526E-02;  2.4310658E+02;  0.0000000E+00; -2.3926539E-02;  1.0000000E+02;  0.0000000E+00;  8.9610397E+01;  4.4896621E-02;  0.0000000E+00;  9.9749034E-03;  0.0000000E+00;
  5.5524569E+00;  9.9999998E-03;  4.2757964E-01;436;  1.3862027E-01;  0.0000000E+00;  5.0814603E-03;  9.9878759E+00;  2.7110210E-01; -1.0779122E+00;3;  3.2506173E-03;  0.0000000E+00;  5.4376881E-04;  0.0000000E+00;  0.0000000E+00;  0.0000000E+00;1;  5.5023324E-02;  2.4249234E+02;  0.0000000E+00; -5.9374832E-02;  1.0000000E+02;  0.0000000E+00;  8.9554642E+01;  4.5045521E-02;  0.0000000E+00;  9.9778036E-03;  0.0000000E+00;
  5.5684443E+00;  9.9999998E-03;  6.3678795E-01;437;  1.4410025E-01;  0.0000000E+00;  6.9631399E-03;  9.9875889E+00;  2.7192625E-01; -1.1034003E+00;3;  4.2894268E-03;  0.0000000E+00; -1.2554537E-04;  0.0000000E+00;  0.0000000E+00;  0.0000000E+00;1;  5.5995483E-02;  2.4127200E+02;  0.0000000E+00; -3.0275166E-02;  1.0000000E+02;  0.0000000E+00;  8.9458626E+01;  4.5773786E-02;  0.0000000E+00;  1.0221698E-02;  0.0000000E+00;
  5.5685530E+00;  9.9999998E-03;  8.4645361E-01;438;  1.3643049E-01;  0.0000000E+00;  8.6337132E-03;  9.9873905E+00;  2.7272269E-01; -1.1210468E+00;3;  3.4898601E-03;  0.0000000E+00; -2.0072027E-03;  0.0000000E+00;  0.0000000E+00;  0.0000000E+00;1;  5.6851003E-02;  2.4011230E+02;  0.0000000E+00;  1.8834740E-01;  1.0000000E+02;  0.0000000E+00;  8.9364510E+01;  4.6588480E-02;  0.0000000E+00;  1.0262522E-02;  0.0000000E+00;
  5.5899649E+00;  9.9999998E-03;  1.0567063E+00;439;  1.4362860E-01;  0.0000000E+00;  1.0488871E-02;  9.9871655E+00;  2.7383342E-01; -1.1410764E+00;3;  2.5685611E-03;  0.0000000E+00; -4.3294110E-04;  0.0000000E+00;  0.0000000E+00;  0.0000000E+00;1;  5.7413600E-02;  2.3850531E+02;  0.0000000E+00; -2.8071383E-01;  1.0000000E+02;  0.0000000E+00;  8.9235748E+01;  4.7119182E-02;  0.0000000E+00;  1.0294417E-02;  0.0000000E+00;
  5.6720152E+00;  9.9999998E-03; -2.4477848E-07;445;  1.3460895E-01;  0.0000000E+00; -6.2752076E-07;  9.9883680E+00;  2.6229289E-01; -1.0341351E+00;3; -2.4046493E-04;  0.0000000E+00;  1.0625547E-05;  0.0000000E+00;  0.0000000E+00;  0.0000000E+00;1;  5.0279237E-02;  2.5587549E+02;  0.0000000E+00;  1.7185959E-11;  1.0000000E+02;  0.0000000E+00;  9.0672592E+01;  4.1211441E-02;  0.0000000E+00;  9.0677943E-03;  0.0000000E+00;
  5.8262763E+00;  9.9999998E-03;  2.0991604E-01;446;  1.4605194E-01;  0.0000000E+00;  1.2386753E-03;  9.9886236E+00;  2.6030329E-01; -1.0113975E+00;3;  1.2597124E-03;  0.0000000E+00;  1.5616247E-03;  0.0000000E+00;  0.0000000E+00;  0.0000000E+00;1;  4.5343209E-02;  2.5907797E+02;  0.0000000E+00; -5.8831189E-02;  1.0000000E+02;  0.0000000E+00;  9.0930992E+01;  3.7138540E-02;  0.0000000E+00;  8.2046697E-03;  0.0000000E+00;
  5.8512454E+00;  9.9999998E-03;  4.2141744E-01;447;  1.5645556E-01;  0.0000000E+00;  3.2601957E-03;  9.9883528E+00;  2.6142853E-01; -1.0355083E+00;3;  1.8974496E-03;  0.0000000E+00;  7.1625726E-04;  0.0000000E+00;  0.0000000E+00;  0.0000000E+00;1;  4.5720097E-02;  2.5735681E+02;  0.0000000E+00; -7.5834297E-02;  1.0000000E+02;  0.0000000E+00;  9.0749474E+01;  3.7438381E-02;  0.0000000E+00;  8.2817161E-03;  0.0000000E+00;
  5.8352513E+00;  9.9999998E-03;  6.3053936E-01;448;  1.5532061E-01;  0.0000000E+00;  5.3084125E-03;  9.9879293E+00;  2.6285899E-01; -1.0731325E+00;3;  7.1364082E-04;  0.0000000E+00; -3.9949166E-04;  0.0000000E+00;  0.0000000E+00;  0.0000000E+00;1;  4.7848873E-02;  2.5505286E+02;  0.0000000E+00; -2.2416821E-01;  1.0000000E+02;  0.0000000E+00;  9.0568604E+01;  3.9154641E-02;  0.0000000E+00;  8.6942315E-03;  0.0000000E+00;
  5.8239756E+00;  9.9999998E-03;  8.4019709E-01;449;  1.4946705E-01;  0.0000000E+00;  7.1340660E-03;  9.9877758E+00;  2.6374561E-01; -1.0868045E+00;3;  9.8746852E-04;  0.0000000E+00; -1.7120098E-03;  0.0000000E+00;  0.0000000E+00;  0.0000000E+00;1;  4.8756018E-02;  2.5366406E+02;  0.0000000E+00;  5.5436172E-02;  1.0000000E+02;  0.0000000E+00;  9.0451134E+01;  3.9897852E-02;  0.0000000E+00;  8.8581648E-03;  0.0000000E+00;
  5.7942309E+00;  9.9999998E-03;  1.0499347E+00;450;  1.4359464E-01;  0.0000000E+00;  9.0508135E-03;  9.9878359E+00;  2.6343593E-01; -1.0814531E+00;3;  2.9908724E-03;  0.0000000E+00; -1.1138727E-03;  0.0000000E+00;  0.0000000E+00;  0.0000000E+00;1;  4.9366105E-02;  2.5416245E+02;  0.0000000E+00; -2.1926992E-01;  1.0000000E+02;  0.0000000E+00;  9.0488052E+01;  4.0509287E-02;  0.0000000E+00;  8.8568181E-03;  0.0000000E+00;
  5.1540461E+00;  9.9999998E-03;  1.0620559E+00;495;  1.1331253E-01;  0.0000000E+00;  1.1983280E-02;  9.9871607E+00;  2.8022131E-01; -1.1415664E+00;3; -2.6048513E-03;  0.0000000E+00;  8.8323973E-04; -4.3160208E+08; -4.3160208E+08; -4.3160208E+08;1;  6.3743740E-02;  2.2964781E+02;  0.0000000E+00;  1.7071851E-03;  1.0000000E+02;  0.0000000E+00;  8.8499573E+01;  5.2280907E-02;  0.0000000E+00;  1.1462830E-02;  0.0000000E+00;
  4.8688731E+00;  9.9999998E-03;  1.0625250E+00;497;  9.9114180E-02;  0.0000000E+00;  1.1939984E-02;  9.9875574E+00;  2.7978137E-01; -1.1064368E+00;3; -8.3412800E-04;  0.0000000E+00;  1.0767723E-03; -4.3160208E+08; -4.3160208E+08; -4.3160208E+08;1;  6.2267564E-02;  2.3024207E+02;  0.0000000E+00;  4.4470713E-02;  1.0000000E+02;  0.0000000E+00;  8.8553841E+01;  5.1050663E-02;  0.0000000E+00;  1.1216900E-02;  0.0000000E+00;
  4.8680563E+00;  9.9999998E-03;  8.5132015E-01;499;  9.6686862E-02;  0.0000000E+00;  9.7387582E-03;  9.9876022E+00;  2.7947938E-01; -1.1024623E+00;3; -2.6464141E-03;  0.0000000E+00; -7.5509341E-04; -4.3160208E+08; -4.3160208E+08; -4.3160208E+08;1;  6.1999343E-02;  2.3065494E+02;  0.0000000E+00;  1.0073376E-02;  1.0000000E+02;  0.0000000E+00;  8.8587433E+01;  5.0869413E-02;  0.0000000E+00;  1.1129931E-02;  0.0000000E+00;
  5.1500492E+00;  9.9999998E-03;  8.5124540E-01;501;  1.1360246E-01;  0.0000000E+00;  9.9006072E-03;  9.9872370E+00;  2.7968159E-01; -1.1347843E+00;3; -2.2810232E-03;  0.0000000E+00; -1.1236107E-03; -4.3160208E+08; -4.3160208E+08; -4.3160208E+08;1;  6.3350253E-02;  2.3038290E+02;  0.0000000E+00; -6.9102366E-03;  1.0000000E+02;  0.0000000E+00;  8.8559273E+01;  5.1955849E-02;  0.0000000E+00;  1.1394402E-02;  0.0000000E+00;
  4.8727303E+00;  9.9999998E-03;  6.4019632E-01;503;  9.7571760E-02;  0.0000000E+00;  7.6563121E-03;  9.9876118E+00;  2.7916557E-01; -1.1016097E+00;3; -3.0045947E-03;  0.0000000E+00; -5.2110170E-04; -4.3160208E+08; -4.3160208E+08; -4.3160208E+08;1;  6.2001564E-02;  2.3107869E+02;  0.0000000E+00;  6.1508343E-03;  1.0000000E+02;  0.0000000E+00;  8.8623322E+01;  5.0807707E-02;  0.0000000E+00;  1.1193857E-02;  0.0000000E+00;
  5.1452909E+00;  9.9999998E-03;  6.4090914E-01;505;  1.1351634E-01;  0.0000000E+00;  7.9654101E-03;  9.9873657E+00;  2.7897975E-01; -1.1233389E+00;3; -1.9916070E-03;  0.0000000E+00; -5.7362631E-04; -4.3160208E+08; -4.3160208E+08; -4.3160208E+08;1;  6.2774621E-02;  2.3134221E+02;  0.0000000E+00; -1.6305143E-02;  1.0000000E+02;  0.0000000E+00;  8.8637321E+01;  5.1421940E-02;  0.0000000E+00;  1.1352679E-02;  0.0000000E+00;
  4.8815489E+00;  9.9999998E-03;  4.2822900E-01;507;  1.0032987E-01;  0.0000000E+00;  5.1448937E-03;  9.9876442E+00;  2.7886444E-01; -1.0987394E+00;3; -2.8552793E-03;  0.0000000E+00;  8.1374974E-04; -4.3160208E+08; -4.3160208E+08; -4.3160208E+08;1;  6.1864808E-02;  2.3147810E+02;  0.0000000E+00;  4.3905796E-03;  1.0000000E+02;  0.0000000E+00;  8.8662498E+01;  5.0745782E-02;  0.0000000E+00;  1.1119026E-02;  0.0000000E+00;
  4.8941665E+00;  9.9999998E-03;  2.1326898E-01;509;  1.0477710E-01;  0.0000000E+00;  2.4564376E-03;  9.9876509E+00;  2.7864188E-01; -1.0980921E+00;3; -2.1512201E-03;  0.0000000E+00;  2.6747133E-04; -4.3160208E+08; -4.3160208E+08; -4.3160208E+08;1;  6.1852239E-02;  2.3176419E+02;  0.0000000E+00;  1.1732202E-03;  1.0000000E+02;  0.0000000E+00;  8.8694351E+01;  5.0680500E-02;  0.0000000E+00;  1.1171740E-02;  0.0000000E+00;
  5.0218430E+00;  9.9999998E-03;  1.4182126E-07;510;  1.1181697E-01;  0.0000000E+00;  4.2144475E-07;  9.9877033E+00;  2.7830699E-01; -1.0933414E+00;3;  1.3511105E-03;  0.0000000E+00;  2.7920760E-06; -4.3160208E+08; -4.3160208E+08; -4.3160208E+08;1;  6.1588652E-02;  2.3233720E+02;  0.0000000E+00;  1.2865915E-11;  1.0000000E+02;  0.0000000E+00;  8.8689293E+01;  5.0404016E-02;  0.0000000E+00;  1.1184636E-02;  0.0000000E+00;
  5.1450233E+00;  9.9999998E-03;  4.3042162E-01;512;  1.1470494E-01;  0.0000000E+00;  5.6275944E-03;  9.9875507E+00;  2.7822989E-01; -1.1068575E+00;3; -1.2755073E-03;  0.0000000E+00;  5.3305645E-04; -4.3160208E+08; -4.3160208E+08; -4.3160208E+08;1;  6.1853688E-02;  2.3237769E+02;  0.0000000E+00; -6.2643448E-03;  1.0000000E+02;  0.0000000E+00;  8.8721786E+01;  5.0721057E-02;  0.0000000E+00;  1.1132631E-02;  0.0000000E+00;
  5.1483479E+00;  9.9999998E-03;  2.1867552E-01;514;  1.1773415E-01;  0.0000000E+00;  2.5212346E-03;  9.9877071E+00;  2.7760509E-01; -1.0929718E+00;3;  2.6006097E-04;  0.0000000E+00;  3.2073617E-04; -4.3160208E+08; -4.3160208E+08; -4.3160208E+08;1;  6.1060362E-02;  2.3326050E+02;  0.0000000E+00; -6.3258590E-04;  1.0000000E+02;  0.0000000E+00;  8.8786438E+01;  5.0063584E-02;  0.0000000E+00;  1.0996778E-02;  0.0000000E+00;
  5.2623796E+00;  9.9999998E-03;  1.1071879E-07;515;  1.1699333E-01;  0.0000000E+00;  2.9059697E-07;  9.9878626E+00;  2.7625808E-01; -1.0791117E+00;3;  5.5368431E-04;  0.0000000E+00;  6.7623259E-06; -4.3160208E+08; -4.3160208E+08; -4.3160208E+08;1;  5.9379511E-02;  2.3501898E+02;  0.0000000E+00;  2.3172186E-11;  1.0000000E+02;  0.0000000E+00;  8.8985199E+01;  4.8587549E-02;  0.0000000E+00;  1.0791960E-02;  0.0000000E+00;
  4.6097717E+00;  9.9999998E-03;  1.0607946E+00;517;  8.5878037E-02;  0.0000000E+00;  1.1451473E-02;  9.9878559E+00;  2.7650136E-01; -1.0803115E+00;3; -1.6294267E-03;  0.0000000E+00;  9.2207437E-04; -4.3160208E+08; -4.3160208E+08; -4.3160208E+08;1;  5.9164673E-02;  2.3471744E+02;  0.0000000E+00;  2.5963644E-02;  1.0000000E+02;  0.0000000E+00;  8.8942329E+01;  4.8507828E-02;  0.0000000E+00;  1.0656845E-02;  0.0000000E+00;
  4.6127110E+00;  9.9999998E-03;  8.4959948E-01;519;  8.5818537E-02;  0.0000000E+00;  9.3130004E-03;  9.9878149E+00;  2.7655804E-01; -1.0839623E+00;3; -2.3666807E-03;  0.0000000E+00; -4.0520306E-04; -4.3160208E+08; -4.3160208E+08; -4.3160208E+08;1;  5.9356540E-02;  2.3463846E+02;  0.0000000E+00;  9.8383818E-03;  1.0000000E+02;  0.0000000E+00;  8.8935356E+01;  4.8726015E-02;  0.0000000E+00;  1.0630528E-02;  0.0000000E+00;
  4.7643867E+00;  9.9999998E-03;  1.5102293E-07;521;  9.8875426E-02;  0.0000000E+00;  3.4518288E-07;  9.9876194E+00;  2.7739599E-01; -1.1010494E+00;3; -4.9552682E-04;  0.0000000E+00; -1.9818981E-07; -4.3160208E+08; -4.3160208E+08; -4.3160208E+08;1;  6.1512876E-02;  2.3363895E+02;  0.0000000E+00; -7.9811911E-13;  1.0000000E+02;  0.0000000E+00;  8.8775246E+01;  5.0367203E-02;  0.0000000E+00;  1.1145675E-02;  0.0000000E+00;
  4.6179924E+00;  9.9999998E-03;  6.3820916E-01;522;  8.6921751E-02;  0.0000000E+00;  7.2393841E-03;  9.9877462E+00;  2.7665871E-01; -1.0900463E+00;3; -2.6422541E-03;  0.0000000E+00; -1.0793612E-04; -4.3160208E+08; -4.3160208E+08; -4.3160208E+08;1;  5.9772663E-02;  2.3449316E+02;  0.0000000E+00;  3.2734182E-03;  1.0000000E+02;  0.0000000E+00;  8.8924919E+01;  4.9028113E-02;  0.0000000E+00;  1.0744548E-02;  0.0000000E+00;
  4.7423491E+00;  9.9999998E-03;  4.2580849E-01;524;  8.9197092E-02;  0.0000000E+00;  4.7657080E-03;  9.9877129E+00;  2.7715465E-01; -1.0927604E+00;3; -3.0016934E-03;  0.0000000E+00;  4.0700572E-04; -4.3160208E+08; -4.3160208E+08; -4.3160208E+08;1;  6.0917702E-02;  2.3380319E+02;  0.0000000E+00;  2.6882004E-03;  1.0000000E+02;  0.0000000E+00;  8.8867973E+01;  4.9998540E-02;  0.0000000E+00;  1.0919160E-02;  0.0000000E+00;
  4.7510610E+00;  9.9999998E-03;  2.0966794E-01;526;  9.1968440E-02;  0.0000000E+00;  1.9037689E-03;  9.9876652E+00;  2.7718249E-01; -1.0969877E+00;3; -2.7817569E-03;  0.0000000E+00; -6.6618249E-04; -4.3160208E+08; -4.3160208E+08; -4.3160208E+08;1;  6.1207578E-02;  2.3374857E+02;  0.0000000E+00;  1.0114148E-03;  1.0000000E+02;  0.0000000E+00;  8.8870613E+01;  5.0173827E-02;  0.0000000E+00;  1.1033750E-02;  0.0000000E+00;
  5.4698687E+00;  9.9999998E-03;  1.0582464E+00;528;  1.4044909E-01;  0.0000000E+00;  1.1115909E-02;  9.9870338E+00;  2.7577257E-01; -1.1527965E+00;3;  6.2318478E-04;  0.0000000E+00;  1.7609364E-04; -4.3160208E+08; -4.3160208E+08; -4.3160208E+08;1;  6.0475461E-02;  2.3575479E+02;  0.0000000E+00; -2.8912768E-01;  1.0000000E+02;  0.0000000E+00;  8.9010452E+01;  4.9607158E-02;  0.0000000E+00;  1.0868304E-02;  0.0000000E+00;
  5.4438095E+00;  9.9999998E-03;  8.4767854E-01;530;  1.2791991E-01;  0.0000000E+00;  9.2291692E-03;  9.9872284E+00;  2.7468860E-01; -1.1354704E+00;3; -1.7106612E-03;  0.0000000E+00; -1.8132797E-03; -4.3160208E+08; -4.3160208E+08; -4.3160208E+08;1;  5.9977911E-02;  2.3729398E+02;  0.0000000E+00;  1.5205032E-01;  1.0000000E+02;  0.0000000E+00;  8.9133682E+01;  4.9152177E-02;  0.0000000E+00;  1.0825736E-02;  0.0000000E+00;
  5.4439192E+00;  9.9999998E-03;  6.3804001E-01;532;  1.3668250E-01;  0.0000000E+00;  7.4903141E-03;  9.9874182E+00;  2.7378938E-01; -1.1186187E+00;3;  1.0790839E-03;  0.0000000E+00; -2.0268609E-04; -4.3160208E+08; -4.3160208E+08; -4.3160208E+08;1;  5.9123293E-02;  2.3858551E+02;  0.0000000E+00; -2.9960033E-02;  1.0000000E+02;  0.0000000E+00;  8.9237206E+01;  4.8383914E-02;  0.0000000E+00;  1.0739377E-02;  0.0000000E+00;
  5.4311519E+00;  9.9999998E-03;  4.2899939E-01;534;  1.3367575E-01;  0.0000000E+00;  5.8746254E-03;  9.9876652E+00;  2.7292290E-01; -1.0966282E+00;3; -1.9591043E-04;  0.0000000E+00; -1.0566233E-03; -4.3160208E+08; -4.3160208E+08; -4.3160208E+08;1;  5.8160856E-02;  2.3987880E+02;  0.0000000E+00; -6.9052346E-02;  1.0000000E+02;  0.0000000E+00;  8.9323639E+01;  4.7554359E-02;  0.0000000E+00;  1.0606497E-02;  0.0000000E+00;
  4.4886742E+00;  9.9999998E-03;  1.2324914E-07;535;  7.8722507E-02;  0.0000000E+00;  1.8294324E-07;  9.9875250E+00;  2.7437747E-01; -1.1102171E+00;3; -3.4302722E-03;  0.0000000E+00; -1.7610180E-06; -4.3160208E+08; -4.3160208E+08; -4.3160208E+08;1;  5.9417181E-02;  2.3776984E+02;  0.0000000E+00; -3.1867310E-12;  1.0000000E+02;  0.0000000E+00;  8.9160942E+01;  4.8740074E-02;  0.0000000E+00;  1.0677109E-02;  0.0000000E+00;
  4.4861870E+00;  9.9999998E-03;  2.0936301E-01;537;  7.7862397E-02;  0.0000000E+00;  2.6573548E-03;  9.9875574E+00;  2.7417037E-01; -1.1073107E+00;3; -3.1117003E-03;  0.0000000E+00; -2.4574823E-04; -4.3160208E+08; -4.3160208E+08; -4.3160208E+08;1;  5.9229754E-02;  2.3789586E+02;  0.0000000E+00;  6.3221226E-04;  1.0000000E+02;  0.0000000E+00;  8.9249573E+01;  4.8589971E-02;  0.0000000E+00;  1.0639785E-02;  0.0000000E+00;
  5.4099483E+00;  9.9999998E-03;  2.2027099E-01;543;  1.2774016E-01;  0.0000000E+00;  3.4184882E-03;  9.9878941E+00;  2.7234176E-01; -1.0762813E+00;3;  3.2778017E-04;  0.0000000E+00; -5.9200611E-06; -4.3160208E+08; -4.3160208E+08; -4.3160208E+08;1;  5.7408109E-02;  2.4074803E+02;  0.0000000E+00; -2.9222233E-02;  1.0000000E+02;  0.0000000E+00;  8.9384346E+01;  4.6998676E-02;  0.0000000E+00;  1.0409433E-02;  0.0000000E+00;
  5.5174279E+00;  9.9999998E-03; -1.1870851E-07;548;  1.2821588E-01;  0.0000000E+00; -2.7633234E-07;  9.9881277E+00;  2.7038279E-01; -1.0554988E+00;3;  2.7809052E-03;  0.0000000E+00;  9.9160243E-06; -4.3160208E+08; -4.3160208E+08; -4.3160208E+08;1;  5.4536119E-02;  2.4331474E+02;  0.0000000E+00;  1.5386711E-11;  1.0000000E+02;  0.0000000E+00;  8.9731133E+01;  4.4681869E-02;  0.0000000E+00;  9.8542506E-03;  0.0000000E+00;
  5.6964183E+00;  9.9999998E-03;  8.4151649E-01;561;  1.4399920E-01;  0.0000000E+00;  7.9094227E-03;  9.9875879E+00;  2.6573417E-01; -1.1035006E+00;3;  4.5345835E-03;  0.0000000E+00; -2.2443759E-03; -4.3160208E+08; -4.3160208E+08; -4.3160208E+08;1;  5.3010266E-02;  2.5055528E+02;  0.0000000E+00;  9.0029933E-02;  1.0000000E+02;  0.0000000E+00;  9.0205193E+01;  4.3395933E-02;  0.0000000E+00;  9.6143335E-03;  0.0000000E+00;
  5.6781473E+00;  9.9999998E-03;  1.0517030E+00;563;  1.4369462E-01;  0.0000000E+00;  9.9057574E-03;  9.9873686E+00;  2.6600659E-01; -1.1230022E+00;3;  2.9356969E-03;  0.0000000E+00; -7.8415312E-04; -4.3160208E+08; -4.3160208E+08; -4.3160208E+08;1;  5.4417863E-02;  2.5012317E+02;  0.0000000E+00; -2.2970133E-01;  1.0000000E+02;  0.0000000E+00;  9.0173241E+01;  4.4658292E-02;  0.0000000E+00;  9.7595723E-03;  0.0000000E+00;
  5.7115121E+00;  9.9999998E-03;  6.3181007E-01;565;  1.5166432E-01;  0.0000000E+00;  6.0300981E-03;  9.9878130E+00;  2.6465812E-01; -1.0834692E+00;3; -1.5534309E-04;  0.0000000E+00; -8.5437670E-04; -4.3160208E+08; -4.3160208E+08; -4.3160208E+08;1;  5.1694710E-02;  2.5221588E+02;  0.0000000E+00; -1.9150062E-01;  1.0000000E+02;  0.0000000E+00;  9.0344688E+01;  4.2301215E-02;  0.0000000E+00;  9.3934936E-03;  0.0000000E+00;
  5.7324677E+00;  9.9999998E-03;  4.2275980E-01;571;  1.5344998E-01;  0.0000000E+00;  4.3307990E-03;  9.9881964E+00;  2.6322675E-01; -1.0493948E+00;3; -7.3580211E-04;  0.0000000E+00;  2.5064044E-04; -4.3160208E+08; -4.3160208E+08; -4.3160208E+08;1;  4.9554437E-02;  2.5451447E+02;  0.0000000E+00; -7.8952678E-02;  1.0000000E+02;  0.0000000E+00;  9.0510330E+01;  4.0437490E-02;  0.0000000E+00;  9.1169486E-03;  0.0000000E+00;
  5.7073216E+00;  9.9999998E-03;  2.1407630E-01;579;  1.4252767E-01;  0.0000000E+00;  2.5293075E-03;  9.9883909E+00;  2.6222894E-01; -1.0321202E+00;3; -2.1690889E-03;  0.0000000E+00; -9.8810589E-04; -4.3160208E+08; -4.3160208E+08; -4.3160208E+08;1;  4.9352929E-02;  2.5614319E+02;  0.0000000E+00; -6.5464035E-02;  1.0000000E+02;  0.0000000E+00;  9.0623154E+01;  4.0358383E-02;  0.0000000E+00;  8.9945477E-03;  0.0000000E+00;
  5.7900782E+00;  9.9999998E-03; -1.6387928E-07;581;  1.3556968E-01;  0.0000000E+00; -9.5469477E-07;  9.9885521E+00;  2.6051754E-01; -1.0177573E+00;3; -5.7860813E-04;  0.0000000E+00;  1.1076278E-05; -4.3160208E+08; -4.3160208E+08; -4.3160208E+08;1;  4.6600785E-02;  2.5876379E+02;  0.0000000E+00;  2.5713810E-11;  1.0000000E+02;  0.0000000E+00;  9.0889824E+01;  3.8195483E-02;  0.0000000E+00;  8.4053017E-03;  0.0000000E+00;
  5.9131088E+00;  9.9999998E-03;  1.0433033E+00;598;  1.4700425E-01;  0.0000000E+00;  8.1410185E-03;  9.9882421E+00;  2.5409955E-01; -1.0453106E+00;3;  2.3978145E-03;  0.0000000E+00; -2.0538936E-03; -4.3160208E+08; -4.3160208E+08; -4.3160208E+08;1;  4.4228751E-02;  2.6966827E+02;  0.0000000E+00;  1.3551584E-01;  1.0000000E+02;  0.0000000E+00;  9.1673195E+01;  3.6265936E-02;  0.0000000E+00;  7.9628164E-03;  0.0000000E+00;
  5.9283643E+00;  9.9999998E-03; -6.0881933E-07;456;  1.4386716E-01;  0.0000000E+00; -9.1273353E-07;  9.9888535E+00;  2.5115731E-01; -9.9099416E-01;3; -4.0101279E-03;  0.0000000E+00;  9.8163146E-06;  0.0000000E+00;  0.0000000E+00;  0.0000000E+00;1;  4.1551422E-02;  2.7499289E+02;  0.0000000E+00;  2.5344239E-11;  1.0000000E+02;  0.0000000E+00;  9.2024979E+01;  3.3943348E-02;  0.0000000E+00;  7.6080742E-03;  0.0000000E+00;
  5.9422431E+00;  9.9999998E-03;  8.3456755E-01;591;  1.5339056E-01;  0.0000000E+00;  6.3811908E-03;  9.9879017E+00;  2.5577563E-01; -1.0756214E+00;3;  1.5867417E-03;  0.0000000E+00; -1.7344267E-03; -4.3160208E+08; -4.3160208E+08; -4.3160208E+08;1;  4.4615224E-02;  2.6674847E+02;  0.0000000E+00; -8.0960453E-02;  1.0000000E+02;  0.0000000E+00;  9.1461403E+01;  3.6482602E-02;  0.0000000E+00;  8.1326226E-03;  0.0000000E+00;
  5.9427724E+00;  9.9999998E-03;  2.0643060E-01;604;  1.4885971E-01;  0.0000000E+00;  4.9888487E-05;  9.9888449E+00;  2.5167638E-01; -9.9173588E-01;3; -7.9338730E-04;  0.0000000E+00;  1.6105163E-04; -4.3160208E+08; -4.3160208E+08; -4.3160208E+08;1;  4.1153789E-02;  2.7384048E+02;  0.0000000E+00; -1.9670960E-01;  1.0000000E+02;  0.0000000E+00;  9.2031837E+01;  3.3762254E-02;  0.0000000E+00;  7.3915329E-03;  0.0000000E+00;
  5.9486899E+00;  9.9999998E-03;  6.2500781E-01;596;  1.5811330E-01;  0.0000000E+00;  4.4395425E-03;  9.9879789E+00;  2.5448555E-01; -1.0687325E+00;3;  3.1019049E-03;  0.0000000E+00; -1.5535316E-03; -4.3160208E+08; -4.3160208E+08; -4.3160208E+08;1;  4.4118457E-02;  2.6891833E+02;  0.0000000E+00; -3.7649891E-01;  1.0000000E+02;  0.0000000E+00;  9.1646248E+01;  3.6256146E-02;  0.0000000E+00;  7.8623090E-03;  0.0000000E+00;
  5.9581099E+00;  9.9999998E-03;  4.1666284E-01;600;  1.5976425E-01;  0.0000000E+00;  3.0769794E-03;  9.9882841E+00;  2.5333434E-01; -1.0416007E+00;3;  2.9064205E-03;  0.0000000E+00;  7.6491327E-04; -4.3160208E+08; -4.3160208E+08; -4.3160208E+08;1;  4.2734414E-02;  2.7095377E+02;  0.0000000E+00; -4.1415715E-01;  1.0000000E+02;  0.0000000E+00;  9.1792168E+01;  3.4925144E-02;  0.0000000E+00;  7.8092683E-03;  0.0000000E+00;
  6.0345693E+00;  9.9999998E-03;  1.0423591E+00;461;  1.5312240E-01;  0.0000000E+00;  7.4115316E-03;  9.9881220E+00;  2.5270402E-01; -1.0560136E+00;3;  4.4379095E-03;  0.0000000E+00; -1.4403763E-03;  0.0000000E+00;  0.0000000E+00;  0.0000000E+00;1;  4.0722914E-02;  2.7208707E+02;  0.0000000E+00;  1.5446223E-01;  1.0000000E+02;  0.0000000E+00;  9.1862000E+01;  3.3419177E-02;  0.0000000E+00;  7.3037385E-03;  0.0000000E+00;
  6.0485530E+00;  9.9999998E-03;  2.8291382E-07;605;  1.5088096E-01;  0.0000000E+00;  2.4334605E-08;  9.9889822E+00;  2.4999103E-01; -9.7954684E-01;3;  1.7128000E-03;  0.0000000E+00;  1.2300559E-05; -4.3160208E+08; -4.3160208E+08; -4.3160208E+08;1;  3.7352718E-02;  2.7716162E+02;  0.0000000E+00;  4.1286207E-11;  1.0000000E+02;  0.0000000E+00;  9.2161858E+01;  3.0427739E-02;  0.0000000E+00;  6.9249813E-03;  0.0000000E+00;
  6.0605249E+00;  9.9999998E-03;  8.3341628E-01;460;  1.5553722E-01;  0.0000000E+00;  5.5732611E-03;  9.9881315E+00;  2.5398546E-01; -1.0551655E+00;3;  3.9999895E-03;  0.0000000E+00; -2.0526829E-03;  0.0000000E+00;  0.0000000E+00;  0.0000000E+00;1;  3.9782543E-02;  2.6984650E+02;  0.0000000E+00; -3.6606342E-02;  1.0000000E+02;  0.0000000E+00;  9.1694160E+01;  3.2545879E-02;  0.0000000E+00;  7.2366623E-03;  0.0000000E+00;
  6.0665669E+00;  9.9999998E-03;  6.2400049E-01;459;  1.5931666E-01;  0.0000000E+00;  4.2665764E-03;  9.9878635E+00;  2.5309852E-01; -1.0790117E+00;3;  7.4974382E-03;  0.0000000E+00; -4.6525840E-03;  0.0000000E+00;  0.0000000E+00;  0.0000000E+00;1;  4.0467173E-02;  2.7133798E+02;  0.0000000E+00; -3.4368971E-01;  1.0000000E+02;  0.0000000E+00;  9.1823898E+01;  3.2923464E-02;  0.0000000E+00;  7.5437082E-03;  0.0000000E+00;
  6.0613875E+00;  9.9999998E-03;  2.0603222E-01;457;  1.5266429E-01;  0.0000000E+00; -1.3901212E-04;  9.9889679E+00;  2.5043419E-01; -9.8081857E-01;3;  1.0528143E-03;  0.0000000E+00;  7.0310198E-06;  0.0000000E+00;  0.0000000E+00;  0.0000000E+00;1;  3.6982540E-02;  2.7612500E+02;  0.0000000E+00; -1.8899320E-01;  1.0000000E+02;  0.0000000E+00;  9.2182144E+01;  3.0286845E-02;  0.0000000E+00;  6.6956938E-03;  0.0000000E+00;
  6.0747967E+00;  9.9999998E-03;  4.1587850E-01;458;  1.6034135E-01;  0.0000000E+00;  2.1953008E-03;  9.9882469E+00;  2.5213289E-01; -1.0448850E+00;3;  4.1760253E-03;  0.0000000E+00; -2.8508601E-03;  0.0000000E+00;  0.0000000E+00;  0.0000000E+00;1;  3.8887225E-02;  2.7308334E+02;  0.0000000E+00; -3.9347857E-01;  1.0000000E+02;  0.0000000E+00;  9.1945984E+01;  3.1937264E-02;  0.0000000E+00;  6.9499603E-03;  0.0000000E+00;
  6.2616539E+00;  9.9999998E-03;  1.0343801E+00;472;  1.5770371E-01;  0.0000000E+00;  6.0259909E-03;  9.9879847E+00;  2.4210742E-01; -1.0682003E+00;3;  3.7653388E-03;  0.0000000E+00; -1.0394905E-02;  0.0000000E+00;  0.0000000E+00;  0.0000000E+00;1;  3.2212101E-02;  2.9182040E+02;  0.0000000E+00;  4.1669160E-01;  1.0000000E+02;  0.0000000E+00;  9.3309784E+01;  2.6032126E-02;  0.0000000E+00;  6.1799772E-03;  0.0000000E+00;
  6.2685461E+00;  9.9999998E-03;  8.2540375E-01;471;  1.5832898E-01;  0.0000000E+00;  3.9789961E-03;  9.9887419E+00;  2.4148721E-01; -1.0009012E+00;3; -3.1472242E-03;  0.0000000E+00;  7.4353581E-03;  0.0000000E+00;  0.0000000E+00;  0.0000000E+00;1;  3.0397613E-02;  2.9309442E+02;  0.0000000E+00;  1.2547308E-01;  1.0000000E+02;  0.0000000E+00;  9.3395660E+01;  2.5041774E-02;  0.0000000E+00;  5.3558387E-03;  0.0000000E+00;
  6.2803001E+00;  9.9999998E-03;  2.0237653E-01;468;  1.6078860E-01;  0.0000000E+00;  1.3838047E-03;  9.9881516E+00;  2.4104454E-01; -1.0533627E+00;3;  4.9892133E-03;  0.0000000E+00;  3.8083916E-04;  0.0000000E+00;  0.0000000E+00;  0.0000000E+00;1;  3.1420071E-02;  2.9403644E+02;  0.0000000E+00; -4.5096955E-01;  1.0000000E+02;  0.0000000E+00;  9.3427971E+01;  2.5533210E-02;  0.0000000E+00;  5.8868616E-03;  0.0000000E+00;
  6.2824445E+00;  9.9999998E-03;  4.0959582E-01;469;  1.6180214E-01;  0.0000000E+00;  1.6637075E-03;  9.9878588E+00;  2.4190378E-01; -1.0794344E+00;3;  3.8844037E-03;  0.0000000E+00;  1.2795418E-04;  0.0000000E+00;  0.0000000E+00;  0.0000000E+00;1;  3.2070540E-02;  2.9226318E+02;  0.0000000E+00; -9.6902311E-01;  1.0000000E+02;  0.0000000E+00;  9.3325706E+01;  2.6248585E-02;  0.0000000E+00;  5.8219549E-03;  0.0000000E+00;
  6.2814951E+00;  9.9999998E-03;  6.1755109E-01;470;  1.6038322E-01;  0.0000000E+00;  3.3336806E-03;  9.9879398E+00;  2.4268100E-01; -1.0722277E+00;3;  4.4408659E-03;  0.0000000E+00;  2.6538229E-04;  0.0000000E+00;  0.0000000E+00;  0.0000000E+00;1;  3.1993940E-02;  2.9071140E+02;  0.0000000E+00; -5.8505458E-01;  1.0000000E+02;  0.0000000E+00;  9.3224213E+01;  2.5658842E-02;  0.0000000E+00;  6.3350978E-03;  0.0000000E+00;
  6.1684380E+00;  9.9999998E-03; -4.9894589E-07;467;  1.5683116E-01;  0.0000000E+00; -1.5460461E-06;  9.9887791E+00;  2.4149680E-01; -9.9761623E-01;3; -2.6919057E-03;  0.0000000E+00; -2.5689951E-06;  0.0000000E+00;  0.0000000E+00;  0.0000000E+00;1;  3.3842944E-02;  2.9317636E+02;  0.0000000E+00;  1.0028185E-10;  1.0000000E+02;  0.0000000E+00;  9.3362770E+01;  2.7579263E-02;  0.0000000E+00;  6.2636812E-03;  0.0000000E+00;
  6.4258003E+00;  9.9999998E-03;  4.0182111E-01;479;  1.6134895E-01;  0.0000000E+00;  9.6374890E-04;  9.9880266E+00;  4.5830342E-01; -1.0644906E+00;3;  4.4288547E-03;  0.0000000E+00;  7.0202863E-04;  0.0000000E+00;  0.0000000E+00;  0.0000000E+00;0;  2.5538564E-02;  7.9837982E+01;  0.0000000E+00;  8.4707923E-02;  1.0000000E+02;  0.0000000E+00;  9.5181175E+01;  2.0732161E-02;  0.0000000E+00;  4.8064021E-03;  0.0000000E+00;
  6.4240956E+00;  9.9999998E-03;  6.0941905E-01;480;  1.5986837E-01;  0.0000000E+00;  1.8590547E-03;  9.9888620E+00;  4.5796546E-01; -9.9019659E-01;3;  4.1253334E-03;  0.0000000E+00; -1.1156450E-03;  0.0000000E+00;  0.0000000E+00;  0.0000000E+00;0;  2.3730138E-02;  7.9928596E+01;  0.0000000E+00; -4.3362703E-02;  1.0000000E+02;  0.0000000E+00;  9.5227478E+01;  1.9173618E-02;  0.0000000E+00;  4.5565194E-03;  0.0000000E+00;
  6.4314561E+00;  9.9999998E-03;  8.1922793E-01;481;  1.6158082E-01;  0.0000000E+00;  3.4289975E-03;  9.9874554E+00;  4.6535444E-01; -1.1152562E+00;3;  9.3005942E-03;  0.0000000E+00; -5.8258981E-03;  0.0000000E+00;  0.0000000E+00;  0.0000000E+00;0;  2.6332196E-02;  7.7846031E+01;  0.0000000E+00; -6.5996356E-02;  1.0000000E+02;  0.0000000E+00;  9.4672394E+01;  2.1467140E-02;  0.0000000E+00;  4.8650554E-03;  0.0000000E+00;
  6.4367194E+00;  9.9999998E-03;  1.9922109E-01;478;  1.6156061E-01;  0.0000000E+00; -1.4411783E-04;  9.9878330E+00;  4.6329609E-01; -1.0817127E+00;3;  3.3004871E-03;  0.0000000E+00; -4.6579167E-05;  0.0000000E+00;  0.0000000E+00;  0.0000000E+00;0;  2.5356255E-02;  7.8461502E+01;  0.0000000E+00;  3.7420593E-02;  1.0000000E+02;  0.0000000E+00;  9.4772621E+01;  2.0677218E-02;  0.0000000E+00;  4.6790373E-03;  0.0000000E+00;
  6.4420400E+00;  9.9999998E-03;  1.8751733E-07;477;  1.6239569E-01;  0.0000000E+00; -2.0335756E-06;  9.9873343E+00;  4.6562809E-01; -1.1260664E+00;3;  2.9701646E-03;  0.0000000E+00; -1.1981931E-05;  0.0000000E+00;  0.0000000E+00;  0.0000000E+00;0;  2.6153926E-02;  7.7828590E+01;  0.0000000E+00;  8.4255398E-12;  1.0000000E+02;  0.0000000E+00;  9.4581482E+01;  2.1331854E-02;  0.0000000E+00;  4.8220712E-03;  0.0000000E+00;
  6.6374798E+00;  9.9999998E-03;  3.9886758E-01;487;  1.6173361E-01;  0.0000000E+00; -3.6112603E-04;  9.9878283E+00;  4.4005135E-01; -1.0821364E+00;3;  4.2172512E-03;  0.0000000E+00; -4.3072319E-04;  0.0000000E+00;  0.0000000E+00;  0.0000000E+00;0;  1.5893655E-02;  8.5339508E+01;  0.0000000E+00; -1.4446564E-01;  1.0000000E+02;  0.0000000E+00;  9.6585258E+01;  1.2978851E-02;  0.0000000E+00;  2.9148038E-03;  0.0000000E+00;
  6.6479883E+00;  9.9999998E-03;  6.0823202E-01;488;  1.6504708E-01;  0.0000000E+00;  7.8730175E-04;  9.9835958E+00;  4.4983694E-01; -1.4584280E+00;3; -3.3994401E-03;  0.0000000E+00;  9.1023790E-04;  0.0000000E+00;  0.0000000E+00;  0.0000000E+00;0;  2.0707931E-02;  8.2237434E+01;  0.0000000E+00; -1.0394997E-01;  1.0000000E+02;  0.0000000E+00;  9.5840729E+01;  1.7862638E-02;  0.0000000E+00;  2.8452927E-03;  0.0000000E+00;
  6.6464419E+00;  9.9999998E-03;  1.9679180E-01;486;  1.6319555E-01;  0.0000000E+00; -7.9553883E-04;  9.9855814E+00;  4.4594628E-01; -1.2818608E+00;3;  3.9224965E-03;  0.0000000E+00; -1.1070208E-04;  0.0000000E+00;  0.0000000E+00;  0.0000000E+00;0;  1.8312730E-02;  8.3519661E+01;  0.0000000E+00; -2.1505887E-02;  1.0000000E+02;  0.0000000E+00;  9.6059448E+01;  1.4908926E-02;  0.0000000E+00;  3.4038045E-03;  0.0000000E+00;
  6.6528091E+00;  9.9999998E-03;  1.3367620E-07;485;  1.6459735E-01;  0.0000000E+00; -2.6231512E-06;  9.9834538E+00;  4.5041105E-01; -1.4710399E+00;3;  4.8934286E-03;  0.0000000E+00;  1.1313707E-05;  0.0000000E+00;  0.0000000E+00;  0.0000000E+00;0;  2.0592170E-02;  8.2160255E+01;  0.0000000E+00; -1.3739961E-11;  1.0000000E+02;  0.0000000E+00;  9.5685005E+01;  1.6777884E-02;  0.0000000E+00;  3.8142852E-03;  0.0000000E+00;
  6.8581505E+00;  9.9999998E-03; -6.1171778E-07;491;  1.6585438E-01;  0.0000000E+00; -4.0701998E-06;  9.9619837E+00;  4.3536699E-01; -3.3798411E+00;3;  6.2726103E-03;  0.0000000E+00;  7.3154457E-05;  0.0000000E+00;  0.0000000E+00;  0.0000000E+00;0;  1.5499920E-02;  8.6720291E+01;  0.0000000E+00; -2.8493261E-10;  1.0000000E+02;  0.0000000E+00;  9.6637924E+01;  1.2518954E-02;  0.0000000E+00;  2.9809661E-03;  0.0000000E+00;
  6.8511081E+00;  9.9999998E-03;  1.9522628E-01;492;  1.6479376E-01;  0.0000000E+00; -7.6191116E-04;  9.9695148E+00;  4.2985401E-01; -2.7102954E+00;3;  5.9944876E-03;  0.0000000E+00; -6.9104601E-04;  0.0000000E+00;  0.0000000E+00;  0.0000000E+00;0;  1.3490070E-02;  8.8566780E+01;  0.0000000E+00; -1.3943960E-01;  1.0000000E+02;  0.0000000E+00;  9.7198540E+01;  1.0964614E-02;  0.0000000E+00;  2.5254558E-03;  0.0000000E+00;
  6.8541322E+00;  9.9999998E-03;  4.0130445E-01;493;  1.6515191E-01;  0.0000000E+00;  7.3457614E-04;  9.9641237E+00;  4.3382221E-01; -3.1895490E+00;3;  1.9130725E-02;  0.0000000E+00;  3.4772959E-03;  0.0000000E+00;  0.0000000E+00;  0.0000000E+00;0;  1.4997501E-02;  8.7120506E+01;  0.0000000E+00; -1.6780715E-01;  1.0000000E+02;  0.0000000E+00;  9.6917023E+01;  1.1755407E-02;  0.0000000E+00;  3.2420936E-03;  0.0000000E+00;
  6.1653581E+00;  9.9999998E-03;  6.1815935E-01;616;  1.6060470E-01;  0.0000000E+00;  3.5267745E-03;  9.9878702E+00;  2.4314480E-01; -1.0783751E+00;3;  3.1085934E-03;  0.0000000E+00;  5.0794883E-03; -4.3160208E+08; -4.3160208E+08; -4.3160208E+08;1;  3.6862623E-02;  2.8980096E+02;  0.0000000E+00; -6.0298836E-01;  1.0000000E+02;  0.0000000E+00;  9.3159576E+01;  3.0141350E-02;  0.0000000E+00;  6.7212735E-03;  0.0000000E+00;
  6.1448584E+00;  9.9999998E-03;  1.0344068E+00;620;  1.5562682E-01;  0.0000000E+00;  6.4155185E-03;  9.9883375E+00;  2.4242434E-01; -1.0368299E+00;3;  2.0878641E-03;  0.0000000E+00;  2.6132364E-03; -4.3160208E+08; -4.3160208E+08; -4.3160208E+08;1;  3.6029294E-02;  2.9123251E+02;  0.0000000E+00;  4.0151876E-01;  1.0000000E+02;  0.0000000E+00;  9.3260399E+01;  2.9786564E-02;  0.0000000E+00;  6.2427288E-03;  0.0000000E+00;
  6.1661568E+00;  9.9999998E-03;  4.1019651E-01;622;  1.6149037E-01;  0.0000000E+00;  1.9372000E-03;  9.9880610E+00;  2.4215217E-01; -1.0614179E+00;3;  3.3215093E-03;  0.0000000E+00;  8.7532692E-04; -4.3160208E+08; -4.3160208E+08; -4.3160208E+08;1;  3.6148999E-02;  2.9175946E+02;  0.0000000E+00; -9.7400385E-01;  1.0000000E+02;  0.0000000E+00;  9.3299393E+01;  2.9694935E-02;  0.0000000E+00;  6.4540640E-03;  0.0000000E+00;
  6.1520114E+00;  9.9999998E-03;  8.2555330E-01;626;  1.5636176E-01;  0.0000000E+00;  5.1706079E-03;  9.9883156E+00;  2.4175370E-01; -1.0387906E+00;3;  5.6515397E-03;  0.0000000E+00; -5.3394167E-03; -4.3160208E+08; -4.3160208E+08; -4.3160208E+08;1;  3.5815906E-02;  2.9258936E+02;  0.0000000E+00;  1.2507744E-01;  1.0000000E+02;  0.0000000E+00;  9.3342560E+01;  2.8913159E-02;  0.0000000E+00;  6.9027478E-03;  0.0000000E+00;
  6.2847600E+00;  9.9999998E-03; -4.0030625E-07;627;  1.5805051E-01;  0.0000000E+00; -1.1541737E-06;  9.9887705E+00;  2.4129955E-01; -9.9835753E-01;3;  4.3678852E-03;  0.0000000E+00; -1.1133961E-05; -4.3160208E+08; -4.3160208E+08; -4.3160208E+08;1;  2.9590156E-02;  2.9358841E+02;  0.0000000E+00;  1.3106831E-10;  1.0000000E+02;  0.0000000E+00;  9.3384148E+01;  2.3951227E-02;  0.0000000E+00;  5.6389286E-03;  0.0000000E+00;
  6.1640525E+00;  9.9999998E-03;  2.0265032E-01;629;  1.6050285E-01;  0.0000000E+00;  1.4607477E-03;  9.9883347E+00;  2.4118356E-01; -1.0370948E+00;3;  3.1740335E-03;  0.0000000E+00; -1.9547151E-04; -4.3160208E+08; -4.3160208E+08; -4.3160208E+08;1;  3.5391945E-02;  2.9375699E+02;  0.0000000E+00; -4.5172763E-01;  1.0000000E+02;  0.0000000E+00;  9.3412491E+01;  2.8915076E-02;  0.0000000E+00;  6.4768712E-03;  0.0000000E+00;
