TimeStep;Np;Nbound;Nfixed;Nmoving;Nfloat;Nfluid
1.50005;494;165;165;0;0;329

Pos.x;Pos.y;Pos.z;Idp;Vel.x;Vel.y;Vel.z;Rhop;Mass;Press;Type;Acec.x;Acec.y;Acec.z;AceVisc.x;AceVisc.y;AceVisc.z;CellOffSpring;GradVel;Qfxx;Qfxy;Qfxz;Qfyy;Qfyz;Qfzz;StrainDot.x;StrainDot.y;StrainDot.z;VonMises3D;
 -1.0000000E+00;  9.9999998E-03; -2.0000000E+00;0;  0.0000000E+00;  0.0000000E+00;  0.0000000E+00;  1.0000000E+01;  4.0000001E-01;  0.0000000E+00;0;  0.0000000E+00;  0.0000000E+00;  0.0000000E+00;  0.0000000E+00;  0.0000000E+00;  0.0000000E+00;0; -7.3801414E-07;  1.0000000E+02;  0.0000000E+00;  0.0000000E+00;  1.0000000E+02;  0.0000000E+00;  1.0000000E+02; -7.5174154E-07;  0.0000000E+00;  1.3727399E-08;  0.0000000E+00;
 -8.0000001E-01;  9.9999998E-03; -2.0000000E+00;21;  0.0000000E+00;  0.0000000E+00;  0.0000000E+00;  1.0000000E+01;  4.0000001E-01;  0.0000000E+00;0;  0.0000000E+00;  0.0000000E+00;  0.0000000E+00;  0.0000000E+00;  0.0000000E+00;  0.0000000E+00;0; -2.0629363E-06;  1.0000000E+02;  0.0000000E+00;  0.0000000E+00;  1.0000000E+02;  0.0000000E+00;  1.0000000E+02; -2.2058182E-06;  0.0000000E+00;  1.4288185E-07;  0.0000000E+00;
 -6.0000002E-01;  9.9999998E-03; -2.0000000E+00;42;  0.0000000E+00;  0.0000000E+00;  0.0000000E+00;  1.0000000E+01;  4.0000001E-01;  0.0000000E+00;0;  0.0000000E+00;  0.0000000E+00;  0.0000000E+00;  0.0000000E+00;  0.0000000E+00;  0.0000000E+00;0; -3.4028144E-06;  1.0000000E+02;  0.0000000E+00;  0.0000000E+00;  1.0000000E+02;  0.0000000E+00;  1.0000000E+02; -3.9044958E-06;  0.0000000E+00;  5.0168148E-07;  0.0000000E+00;
 -4.0000001E-01;  9.9999998E-03; -2.0000000E+00;63;  0.0000000E+00;  0.0000000E+00;  0.0000000E+00;  1.0000092E+01;  4.0000001E-01;  9.8762391E-03;0;  0.0000000E+00;  0.0000000E+00;  0.0000000E+00;  0.0000000E+00;  0.0000000E+00;  0.0000000E+00;0; -3.8165658E-06;  1.0000000E+02;  0.0000000E+00;  0.0000000E+00;  1.0000000E+02;  0.0000000E+00;  1.0000000E+02; -5.0738686E-06;  0.0000000E+00;  1.2573026E-06;  0.0000000E+00;
 -2.0000000E-01;  9.9999998E-03; -2.0000000E+00;84;  0.0000000E+00;  0.0000000E+00;  0.0000000E+00;  1.0000140E+01;  4.0000001E-01;  1.5134973E-02;0;  0.0000000E+00;  0.0000000E+00;  0.0000000E+00;  0.0000000E+00;  0.0000000E+00;  0.0000000E+00;0; -1.9488900E-06;  1.0000000E+02;  0.0000000E+00;  0.0000000E+00;  1.0000000E+02;  0.0000000E+00;  1.0000000E+02; -4.5068473E-06;  0.0000000E+00;  2.5579573E-06;  0.0000000E+00;
  0.0000000E+00;  9.9999998E-03; -2.0000000E+00;105;  0.0000000E+00;  0.0000000E+00;  0.0000000E+00;  1.0000150E+01;  4.0000001E-01;  1.6160971E-02;0;  0.0000000E+00;  0.0000000E+00;  0.0000000E+00;  0.0000000E+00;  0.0000000E+00;  0.0000000E+00;0;  5.7449406E-06;  1.0000000E+02;  0.0000000E+00;  0.0000000E+00;  1.0000000E+02;  0.0000000E+00;  1.0000000E+02;  1.4507875E-06;  0.0000000E+00;  4.2941533E-06;  0.0000000E+00;
  2.0000000E-01;  9.9999998E-03; -2.0000000E+00;115;  0.0000000E+00;  0.0000000E+00;  0.0000000E+00;  1.0000080E+01;  4.0000001E-01;  8.5934121E-03;0;  0.0000000E+00;  0.0000000E+00;  0.0000000E+00;  0.0000000E+00;  0.0000000E+00;  0.0000000E+00;0;  2.5156145E-05;  1.0000000E+02;  0.0000000E+00;  0.0000000E+00;  1.0000000E+02;  0.0000000E+00;  1.0000000E+02;  1.9011750E-05;  0.0000000E+00;  6.1443952E-06;  0.0000000E+00;
  4.0000001E-01;  9.9999998E-03; -2.0000000E+00;125;  0.0000000E+00;  0.0000000E+00;  0.0000000E+00;  1.0000000E+01;  4.0000001E-01;  0.0000000E+00;0;  0.0000000E+00;  0.0000000E+00;  0.0000000E+00;  0.0000000E+00;  0.0000000E+00;  0.0000000E+00;0;  6.4871987E-05;  1.0000000E+02;  0.0000000E+00;  0.0000000E+00;  1.0000000E+02;  0.0000000E+00;  1.0000000E+02;  5.7232195E-05;  0.0000000E+00;  7.6397937E-06;  0.0000000E+00;
  6.0000002E-01;  9.9999998E-03; -2.0000000E+00;135;  0.0000000E+00;  0.0000000E+00;  0.0000000E+00;  1.0000000E+01;  4.0000001E-01;  0.0000000E+00;0;  0.0000000E+00;  0.0000000E+00;  0.0000000E+00;  0.0000000E+00;  0.0000000E+00;  0.0000000E+00;0;  1.3494004E-04;  1.0000000E+02;  0.0000000E+00;  0.0000000E+00;  1.0000000E+02;  0.0000000E+00;  1.0000000E+02;  1.2655358E-04;  0.0000000E+00;  8.3864516E-06;  0.0000000E+00;
  8.0000001E-01;  9.9999998E-03; -2.0000000E+00;145;  0.0000000E+00;  0.0000000E+00;  0.0000000E+00;  1.0000000E+01;  4.0000001E-01;  0.0000000E+00;0;  0.0000000E+00;  0.0000000E+00;  0.0000000E+00;  0.0000000E+00;  0.0000000E+00;  0.0000000E+00;0;  2.3667989E-04;  1.0000000E+02;  0.0000000E+00;  0.0000000E+00;  1.0000000E+02;  0.0000000E+00;  1.0000000E+02;  2.2876920E-04;  0.0000000E+00;  7.9106776E-06;  0.0000000E+00;
  1.0000000E+00;  9.9999998E-03; -2.0000000E+00;155;  0.0000000E+00;  0.0000000E+00;  0.0000000E+00;  1.0000000E+01;  4.0000001E-01;  0.0000000E+00;0;  0.0000000E+00;  0.0000000E+00;  0.0000000E+00;  0.0000000E+00;  0.0000000E+00;  0.0000000E+00;0;  3.4141954E-04;  1.0000000E+02;  0.0000000E+00;  0.0000000E+00;  1.0000000E+02;  0.0000000E+00;  1.0000000E+02;  3.3700661E-04;  0.0000000E+00;  4.4129197E-06;  0.0000000E+00;
 -1.0000000E+00;  9.9999998E-03; -1.8000000E+00;1;  0.0000000E+00;  0.0000000E+00;  0.0000000E+00;  1.0000000E+01;  4.0000001E-01;  0.0000000E+00;0;  0.0000000E+00;  0.0000000E+00;  0.0000000E+00;  0.0000000E+00;  0.0000000E+00;  0.0000000E+00;0; -2.0807204E-06;  1.0000000E+02;  0.0000000E+00;  0.0000000E+00;  1.0000000E+02;  0.0000000E+00;  1.0000000E+02; -2.1824471E-06;  0.0000000E+00;  1.0172684E-07;  0.0000000E+00;
 -1.0000000E+00;  9.9999998E-03; -1.6000000E+00;2;  0.0000000E+00;  0.0000000E+00;  0.0000000E+00;  1.0000038E+01;  4.0000001E-01;  4.1044196E-03;0;  0.0000000E+00;  0.0000000E+00;  0.0000000E+00;  0.0000000E+00;  0.0000000E+00;  0.0000000E+00;0; -4.4446324E-06;  1.0000000E+02;  0.0000000E+00;  0.0000000E+00;  1.0000000E+02;  0.0000000E+00;  1.0000000E+02; -4.6816804E-06;  0.0000000E+00;  2.3704804E-07;  0.0000000E+00;
 -1.0000000E+00;  9.9999998E-03; -1.4000000E+00;3;  0.0000000E+00;  0.0000000E+00;  0.0000000E+00;  1.0000267E+01;  4.0000001E-01;  2.8730936E-02;0;  0.0000000E+00;  0.0000000E+00;  0.0000000E+00;  0.0000000E+00;  0.0000000E+00;  0.0000000E+00;0; -8.1990074E-06;  1.0000000E+02;  0.0000000E+00;  0.0000000E+00;  1.0000000E+02;  0.0000000E+00;  1.0000000E+02; -8.5367474E-06;  0.0000000E+00;  3.3774018E-07;  0.0000000E+00;
 -1.0000000E+00;  9.9999998E-03; -1.2000000E+00;4;  0.0000000E+00;  0.0000000E+00;  0.0000000E+00;  1.0000500E+01;  4.0000001E-01;  5.3742245E-02;0;  0.0000000E+00;  0.0000000E+00;  0.0000000E+00;  0.0000000E+00;  0.0000000E+00;  0.0000000E+00;0; -1.3236984E-05;  1.0000000E+02;  0.0000000E+00;  0.0000000E+00;  1.0000000E+02;  0.0000000E+00;  1.0000000E+02; -1.3582806E-05;  0.0000000E+00;  3.4582217E-07;  0.0000000E+00;
 -1.0000000E+00;  9.9999998E-03; -1.0000000E+00;5;  0.0000000E+00;  0.0000000E+00;  0.0000000E+00;  1.0000754E+01;  4.0000001E-01;  8.1190549E-02;0;  0.0000000E+00;  0.0000000E+00;  0.0000000E+00;  0.0000000E+00;  0.0000000E+00;  0.0000000E+00;0; -1.8777433E-05;  1.0000000E+02;  0.0000000E+00;  0.0000000E+00;  1.0000000E+02;  0.0000000E+00;  1.0000000E+02; -1.9023504E-05;  0.0000000E+00;  2.4607024E-07;  0.0000000E+00;
 -1.0000000E+00;  9.9999998E-03; -8.0000001E-01;6;  0.0000000E+00;  0.0000000E+00;  0.0000000E+00;  1.0000978E+01;  4.0000001E-01;  1.0530402E-01;0;  0.0000000E+00;  0.0000000E+00;  0.0000000E+00;  0.0000000E+00;  0.0000000E+00;  0.0000000E+00;0; -2.3677341E-05;  1.0000000E+02;  0.0000000E+00;  0.0000000E+00;  1.0000000E+02;  0.0000000E+00;  1.0000000E+02; -2.3741379E-05;  0.0000000E+00;  6.4036890E-08;  0.0000000E+00;
 -1.0000000E+00;  9.9999998E-03; -6.0000002E-01;7;  0.0000000E+00;  0.0000000E+00;  0.0000000E+00;  1.0001154E+01;  4.0000001E-01;  1.2415870E-01;0;  0.0000000E+00;  0.0000000E+00;  0.0000000E+00;  0.0000000E+00;  0.0000000E+00;  0.0000000E+00;0; -2.7036433E-05;  1.0000000E+02;  0.0000000E+00;  0.0000000E+00;  1.0000000E+02;  0.0000000E+00;  1.0000000E+02; -2.6895121E-05;  0.0000000E+00; -1.4131119E-07;  0.0000000E+00;
 -1.0000000E+00;  9.9999998E-03; -4.0000001E-01;8;  0.0000000E+00;  0.0000000E+00;  0.0000000E+00;  1.0001267E+01;  4.0000001E-01;  1.3634369E-01;0;  0.0000000E+00;  0.0000000E+00;  0.0000000E+00;  0.0000000E+00;  0.0000000E+00;  0.0000000E+00;0; -2.8665429E-05;  1.0000000E+02;  0.0000000E+00;  0.0000000E+00;  1.0000000E+02;  0.0000000E+00;  1.0000000E+02; -2.8362891E-05;  0.0000000E+00; -3.0253770E-07;  0.0000000E+00;
 -1.0000000E+00;  9.9999998E-03; -2.0000000E-01;9;  0.0000000E+00;  0.0000000E+00;  0.0000000E+00;  1.0001330E+01;  4.0000001E-01;  1.4314163E-01;0;  0.0000000E+00;  0.0000000E+00;  0.0000000E+00;  0.0000000E+00;  0.0000000E+00;  0.0000000E+00;0; -2.9085022E-05;  1.0000000E+02;  0.0000000E+00;  0.0000000E+00;  1.0000000E+02;  0.0000000E+00;  1.0000000E+02; -2.8698376E-05;  0.0000000E+00; -3.8664641E-07;  0.0000000E+00;
 -8.0000001E-01;  9.9999998E-03; -1.8000000E+00;22;  0.0000000E+00;  0.0000000E+00;  0.0000000E+00;  1.0000087E+01;  4.0000001E-01;  9.3632052E-03;0;  0.0000000E+00;  0.0000000E+00;  0.0000000E+00;  0.0000000E+00;  0.0000000E+00;  0.0000000E+00;0; -5.0320537E-06;  1.0000000E+02;  0.0000000E+00;  0.0000000E+00;  1.0000000E+02;  0.0000000E+00;  1.0000000E+02; -5.4932998E-06;  0.0000000E+00;  4.6124617E-07;  0.0000000E+00;
 -8.0000001E-01;  9.9999998E-03; -1.6000000E+00;23;  0.0000000E+00;  0.0000000E+00;  0.0000000E+00;  1.0000361E+01;  4.0000001E-01;  3.8863715E-02;0;  0.0000000E+00;  0.0000000E+00;  0.0000000E+00;  0.0000000E+00;  0.0000000E+00;  0.0000000E+00;0; -1.0113877E-05;  1.0000000E+02;  0.0000000E+00;  0.0000000E+00;  1.0000000E+02;  0.0000000E+00;  1.0000000E+02; -1.0931654E-05;  0.0000000E+00;  8.1777785E-07;  0.0000000E+00;
 -8.0000001E-01;  9.9999998E-03; -1.4000000E+00;24;  0.0000000E+00;  0.0000000E+00;  0.0000000E+00;  1.0000714E+01;  4.0000001E-01;  7.6829590E-02;0;  0.0000000E+00;  0.0000000E+00;  0.0000000E+00;  0.0000000E+00;  0.0000000E+00;  0.0000000E+00;0; -1.7959932E-05;  1.0000000E+02;  0.0000000E+00;  0.0000000E+00;  1.0000000E+02;  0.0000000E+00;  1.0000000E+02; -1.8968685E-05;  0.0000000E+00;  1.0087535E-06;  0.0000000E+00;
 -8.0000001E-01;  9.9999998E-03; -1.2000000E+00;25;  0.0000000E+00;  0.0000000E+00;  0.0000000E+00;  1.0001100E+01;  4.0000001E-01;  1.1825857E-01;0;  0.0000000E+00;  0.0000000E+00;  0.0000000E+00;  0.0000000E+00;  0.0000000E+00;  0.0000000E+00;0; -2.8301098E-05;  1.0000000E+02;  0.0000000E+00;  0.0000000E+00;  1.0000000E+02;  0.0000000E+00;  1.0000000E+02; -2.9243918E-05;  0.0000000E+00;  9.4282001E-07;  0.0000000E+00;
 -8.0000001E-01;  9.9999998E-03; -1.0000000E+00;26;  0.0000000E+00;  0.0000000E+00;  0.0000000E+00;  1.0001557E+01;  4.0000001E-01;  1.6751158E-01;0;  0.0000000E+00;  0.0000000E+00;  0.0000000E+00;  0.0000000E+00;  0.0000000E+00;  0.0000000E+00;0; -3.9679893E-05;  1.0000000E+02;  0.0000000E+00;  0.0000000E+00;  1.0000000E+02;  0.0000000E+00;  1.0000000E+02; -4.0302613E-05;  0.0000000E+00;  6.2272159E-07;  0.0000000E+00;
 -8.0000001E-01;  9.9999998E-03; -8.0000001E-01;27;  0.0000000E+00;  0.0000000E+00;  0.0000000E+00;  1.0002042E+01;  4.0000001E-01;  2.1971466E-01;0;  0.0000000E+00;  0.0000000E+00;  0.0000000E+00;  0.0000000E+00;  0.0000000E+00;  0.0000000E+00;0; -4.9967442E-05;  1.0000000E+02;  0.0000000E+00;  0.0000000E+00;  1.0000000E+02;  0.0000000E+00;  1.0000000E+02; -5.0087318E-05;  0.0000000E+00;  1.1987514E-07;  0.0000000E+00;
 -8.0000001E-01;  9.9999998E-03; -6.0000002E-01;28;  0.0000000E+00;  0.0000000E+00;  0.0000000E+00;  1.0002446E+01;  4.0000001E-01;  2.6319584E-01;0;  0.0000000E+00;  0.0000000E+00;  0.0000000E+00;  0.0000000E+00;  0.0000000E+00;  0.0000000E+00;0; -5.7427787E-05;  1.0000000E+02;  0.0000000E+00;  0.0000000E+00;  1.0000000E+02;  0.0000000E+00;  1.0000000E+02; -5.6994548E-05;  0.0000000E+00; -4.3323831E-07;  0.0000000E+00;
 -8.0000001E-01;  9.9999998E-03; -4.0000001E-01;29;  0.0000000E+00;  0.0000000E+00;  0.0000000E+00;  1.0002735E+01;  4.0000001E-01;  2.9423553E-01;0;  0.0000000E+00;  0.0000000E+00;  0.0000000E+00;  0.0000000E+00;  0.0000000E+00;  0.0000000E+00;0; -6.1569452E-05;  1.0000000E+02;  0.0000000E+00;  0.0000000E+00;  1.0000000E+02;  0.0000000E+00;  1.0000000E+02; -6.0687929E-05;  0.0000000E+00; -8.8152467E-07;  0.0000000E+00;
 -8.0000001E-01;  9.9999998E-03; -2.0000000E-01;30;  0.0000000E+00;  0.0000000E+00;  0.0000000E+00;  1.0002895E+01;  4.0000001E-01;  3.1155103E-01;0;  0.0000000E+00;  0.0000000E+00;  0.0000000E+00;  0.0000000E+00;  0.0000000E+00;  0.0000000E+00;0; -6.3184867E-05;  1.0000000E+02;  0.0000000E+00;  0.0000000E+00;  1.0000000E+02;  0.0000000E+00;  1.0000000E+02; -6.2050269E-05;  0.0000000E+00; -1.1345954E-06;  0.0000000E+00;
 -6.0000002E-01;  9.9999998E-03; -1.8000000E+00;43;  0.0000000E+00;  0.0000000E+00;  0.0000000E+00;  1.0000278E+01;  4.0000001E-01;  3.0013544E-02;0;  0.0000000E+00;  0.0000000E+00;  0.0000000E+00;  0.0000000E+00;  0.0000000E+00;  0.0000000E+00;0; -7.7120012E-06;  1.0000000E+02;  0.0000000E+00;  0.0000000E+00;  1.0000000E+02;  0.0000000E+00;  1.0000000E+02; -8.9967989E-06;  0.0000000E+00;  1.2847975E-06;  0.0000000E+00;
 -6.0000002E-01;  9.9999998E-03; -1.6000000E+00;44;  0.0000000E+00;  0.0000000E+00;  0.0000000E+00;  1.0000634E+01;  4.0000001E-01;  6.8235919E-02;0;  0.0000000E+00;  0.0000000E+00;  0.0000000E+00;  0.0000000E+00;  0.0000000E+00;  0.0000000E+00;0; -1.5177177E-05;  1.0000000E+02;  0.0000000E+00;  0.0000000E+00;  1.0000000E+02;  0.0000000E+00;  1.0000000E+02; -1.7221142E-05;  0.0000000E+00;  2.0439650E-06;  0.0000000E+00;
 -6.0000002E-01;  9.9999998E-03; -1.4000000E+00;45;  0.0000000E+00;  0.0000000E+00;  0.0000000E+00;  1.0001106E+01;  4.0000001E-01;  1.1902808E-01;0;  0.0000000E+00;  0.0000000E+00;  0.0000000E+00;  0.0000000E+00;  0.0000000E+00;  0.0000000E+00;0; -2.6783317E-05;  1.0000000E+02;  0.0000000E+00;  0.0000000E+00;  1.0000000E+02;  0.0000000E+00;  1.0000000E+02; -2.9138188E-05;  0.0000000E+00;  2.3548710E-06;  0.0000000E+00;
 -6.0000002E-01;  9.9999998E-03; -1.2000000E+00;46;  0.0000000E+00;  0.0000000E+00;  0.0000000E+00;  1.0001702E+01;  4.0000001E-01;  1.8315957E-01;0;  0.0000000E+00;  0.0000000E+00;  0.0000000E+00;  0.0000000E+00;  0.0000000E+00;  0.0000000E+00;0; -4.2145854E-05;  1.0000000E+02;  0.0000000E+00;  0.0000000E+00;  1.0000000E+02;  0.0000000E+00;  1.0000000E+02; -4.4239830E-05;  0.0000000E+00;  2.0939760E-06;  0.0000000E+00;
 -6.0000002E-01;  9.9999998E-03; -1.0000000E+00;47;  0.0000000E+00;  0.0000000E+00;  0.0000000E+00;  1.0002451E+01;  4.0000001E-01;  2.6370874E-01;0;  0.0000000E+00;  0.0000000E+00;  0.0000000E+00;  0.0000000E+00;  0.0000000E+00;  0.0000000E+00;0; -5.9313905E-05;  1.0000000E+02;  0.0000000E+00;  0.0000000E+00;  1.0000000E+02;  0.0000000E+00;  1.0000000E+02; -6.0630729E-05;  0.0000000E+00;  1.3168240E-06;  0.0000000E+00;
 -6.0000002E-01;  9.9999998E-03; -8.0000001E-01;48;  0.0000000E+00;  0.0000000E+00;  0.0000000E+00;  1.0003177E+01;  4.0000001E-01;  3.4182093E-01;0;  0.0000000E+00;  0.0000000E+00;  0.0000000E+00;  0.0000000E+00;  0.0000000E+00;  0.0000000E+00;0; -7.5332959E-05;  1.0000000E+02;  0.0000000E+00;  0.0000000E+00;  1.0000000E+02;  0.0000000E+00;  1.0000000E+02; -7.5514043E-05;  0.0000000E+00;  1.8108064E-07;  0.0000000E+00;
 -6.0000002E-01;  9.9999998E-03; -6.0000002E-01;49;  0.0000000E+00;  0.0000000E+00;  0.0000000E+00;  1.0003804E+01;  4.0000001E-01;  4.0928727E-01;0;  0.0000000E+00;  0.0000000E+00;  0.0000000E+00;  0.0000000E+00;  0.0000000E+00;  0.0000000E+00;0; -8.7672190E-05;  1.0000000E+02;  0.0000000E+00;  0.0000000E+00;  1.0000000E+02;  0.0000000E+00;  1.0000000E+02; -8.6625470E-05;  0.0000000E+00; -1.0467215E-06;  0.0000000E+00;
 -6.0000002E-01;  9.9999998E-03; -4.0000001E-01;50;  0.0000000E+00;  0.0000000E+00;  0.0000000E+00;  1.0004269E+01;  4.0000001E-01;  4.5930985E-01;0;  0.0000000E+00;  0.0000000E+00;  0.0000000E+00;  0.0000000E+00;  0.0000000E+00;  0.0000000E+00;0; -9.5349991E-05;  1.0000000E+02;  0.0000000E+00;  0.0000000E+00;  1.0000000E+02;  0.0000000E+00;  1.0000000E+02; -9.3297189E-05;  0.0000000E+00; -2.0528030E-06;  0.0000000E+00;
 -6.0000002E-01;  9.9999998E-03; -2.0000000E-01;51;  0.0000000E+00;  0.0000000E+00;  0.0000000E+00;  1.0004543E+01;  4.0000001E-01;  4.8881033E-01;0;  0.0000000E+00;  0.0000000E+00;  0.0000000E+00;  0.0000000E+00;  0.0000000E+00;  0.0000000E+00;0; -9.9077013E-05;  1.0000000E+02;  0.0000000E+00;  0.0000000E+00;  1.0000000E+02;  0.0000000E+00;  1.0000000E+02; -9.6422016E-05;  0.0000000E+00; -2.6549960E-06;  0.0000000E+00;
 -4.0000001E-01;  9.9999998E-03; -1.8000000E+00;64;  0.0000000E+00;  0.0000000E+00;  0.0000000E+00;  1.0000381E+01;  4.0000001E-01;  4.0915851E-02;0;  0.0000000E+00;  0.0000000E+00;  0.0000000E+00;  0.0000000E+00;  0.0000000E+00;  0.0000000E+00;0; -7.9543124E-06;  1.0000000E+02;  0.0000000E+00;  0.0000000E+00;  1.0000000E+02;  0.0000000E+00;  1.0000000E+02; -1.0811558E-05;  0.0000000E+00;  2.8572458E-06;  0.0000000E+00;
 -4.0000001E-01;  9.9999998E-03; -1.6000000E+00;65;  0.0000000E+00;  0.0000000E+00;  0.0000000E+00;  1.0000803E+01;  4.0000001E-01;  8.6449161E-02;0;  0.0000000E+00;  0.0000000E+00;  0.0000000E+00;  0.0000000E+00;  0.0000000E+00;  0.0000000E+00;0; -1.4997955E-05;  1.0000000E+02;  0.0000000E+00;  0.0000000E+00;  1.0000000E+02;  0.0000000E+00;  1.0000000E+02; -1.9241257E-05;  0.0000000E+00;  4.2433021E-06;  0.0000000E+00;
 -4.0000001E-01;  9.9999998E-03; -1.4000000E+00;66;  0.0000000E+00;  0.0000000E+00;  0.0000000E+00;  1.0001369E+01;  4.0000001E-01;  1.4724575E-01;0;  0.0000000E+00;  0.0000000E+00;  0.0000000E+00;  0.0000000E+00;  0.0000000E+00;  0.0000000E+00;0; -2.6143742E-05;  1.0000000E+02;  0.0000000E+00;  0.0000000E+00;  1.0000000E+02;  0.0000000E+00;  1.0000000E+02; -3.0821353E-05;  0.0000000E+00;  4.6776108E-06;  0.0000000E+00;
 -4.0000001E-01;  9.9999998E-03; -1.2000000E+00;67;  0.0000000E+00;  0.0000000E+00;  0.0000000E+00;  1.0002125E+01;  4.0000001E-01;  2.2856440E-01;0;  0.0000000E+00;  0.0000000E+00;  0.0000000E+00;  0.0000000E+00;  0.0000000E+00;  0.0000000E+00;0; -4.1498457E-05;  1.0000000E+02;  0.0000000E+00;  0.0000000E+00;  1.0000000E+02;  0.0000000E+00;  1.0000000E+02; -4.5525871E-05;  0.0000000E+00;  4.0274135E-06;  0.0000000E+00;
 -4.0000001E-01;  9.9999998E-03; -1.0000000E+00;68;  0.0000000E+00;  0.0000000E+00;  0.0000000E+00;  1.0003051E+01;  4.0000001E-01;  3.2822463E-01;0;  0.0000000E+00;  0.0000000E+00;  0.0000000E+00;  0.0000000E+00;  0.0000000E+00;  0.0000000E+00;0; -5.9904127E-05;  1.0000000E+02;  0.0000000E+00;  0.0000000E+00;  1.0000000E+02;  0.0000000E+00;  1.0000000E+02; -6.2334235E-05;  0.0000000E+00;  2.4301066E-06;  0.0000000E+00;
 -4.0000001E-01;  9.9999998E-03; -8.0000001E-01;69;  0.0000000E+00;  0.0000000E+00;  0.0000000E+00;  1.0003963E+01;  4.0000001E-01;  4.2647398E-01;0;  0.0000000E+00;  0.0000000E+00;  0.0000000E+00;  0.0000000E+00;  0.0000000E+00;  0.0000000E+00;0; -7.9046702E-05;  1.0000000E+02;  0.0000000E+00;  0.0000000E+00;  1.0000000E+02;  0.0000000E+00;  1.0000000E+02; -7.9240759E-05;  0.0000000E+00;  1.9405546E-07;  0.0000000E+00;
 -4.0000001E-01;  9.9999998E-03; -6.0000002E-01;70;  0.0000000E+00;  0.0000000E+00;  0.0000000E+00;  1.0004784E+01;  4.0000001E-01;  5.1471883E-01;0;  0.0000000E+00;  0.0000000E+00;  0.0000000E+00;  0.0000000E+00;  0.0000000E+00;  0.0000000E+00;0; -9.6556847E-05;  1.0000000E+02;  0.0000000E+00;  0.0000000E+00;  1.0000000E+02;  0.0000000E+00;  1.0000000E+02; -9.4382493E-05;  0.0000000E+00; -2.1743576E-06;  0.0000000E+00;
 -4.0000001E-01;  9.9999998E-03; -4.0000001E-01;71;  0.0000000E+00;  0.0000000E+00;  0.0000000E+00;  1.0005392E+01;  4.0000001E-01;  5.8013290E-01;0;  0.0000000E+00;  0.0000000E+00;  0.0000000E+00;  0.0000000E+00;  0.0000000E+00;  0.0000000E+00;0; -1.1058064E-04;  1.0000000E+02;  0.0000000E+00;  0.0000000E+00;  1.0000000E+02;  0.0000000E+00;  1.0000000E+02; -1.0647890E-04;  0.0000000E+00; -4.1017388E-06;  0.0000000E+00;
 -4.0000001E-01;  9.9999998E-03; -2.0000000E-01;72;  0.0000000E+00;  0.0000000E+00;  0.0000000E+00;  1.0005773E+01;  4.0000001E-01;  6.2104875E-01;0;  0.0000000E+00;  0.0000000E+00;  0.0000000E+00;  0.0000000E+00;  0.0000000E+00;  0.0000000E+00;0; -1.1972099E-04;  1.0000000E+02;  0.0000000E+00;  0.0000000E+00;  1.0000000E+02;  0.0000000E+00;  1.0000000E+02; -1.1445829E-04;  0.0000000E+00; -5.2627001E-06;  0.0000000E+00;
 -2.0000000E-01;  9.9999998E-03; -1.8000000E+00;85;  0.0000000E+00;  0.0000000E+00;  0.0000000E+00;  1.0000424E+01;  4.0000001E-01;  4.5661446E-02;0;  0.0000000E+00;  0.0000000E+00;  0.0000000E+00;  0.0000000E+00;  0.0000000E+00;  0.0000000E+00;0; -1.7588550E-06;  1.0000000E+02;  0.0000000E+00;  0.0000000E+00;  1.0000000E+02;  0.0000000E+00;  1.0000000E+02; -7.0781825E-06;  0.0000000E+00;  5.3193276E-06;  0.0000000E+00;
 -2.0000000E-01;  9.9999998E-03; -1.6000000E+00;86;  0.0000000E+00;  0.0000000E+00;  0.0000000E+00;  1.0000818E+01;  4.0000001E-01;  8.7988064E-02;0;  0.0000000E+00;  0.0000000E+00;  0.0000000E+00;  0.0000000E+00;  0.0000000E+00;  0.0000000E+00;0; -1.4967363E-06;  1.0000000E+02;  0.0000000E+00;  0.0000000E+00;  1.0000000E+02;  0.0000000E+00;  1.0000000E+02; -9.0378935E-06;  0.0000000E+00;  7.5411572E-06;  0.0000000E+00;
 -2.0000000E-01;  9.9999998E-03; -1.4000000E+00;87;  0.0000000E+00;  0.0000000E+00;  0.0000000E+00;  1.0001407E+01;  4.0000001E-01;  1.5134974E-01;0;  0.0000000E+00;  0.0000000E+00;  0.0000000E+00;  0.0000000E+00;  0.0000000E+00;  0.0000000E+00;0; -2.8988643E-06;  1.0000000E+02;  0.0000000E+00;  0.0000000E+00;  1.0000000E+02;  0.0000000E+00;  1.0000000E+02; -1.0993150E-05;  0.0000000E+00;  8.0942855E-06;  0.0000000E+00;
 -2.0000000E-01;  9.9999998E-03; -1.2000000E+00;88;  0.0000000E+00;  0.0000000E+00;  0.0000000E+00;  1.0002210E+01;  4.0000001E-01;  2.3779865E-01;0;  0.0000000E+00;  0.0000000E+00;  0.0000000E+00;  0.0000000E+00;  0.0000000E+00;  0.0000000E+00;0; -7.9539432E-06;  1.0000000E+02;  0.0000000E+00;  0.0000000E+00;  1.0000000E+02;  0.0000000E+00;  1.0000000E+02; -1.4775286E-05;  0.0000000E+00;  6.8213430E-06;  0.0000000E+00;
 -2.0000000E-01;  9.9999998E-03; -1.0000000E+00;89;  0.0000000E+00;  0.0000000E+00;  0.0000000E+00;  1.0003201E+01;  4.0000001E-01;  3.4438479E-01;0;  0.0000000E+00;  0.0000000E+00;  0.0000000E+00;  0.0000000E+00;  0.0000000E+00;  0.0000000E+00;0; -1.8462442E-05;  1.0000000E+02;  0.0000000E+00;  0.0000000E+00;  1.0000000E+02;  0.0000000E+00;  1.0000000E+02; -2.2411259E-05;  0.0000000E+00;  3.9488168E-06;  0.0000000E+00;
 -2.0000000E-01;  9.9999998E-03; -8.0000001E-01;90;  0.0000000E+00;  0.0000000E+00;  0.0000000E+00;  1.0004205E+01;  4.0000001E-01;  4.5238179E-01;0;  0.0000000E+00;  0.0000000E+00;  0.0000000E+00;  0.0000000E+00;  0.0000000E+00;  0.0000000E+00;0; -3.4629858E-05;  1.0000000E+02;  0.0000000E+00;  0.0000000E+00;  1.0000000E+02;  0.0000000E+00;  1.0000000E+02; -3.4661010E-05;  0.0000000E+00;  3.1151597E-08;  0.0000000E+00;
 -2.0000000E-01;  9.9999998E-03; -6.0000002E-01;91;  0.0000000E+00;  0.0000000E+00;  0.0000000E+00;  1.0005134E+01;  4.0000001E-01;  5.5229825E-01;0;  0.0000000E+00;  0.0000000E+00;  0.0000000E+00;  0.0000000E+00;  0.0000000E+00;  0.0000000E+00;0; -5.5785964E-05;  1.0000000E+02;  0.0000000E+00;  0.0000000E+00;  1.0000000E+02;  0.0000000E+00;  1.0000000E+02; -5.1798339E-05;  0.0000000E+00; -3.9876245E-06;  0.0000000E+00;
 -2.0000000E-01;  9.9999998E-03; -4.0000001E-01;92;  0.0000000E+00;  0.0000000E+00;  0.0000000E+00;  1.0005864E+01;  4.0000001E-01;  6.3092315E-01;0;  0.0000000E+00;  0.0000000E+00;  0.0000000E+00;  0.0000000E+00;  0.0000000E+00;  0.0000000E+00;0; -7.8497207E-05;  1.0000000E+02;  0.0000000E+00;  0.0000000E+00;  1.0000000E+02;  0.0000000E+00;  1.0000000E+02; -7.1366383E-05;  0.0000000E+00; -7.1308223E-06;  0.0000000E+00;
 -2.0000000E-01;  9.9999998E-03; -2.0000000E-01;93;  0.0000000E+00;  0.0000000E+00;  0.0000000E+00;  1.0006351E+01;  4.0000001E-01;  6.8325424E-01;0;  0.0000000E+00;  0.0000000E+00;  0.0000000E+00;  0.0000000E+00;  0.0000000E+00;  0.0000000E+00;0; -9.6486190E-05;  1.0000000E+02;  0.0000000E+00;  0.0000000E+00;  1.0000000E+02;  0.0000000E+00;  1.0000000E+02; -8.7523425E-05;  0.0000000E+00; -8.9627656E-06;  0.0000000E+00;
  0.0000000E+00;  9.9999998E-03; -1.8000000E+00;106;  0.0000000E+00;  0.0000000E+00;  0.0000000E+00;  1.0000400E+01;  4.0000001E-01;  4.2967658E-02;0;  0.0000000E+00;  0.0000000E+00;  0.0000000E+00;  0.0000000E+00;  0.0000000E+00;  0.0000000E+00;0;  1.8005721E-05;  1.0000000E+02;  0.0000000E+00;  0.0000000E+00;  1.0000000E+02;  0.0000000E+00;  1.0000000E+02;  9.5390133E-06;  0.0000000E+00;  8.4667090E-06;  0.0000000E+00;
  0.0000000E+00;  9.9999998E-03; -1.6000000E+00;107;  0.0000000E+00;  0.0000000E+00;  0.0000000E+00;  1.0000689E+01;  4.0000001E-01;  7.4135244E-02;0;  0.0000000E+00;  0.0000000E+00;  0.0000000E+00;  0.0000000E+00;  0.0000000E+00;  0.0000000E+00;0;  3.7104983E-05;  1.0000000E+02;  0.0000000E+00;  0.0000000E+00;  1.0000000E+02;  0.0000000E+00;  1.0000000E+02;  2.5437490E-05;  0.0000000E+00;  1.1667495E-05;  0.0000000E+00;
  0.0000000E+00;  9.9999998E-03; -1.4000000E+00;108;  0.0000000E+00;  0.0000000E+00;  0.0000000E+00;  1.0001162E+01;  4.0000001E-01;  1.2492687E-01;0;  0.0000000E+00;  0.0000000E+00;  0.0000000E+00;  0.0000000E+00;  0.0000000E+00;  0.0000000E+00;0;  6.0647064E-05;  1.0000000E+02;  0.0000000E+00;  0.0000000E+00;  1.0000000E+02;  0.0000000E+00;  1.0000000E+02;  4.8312559E-05;  0.0000000E+00;  1.2334507E-05;  0.0000000E+00;
  0.0000000E+00;  9.9999998E-03; -1.2000000E+00;109;  0.0000000E+00;  0.0000000E+00;  0.0000000E+00;  1.0001824E+01;  4.0000001E-01;  1.9624037E-01;0;  0.0000000E+00;  0.0000000E+00;  0.0000000E+00;  0.0000000E+00;  0.0000000E+00;  0.0000000E+00;0;  8.3342027E-05;  1.0000000E+02;  0.0000000E+00;  0.0000000E+00;  1.0000000E+02;  0.0000000E+00;  1.0000000E+02;  7.3055860E-05;  0.0000000E+00;  1.0286165E-05;  0.0000000E+00;
  2.0000000E-01;  9.9999998E-03; -1.8000000E+00;116;  0.0000000E+00;  0.0000000E+00;  0.0000000E+00;  1.0000189E+01;  4.0000001E-01;  2.0265061E-02;0;  0.0000000E+00;  0.0000000E+00;  0.0000000E+00;  0.0000000E+00;  0.0000000E+00;  0.0000000E+00;0;  6.2104322E-05;  1.0000000E+02;  0.0000000E+00;  0.0000000E+00;  1.0000000E+02;  0.0000000E+00;  1.0000000E+02;  5.0415863E-05;  0.0000000E+00;  1.1688457E-05;  0.0000000E+00;
  2.0000000E-01;  9.9999998E-03; -1.6000000E+00;117;  0.0000000E+00;  0.0000000E+00;  0.0000000E+00;  1.0000285E+01;  4.0000001E-01;  3.0654112E-02;0;  0.0000000E+00;  0.0000000E+00;  0.0000000E+00;  0.0000000E+00;  0.0000000E+00;  0.0000000E+00;0;  1.1890376E-04;  1.0000000E+02;  0.0000000E+00;  0.0000000E+00;  1.0000000E+02;  0.0000000E+00;  1.0000000E+02;  1.0314016E-04;  0.0000000E+00;  1.5763602E-05;  0.0000000E+00;
  2.0000000E-01;  9.9999998E-03; -1.4000000E+00;118;  0.0000000E+00;  0.0000000E+00;  0.0000000E+00;  1.0000452E+01;  4.0000001E-01;  4.8610494E-02;0;  0.0000000E+00;  0.0000000E+00;  0.0000000E+00;  0.0000000E+00;  0.0000000E+00;  0.0000000E+00;0;  1.9210024E-04;  1.0000000E+02;  0.0000000E+00;  0.0000000E+00;  1.0000000E+02;  0.0000000E+00;  1.0000000E+02;  1.7557801E-04;  0.0000000E+00;  1.6522223E-05;  0.0000000E+00;
  2.0000000E-01;  9.9999998E-03; -1.2000000E+00;119;  0.0000000E+00;  0.0000000E+00;  0.0000000E+00;  1.0000772E+01;  4.0000001E-01;  8.3112404E-02;0;  0.0000000E+00;  0.0000000E+00;  0.0000000E+00;  0.0000000E+00;  0.0000000E+00;  0.0000000E+00;0;  2.6972560E-04;  1.0000000E+02;  0.0000000E+00;  0.0000000E+00;  1.0000000E+02;  0.0000000E+00;  1.0000000E+02;  2.5597465E-04;  0.0000000E+00;  1.3750960E-05;  0.0000000E+00;
  4.0000001E-01;  9.9999998E-03; -1.8000000E+00;126;  0.0000000E+00;  0.0000000E+00;  0.0000000E+00;  1.0000000E+01;  4.0000001E-01;  0.0000000E+00;0;  0.0000000E+00;  0.0000000E+00;  0.0000000E+00;  0.0000000E+00;  0.0000000E+00;  0.0000000E+00;0;  1.4641402E-04;  1.0000000E+02;  0.0000000E+00;  0.0000000E+00;  1.0000000E+02;  0.0000000E+00;  1.0000000E+02;  1.3232914E-04;  0.0000000E+00;  1.4084892E-05;  0.0000000E+00;
  4.0000001E-01;  9.9999998E-03; -1.6000000E+00;127;  0.0000000E+00;  0.0000000E+00;  0.0000000E+00;  1.0000000E+01;  4.0000001E-01;  0.0000000E+00;0;  0.0000000E+00;  0.0000000E+00;  0.0000000E+00;  0.0000000E+00;  0.0000000E+00;  0.0000000E+00;0;  2.7009522E-04;  1.0000000E+02;  0.0000000E+00;  0.0000000E+00;  1.0000000E+02;  0.0000000E+00;  1.0000000E+02;  2.5147293E-04;  0.0000000E+00;  1.8622286E-05;  0.0000000E+00;
  4.0000001E-01;  9.9999998E-03; -1.4000000E+00;128;  0.0000000E+00;  0.0000000E+00;  0.0000000E+00;  1.0000000E+01;  4.0000001E-01;  0.0000000E+00;0;  0.0000000E+00;  0.0000000E+00;  0.0000000E+00;  0.0000000E+00;  0.0000000E+00;  0.0000000E+00;0;  4.2977394E-04;  1.0000000E+02;  0.0000000E+00;  0.0000000E+00;  1.0000000E+02;  0.0000000E+00;  1.0000000E+02;  4.1033002E-04;  0.0000000E+00;  1.9443929E-05;  0.0000000E+00;
  4.0000001E-01;  9.9999998E-03; -1.2000000E+00;129;  0.0000000E+00;  0.0000000E+00;  0.0000000E+00;  1.0000000E+01;  4.0000001E-01;  0.0000000E+00;0;  0.0000000E+00;  0.0000000E+00;  0.0000000E+00;  0.0000000E+00;  0.0000000E+00;  0.0000000E+00;0;  5.9943402E-04;  1.0000000E+02;  0.0000000E+00;  0.0000000E+00;  1.0000000E+02;  0.0000000E+00;  1.0000000E+02;  5.8324641E-04;  0.0000000E+00;  1.6187585E-05;  0.0000000E+00;
  6.0000002E-01;  9.9999998E-03; -1.8000000E+00;136;  0.0000000E+00;  0.0000000E+00;  0.0000000E+00;  1.0000000E+01;  4.0000001E-01;  0.0000000E+00;0;  0.0000000E+00;  0.0000000E+00;  0.0000000E+00;  0.0000000E+00;  0.0000000E+00;  0.0000000E+00;0;  2.8559257E-04;  1.0000000E+02;  0.0000000E+00;  0.0000000E+00;  1.0000000E+02;  0.0000000E+00;  1.0000000E+02;  2.7077729E-04;  0.0000000E+00;  1.4815264E-05;  0.0000000E+00;
  6.0000002E-01;  9.9999998E-03; -1.6000000E+00;137;  0.0000000E+00;  0.0000000E+00;  0.0000000E+00;  1.0000000E+01;  4.0000001E-01;  0.0000000E+00;0;  0.0000000E+00;  0.0000000E+00;  0.0000000E+00;  0.0000000E+00;  0.0000000E+00;  0.0000000E+00;0;  5.0992315E-04;  1.0000000E+02;  0.0000000E+00;  0.0000000E+00;  1.0000000E+02;  0.0000000E+00;  1.0000000E+02;  4.9074320E-04;  0.0000000E+00;  1.9179959E-05;  0.0000000E+00;
  6.0000002E-01;  9.9999998E-03; -1.4000000E+00;138;  0.0000000E+00;  0.0000000E+00;  0.0000000E+00;  1.0000000E+01;  4.0000001E-01;  0.0000000E+00;0;  0.0000000E+00;  0.0000000E+00;  0.0000000E+00;  0.0000000E+00;  0.0000000E+00;  0.0000000E+00;0;  7.9903804E-04;  1.0000000E+02;  0.0000000E+00;  0.0000000E+00;  1.0000000E+02;  0.0000000E+00;  1.0000000E+02;  7.7882397E-04;  0.0000000E+00;  2.0214067E-05;  0.0000000E+00;
  6.0000002E-01;  9.9999998E-03; -1.2000000E+00;139;  0.0000000E+00;  0.0000000E+00;  0.0000000E+00;  1.0000000E+01;  4.0000001E-01;  0.0000000E+00;0;  0.0000000E+00;  0.0000000E+00;  0.0000000E+00;  0.0000000E+00;  0.0000000E+00;  0.0000000E+00;0;  1.1026660E-03;  1.0000000E+02;  0.0000000E+00;  0.0000000E+00;  1.0000000E+02;  0.0000000E+00;  1.0000000E+02;  1.0854410E-03;  0.0000000E+00;  1.7225097E-05;  0.0000000E+00;
  8.0000001E-01;  9.9999998E-03; -1.8000000E+00;146;  0.0000000E+00;  0.0000000E+00;  0.0000000E+00;  1.0000000E+01;  4.0000001E-01;  0.0000000E+00;0;  0.0000000E+00;  0.0000000E+00;  0.0000000E+00;  0.0000000E+00;  0.0000000E+00;  0.0000000E+00;0;  4.6610020E-04;  1.0000000E+02;  0.0000000E+00;  0.0000000E+00;  1.0000000E+02;  0.0000000E+00;  1.0000000E+02;  4.5305828E-04;  0.0000000E+00;  1.3041911E-05;  0.0000000E+00;
  8.0000001E-01;  9.9999998E-03; -1.6000000E+00;147;  0.0000000E+00;  0.0000000E+00;  0.0000000E+00;  1.0000000E+01;  4.0000001E-01;  0.0000000E+00;0;  0.0000000E+00;  0.0000000E+00;  0.0000000E+00;  0.0000000E+00;  0.0000000E+00;  0.0000000E+00;0;  8.1114651E-04;  1.0000000E+02;  0.0000000E+00;  0.0000000E+00;  1.0000000E+02;  0.0000000E+00;  1.0000000E+02;  7.9451891E-04;  0.0000000E+00;  1.6627611E-05;  0.0000000E+00;
  8.0000001E-01;  9.9999998E-03; -1.4000000E+00;148;  0.0000000E+00;  0.0000000E+00;  0.0000000E+00;  1.0000000E+01;  4.0000001E-01;  0.0000000E+00;0;  0.0000000E+00;  0.0000000E+00;  0.0000000E+00;  0.0000000E+00;  0.0000000E+00;  0.0000000E+00;0;  1.2650570E-03;  1.0000000E+02;  0.0000000E+00;  0.0000000E+00;  1.0000000E+02;  0.0000000E+00;  1.0000000E+02;  1.2466939E-03;  0.0000000E+00;  1.8363149E-05;  0.0000000E+00;
  8.0000001E-01;  9.9999998E-03; -1.2000000E+00;149;  0.0000000E+00;  0.0000000E+00;  0.0000000E+00;  1.0000000E+01;  4.0000001E-01;  0.0000000E+00;0;  0.0000000E+00;  0.0000000E+00;  0.0000000E+00;  0.0000000E+00;  0.0000000E+00;  0.0000000E+00;0;  1.7403804E-03;  1.0000000E+02;  0.0000000E+00;  0.0000000E+00;  1.0000000E+02;  0.0000000E+00;  1.0000000E+02;  1.7232955E-03;  0.0000000E+00;  1.7084936E-05;  0.0000000E+00;
  1.0000000E+00;  9.9999998E-03; -1.8000000E+00;156;  0.0000000E+00;  0.0000000E+00;  0.0000000E+00;  1.0000000E+01;  4.0000001E-01;  0.0000000E+00;0;  0.0000000E+00;  0.0000000E+00;  0.0000000E+00;  0.0000000E+00;  0.0000000E+00;  0.0000000E+00;0;  6.3531107E-04;  1.0000000E+02;  0.0000000E+00;  0.0000000E+00;  1.0000000E+02;  0.0000000E+00;  1.0000000E+02;  6.2847475E-04;  0.0000000E+00;  6.8363156E-06;  0.0000000E+00;
  1.0000000E+00;  9.9999998E-03; -1.6000000E+00;157;  0.0000000E+00;  0.0000000E+00;  0.0000000E+00;  1.0000000E+01;  4.0000001E-01;  0.0000000E+00;0;  0.0000000E+00;  0.0000000E+00;  0.0000000E+00;  0.0000000E+00;  0.0000000E+00;  0.0000000E+00;0;  1.0975701E-03;  1.0000000E+02;  0.0000000E+00;  0.0000000E+00;  1.0000000E+02;  0.0000000E+00;  1.0000000E+02;  1.0882115E-03;  0.0000000E+00;  9.3585249E-06;  0.0000000E+00;
  1.0000000E+00;  9.9999998E-03; -1.4000000E+00;158;  0.0000000E+00;  0.0000000E+00;  0.0000000E+00;  1.0000000E+01;  4.0000001E-01;  0.0000000E+00;0;  0.0000000E+00;  0.0000000E+00;  0.0000000E+00;  0.0000000E+00;  0.0000000E+00;  0.0000000E+00;0;  1.7265052E-03;  1.0000000E+02;  0.0000000E+00;  0.0000000E+00;  1.0000000E+02;  0.0000000E+00;  1.0000000E+02;  1.7137076E-03;  0.0000000E+00;  1.2797701E-05;  0.0000000E+00;
  1.0000000E+00;  9.9999998E-03; -1.2000000E+00;159;  0.0000000E+00;  0.0000000E+00;  0.0000000E+00;  1.0000000E+01;  4.0000001E-01;  0.0000000E+00;0;  0.0000000E+00;  0.0000000E+00;  0.0000000E+00;  0.0000000E+00;  0.0000000E+00;  0.0000000E+00;0;  2.3941407E-03;  1.0000000E+02;  0.0000000E+00;  0.0000000E+00;  1.0000000E+02;  0.0000000E+00;  1.0000000E+02;  2.3783247E-03;  0.0000000E+00;  1.5816035E-05;  0.0000000E+00;
 -1.0000000E+00;  9.9999998E-03;  0.0000000E+00;10;  0.0000000E+00;  0.0000000E+00;  0.0000000E+00;  1.0001354E+01;  4.0000001E-01;  1.4570689E-01;0;  0.0000000E+00;  0.0000000E+00;  0.0000000E+00;  0.0000000E+00;  0.0000000E+00;  0.0000000E+00;0; -2.9094701E-05;  1.0000000E+02;  0.0000000E+00;  0.0000000E+00;  1.0000000E+02;  0.0000000E+00;  1.0000000E+02; -2.8686829E-05;  0.0000000E+00; -4.0787185E-07;  0.0000000E+00;
 -1.0000000E+00;  9.9999998E-03;  2.0000000E-01;11;  0.0000000E+00;  0.0000000E+00;  0.0000000E+00;  1.0001330E+01;  4.0000001E-01;  1.4314163E-01;0;  0.0000000E+00;  0.0000000E+00;  0.0000000E+00;  0.0000000E+00;  0.0000000E+00;  0.0000000E+00;0; -2.9085018E-05;  1.0000000E+02;  0.0000000E+00;  0.0000000E+00;  1.0000000E+02;  0.0000000E+00;  1.0000000E+02; -2.8698372E-05;  0.0000000E+00; -3.8664680E-07;  0.0000000E+00;
 -1.0000000E+00;  9.9999998E-03;  4.0000001E-01;12;  0.0000000E+00;  0.0000000E+00;  0.0000000E+00;  1.0001267E+01;  4.0000001E-01;  1.3634369E-01;0;  0.0000000E+00;  0.0000000E+00;  0.0000000E+00;  0.0000000E+00;  0.0000000E+00;  0.0000000E+00;0; -2.8665421E-05;  1.0000000E+02;  0.0000000E+00;  0.0000000E+00;  1.0000000E+02;  0.0000000E+00;  1.0000000E+02; -2.8362883E-05;  0.0000000E+00; -3.0253835E-07;  0.0000000E+00;
 -1.0000000E+00;  9.9999998E-03;  6.0000002E-01;13;  0.0000000E+00;  0.0000000E+00;  0.0000000E+00;  1.0001154E+01;  4.0000001E-01;  1.2415870E-01;0;  0.0000000E+00;  0.0000000E+00;  0.0000000E+00;  0.0000000E+00;  0.0000000E+00;  0.0000000E+00;0; -2.7036423E-05;  1.0000000E+02;  0.0000000E+00;  0.0000000E+00;  1.0000000E+02;  0.0000000E+00;  1.0000000E+02; -2.6895112E-05;  0.0000000E+00; -1.4131201E-07;  0.0000000E+00;
 -1.0000000E+00;  9.9999998E-03;  8.0000001E-01;14;  0.0000000E+00;  0.0000000E+00;  0.0000000E+00;  1.0000978E+01;  4.0000001E-01;  1.0530402E-01;0;  0.0000000E+00;  0.0000000E+00;  0.0000000E+00;  0.0000000E+00;  0.0000000E+00;  0.0000000E+00;0; -2.3677336E-05;  1.0000000E+02;  0.0000000E+00;  0.0000000E+00;  1.0000000E+02;  0.0000000E+00;  1.0000000E+02; -2.3741371E-05;  0.0000000E+00;  6.4036108E-08;  0.0000000E+00;
 -1.0000000E+00;  9.9999998E-03;  1.0000000E+00;15;  0.0000000E+00;  0.0000000E+00;  0.0000000E+00;  1.0000754E+01;  4.0000001E-01;  8.1190549E-02;0;  0.0000000E+00;  0.0000000E+00;  0.0000000E+00;  0.0000000E+00;  0.0000000E+00;  0.0000000E+00;0; -1.8777428E-05;  1.0000000E+02;  0.0000000E+00;  0.0000000E+00;  1.0000000E+02;  0.0000000E+00;  1.0000000E+02; -1.9023497E-05;  0.0000000E+00;  2.4606967E-07;  0.0000000E+00;
 -1.0000000E+00;  9.9999998E-03;  1.2000000E+00;16;  0.0000000E+00;  0.0000000E+00;  0.0000000E+00;  1.0000500E+01;  4.0000001E-01;  5.3742245E-02;0;  0.0000000E+00;  0.0000000E+00;  0.0000000E+00;  0.0000000E+00;  0.0000000E+00;  0.0000000E+00;0; -1.3236975E-05;  1.0000000E+02;  0.0000000E+00;  0.0000000E+00;  1.0000000E+02;  0.0000000E+00;  1.0000000E+02; -1.3582797E-05;  0.0000000E+00;  3.4582192E-07;  0.0000000E+00;
 -1.0000000E+00;  9.9999998E-03;  1.4000000E+00;17;  0.0000000E+00;  0.0000000E+00;  0.0000000E+00;  1.0000267E+01;  4.0000001E-01;  2.8730936E-02;0;  0.0000000E+00;  0.0000000E+00;  0.0000000E+00;  0.0000000E+00;  0.0000000E+00;  0.0000000E+00;0; -8.1990065E-06;  1.0000000E+02;  0.0000000E+00;  0.0000000E+00;  1.0000000E+02;  0.0000000E+00;  1.0000000E+02; -8.5367465E-06;  0.0000000E+00;  3.3774026E-07;  0.0000000E+00;
 -8.0000001E-01;  9.9999998E-03;  0.0000000E+00;31;  0.0000000E+00;  0.0000000E+00;  0.0000000E+00;  1.0002943E+01;  4.0000001E-01;  3.1668156E-01;0;  0.0000000E+00;  0.0000000E+00;  0.0000000E+00;  0.0000000E+00;  0.0000000E+00;  0.0000000E+00;0; -6.3529696E-05;  1.0000000E+02;  0.0000000E+00;  0.0000000E+00;  1.0000000E+02;  0.0000000E+00;  1.0000000E+02; -6.2319406E-05;  0.0000000E+00; -1.2102927E-06;  0.0000000E+00;
 -8.0000001E-01;  9.9999998E-03;  2.0000000E-01;32;  0.0000000E+00;  0.0000000E+00;  0.0000000E+00;  1.0002895E+01;  4.0000001E-01;  3.1155103E-01;0;  0.0000000E+00;  0.0000000E+00;  0.0000000E+00;  0.0000000E+00;  0.0000000E+00;  0.0000000E+00;0; -6.3184874E-05;  1.0000000E+02;  0.0000000E+00;  0.0000000E+00;  1.0000000E+02;  0.0000000E+00;  1.0000000E+02; -6.2050276E-05;  0.0000000E+00; -1.1345961E-06;  0.0000000E+00;
 -8.0000001E-01;  9.9999998E-03;  4.0000001E-01;33;  0.0000000E+00;  0.0000000E+00;  0.0000000E+00;  1.0002735E+01;  4.0000001E-01;  2.9423553E-01;0;  0.0000000E+00;  0.0000000E+00;  0.0000000E+00;  0.0000000E+00;  0.0000000E+00;  0.0000000E+00;0; -6.1569437E-05;  1.0000000E+02;  0.0000000E+00;  0.0000000E+00;  1.0000000E+02;  0.0000000E+00;  1.0000000E+02; -6.0687911E-05;  0.0000000E+00; -8.8152581E-07;  0.0000000E+00;
 -8.0000001E-01;  9.9999998E-03;  6.0000002E-01;34;  0.0000000E+00;  0.0000000E+00;  0.0000000E+00;  1.0002446E+01;  4.0000001E-01;  2.6319584E-01;0;  0.0000000E+00;  0.0000000E+00;  0.0000000E+00;  0.0000000E+00;  0.0000000E+00;  0.0000000E+00;0; -5.7427766E-05;  1.0000000E+02;  0.0000000E+00;  0.0000000E+00;  1.0000000E+02;  0.0000000E+00;  1.0000000E+02; -5.6994526E-05;  0.0000000E+00; -4.3323959E-07;  0.0000000E+00;
 -8.0000001E-01;  9.9999998E-03;  8.0000001E-01;35;  0.0000000E+00;  0.0000000E+00;  0.0000000E+00;  1.0002042E+01;  4.0000001E-01;  2.1971466E-01;0;  0.0000000E+00;  0.0000000E+00;  0.0000000E+00;  0.0000000E+00;  0.0000000E+00;  0.0000000E+00;0; -4.9967417E-05;  1.0000000E+02;  0.0000000E+00;  0.0000000E+00;  1.0000000E+02;  0.0000000E+00;  1.0000000E+02; -5.0087292E-05;  0.0000000E+00;  1.1987380E-07;  0.0000000E+00;
 -8.0000001E-01;  9.9999998E-03;  1.0000000E+00;36;  0.0000000E+00;  0.0000000E+00;  0.0000000E+00;  1.0001557E+01;  4.0000001E-01;  1.6751158E-01;0;  0.0000000E+00;  0.0000000E+00;  0.0000000E+00;  0.0000000E+00;  0.0000000E+00;  0.0000000E+00;0; -3.9679864E-05;  1.0000000E+02;  0.0000000E+00;  0.0000000E+00;  1.0000000E+02;  0.0000000E+00;  1.0000000E+02; -4.0302584E-05;  0.0000000E+00;  6.2272079E-07;  0.0000000E+00;
 -8.0000001E-01;  9.9999998E-03;  1.2000000E+00;37;  0.0000000E+00;  0.0000000E+00;  0.0000000E+00;  1.0001100E+01;  4.0000001E-01;  1.1825857E-01;0;  0.0000000E+00;  0.0000000E+00;  0.0000000E+00;  0.0000000E+00;  0.0000000E+00;  0.0000000E+00;0; -2.8301083E-05;  1.0000000E+02;  0.0000000E+00;  0.0000000E+00;  1.0000000E+02;  0.0000000E+00;  1.0000000E+02; -2.9243902E-05;  0.0000000E+00;  9.4281938E-07;  0.0000000E+00;
 -8.0000001E-01;  9.9999998E-03;  1.4000000E+00;38;  0.0000000E+00;  0.0000000E+00;  0.0000000E+00;  1.0000714E+01;  4.0000001E-01;  7.6829590E-02;0;  0.0000000E+00;  0.0000000E+00;  0.0000000E+00;  0.0000000E+00;  0.0000000E+00;  0.0000000E+00;0; -1.7959921E-05;  1.0000000E+02;  0.0000000E+00;  0.0000000E+00;  1.0000000E+02;  0.0000000E+00;  1.0000000E+02; -1.8968674E-05;  0.0000000E+00;  1.0087534E-06;  0.0000000E+00;
 -6.0000002E-01;  9.9999998E-03;  0.0000000E+00;52;  0.0000000E+00;  0.0000000E+00;  0.0000000E+00;  1.0004630E+01;  4.0000001E-01;  4.9817353E-01;0;  0.0000000E+00;  0.0000000E+00;  0.0000000E+00;  0.0000000E+00;  0.0000000E+00;  0.0000000E+00;0; -1.0011519E-04;  1.0000000E+02;  0.0000000E+00;  0.0000000E+00;  1.0000000E+02;  0.0000000E+00;  1.0000000E+02; -9.7265933E-05;  0.0000000E+00; -2.8492598E-06;  0.0000000E+00;
 -6.0000002E-01;  9.9999998E-03;  2.0000000E-01;53;  0.0000000E+00;  0.0000000E+00;  0.0000000E+00;  1.0004543E+01;  4.0000001E-01;  4.8881033E-01;0;  0.0000000E+00;  0.0000000E+00;  0.0000000E+00;  0.0000000E+00;  0.0000000E+00;  0.0000000E+00;0; -9.9076991E-05;  1.0000000E+02;  0.0000000E+00;  0.0000000E+00;  1.0000000E+02;  0.0000000E+00;  1.0000000E+02; -9.6421994E-05;  0.0000000E+00; -2.6549972E-06;  0.0000000E+00;
 -6.0000002E-01;  9.9999998E-03;  4.0000001E-01;54;  0.0000000E+00;  0.0000000E+00;  0.0000000E+00;  1.0004269E+01;  4.0000001E-01;  4.5930985E-01;0;  0.0000000E+00;  0.0000000E+00;  0.0000000E+00;  0.0000000E+00;  0.0000000E+00;  0.0000000E+00;0; -9.5349948E-05;  1.0000000E+02;  0.0000000E+00;  0.0000000E+00;  1.0000000E+02;  0.0000000E+00;  1.0000000E+02; -9.3297145E-05;  0.0000000E+00; -2.0528043E-06;  0.0000000E+00;
 -6.0000002E-01;  9.9999998E-03;  6.0000002E-01;55;  0.0000000E+00;  0.0000000E+00;  0.0000000E+00;  1.0003804E+01;  4.0000001E-01;  4.0928727E-01;0;  0.0000000E+00;  0.0000000E+00;  0.0000000E+00;  0.0000000E+00;  0.0000000E+00;  0.0000000E+00;0; -8.7672168E-05;  1.0000000E+02;  0.0000000E+00;  0.0000000E+00;  1.0000000E+02;  0.0000000E+00;  1.0000000E+02; -8.6625449E-05;  0.0000000E+00; -1.0467226E-06;  0.0000000E+00;
 -6.0000002E-01;  9.9999998E-03;  8.0000001E-01;56;  0.0000000E+00;  0.0000000E+00;  0.0000000E+00;  1.0003177E+01;  4.0000001E-01;  3.4182093E-01;0;  0.0000000E+00;  0.0000000E+00;  0.0000000E+00;  0.0000000E+00;  0.0000000E+00;  0.0000000E+00;0; -7.5332922E-05;  1.0000000E+02;  0.0000000E+00;  0.0000000E+00;  1.0000000E+02;  0.0000000E+00;  1.0000000E+02; -7.5513999E-05;  0.0000000E+00;  1.8107905E-07;  0.0000000E+00;
 -6.0000002E-01;  9.9999998E-03;  1.0000000E+00;57;  0.0000000E+00;  0.0000000E+00;  0.0000000E+00;  1.0002451E+01;  4.0000001E-01;  2.6370874E-01;0;  0.0000000E+00;  0.0000000E+00;  0.0000000E+00;  0.0000000E+00;  0.0000000E+00;  0.0000000E+00;0; -5.9313901E-05;  1.0000000E+02;  0.0000000E+00;  0.0000000E+00;  1.0000000E+02;  0.0000000E+00;  1.0000000E+02; -6.0630722E-05;  0.0000000E+00;  1.3168225E-06;  0.0000000E+00;
 -6.0000002E-01;  9.9999998E-03;  1.2000000E+00;58;  0.0000000E+00;  0.0000000E+00;  0.0000000E+00;  1.0001702E+01;  4.0000001E-01;  1.8315957E-01;0;  0.0000000E+00;  0.0000000E+00;  0.0000000E+00;  0.0000000E+00;  0.0000000E+00;  0.0000000E+00;0; -4.2145839E-05;  1.0000000E+02;  0.0000000E+00;  0.0000000E+00;  1.0000000E+02;  0.0000000E+00;  1.0000000E+02; -4.4239816E-05;  0.0000000E+00;  2.0939754E-06;  0.0000000E+00;
 -6.0000002E-01;  9.9999998E-03;  1.4000000E+00;59;  0.0000000E+00;  0.0000000E+00;  0.0000000E+00;  1.0001106E+01;  4.0000001E-01;  1.1902808E-01;0;  0.0000000E+00;  0.0000000E+00;  0.0000000E+00;  0.0000000E+00;  0.0000000E+00;  0.0000000E+00;0; -2.6783304E-05;  1.0000000E+02;  0.0000000E+00;  0.0000000E+00;  1.0000000E+02;  0.0000000E+00;  1.0000000E+02; -2.9138175E-05;  0.0000000E+00;  2.3548714E-06;  0.0000000E+00;
 -4.0000001E-01;  9.9999998E-03;  0.0000000E+00;73;  0.0000000E+00;  0.0000000E+00;  0.0000000E+00;  1.0005894E+01;  4.0000001E-01;  6.3413155E-01;0;  0.0000000E+00;  0.0000000E+00;  0.0000000E+00;  0.0000000E+00;  0.0000000E+00;  0.0000000E+00;0; -1.2285328E-04;  1.0000000E+02;  0.0000000E+00;  0.0000000E+00;  1.0000000E+02;  0.0000000E+00;  1.0000000E+02; -1.1721859E-04;  0.0000000E+00; -5.6346844E-06;  0.0000000E+00;
 -4.0000001E-01;  9.9999998E-03;  2.0000000E-01;74;  0.0000000E+00;  0.0000000E+00;  0.0000000E+00;  1.0005773E+01;  4.0000001E-01;  6.2104875E-01;0;  0.0000000E+00;  0.0000000E+00;  0.0000000E+00;  0.0000000E+00;  0.0000000E+00;  0.0000000E+00;0; -1.1972097E-04;  1.0000000E+02;  0.0000000E+00;  0.0000000E+00;  1.0000000E+02;  0.0000000E+00;  1.0000000E+02; -1.1445827E-04;  0.0000000E+00; -5.2627029E-06;  0.0000000E+00;
 -4.0000001E-01;  9.9999998E-03;  4.0000001E-01;75;  0.0000000E+00;  0.0000000E+00;  0.0000000E+00;  1.0005392E+01;  4.0000001E-01;  5.8013290E-01;0;  0.0000000E+00;  0.0000000E+00;  0.0000000E+00;  0.0000000E+00;  0.0000000E+00;  0.0000000E+00;0; -1.1058062E-04;  1.0000000E+02;  0.0000000E+00;  0.0000000E+00;  1.0000000E+02;  0.0000000E+00;  1.0000000E+02; -1.0647888E-04;  0.0000000E+00; -4.1017411E-06;  0.0000000E+00;
 -4.0000001E-01;  9.9999998E-03;  6.0000002E-01;76;  0.0000000E+00;  0.0000000E+00;  0.0000000E+00;  1.0004784E+01;  4.0000001E-01;  5.1471883E-01;0;  0.0000000E+00;  0.0000000E+00;  0.0000000E+00;  0.0000000E+00;  0.0000000E+00;  0.0000000E+00;0; -9.6556818E-05;  1.0000000E+02;  0.0000000E+00;  0.0000000E+00;  1.0000000E+02;  0.0000000E+00;  1.0000000E+02; -9.4382456E-05;  0.0000000E+00; -2.1743583E-06;  0.0000000E+00;
 -4.0000001E-01;  9.9999998E-03;  8.0000001E-01;77;  0.0000000E+00;  0.0000000E+00;  0.0000000E+00;  1.0003963E+01;  4.0000001E-01;  4.2647398E-01;0;  0.0000000E+00;  0.0000000E+00;  0.0000000E+00;  0.0000000E+00;  0.0000000E+00;  0.0000000E+00;0; -7.9046673E-05;  1.0000000E+02;  0.0000000E+00;  0.0000000E+00;  1.0000000E+02;  0.0000000E+00;  1.0000000E+02; -7.9240730E-05;  0.0000000E+00;  1.9405438E-07;  0.0000000E+00;
 -4.0000001E-01;  9.9999998E-03;  1.0000000E+00;78;  0.0000000E+00;  0.0000000E+00;  0.0000000E+00;  1.0003051E+01;  4.0000001E-01;  3.2822463E-01;0;  0.0000000E+00;  0.0000000E+00;  0.0000000E+00;  0.0000000E+00;  0.0000000E+00;  0.0000000E+00;0; -5.9904069E-05;  1.0000000E+02;  0.0000000E+00;  0.0000000E+00;  1.0000000E+02;  0.0000000E+00;  1.0000000E+02; -6.2334177E-05;  0.0000000E+00;  2.4301069E-06;  0.0000000E+00;
 -4.0000001E-01;  9.9999998E-03;  1.2000000E+00;79;  0.0000000E+00;  0.0000000E+00;  0.0000000E+00;  1.0002125E+01;  4.0000001E-01;  2.2856440E-01;0;  0.0000000E+00;  0.0000000E+00;  0.0000000E+00;  0.0000000E+00;  0.0000000E+00;  0.0000000E+00;0; -4.1498421E-05;  1.0000000E+02;  0.0000000E+00;  0.0000000E+00;  1.0000000E+02;  0.0000000E+00;  1.0000000E+02; -4.5525838E-05;  0.0000000E+00;  4.0274163E-06;  0.0000000E+00;
 -4.0000001E-01;  9.9999998E-03;  1.4000000E+00;80;  0.0000000E+00;  0.0000000E+00;  0.0000000E+00;  1.0001369E+01;  4.0000001E-01;  1.4724575E-01;0;  0.0000000E+00;  0.0000000E+00;  0.0000000E+00;  0.0000000E+00;  0.0000000E+00;  0.0000000E+00;0; -2.6143707E-05;  1.0000000E+02;  0.0000000E+00;  0.0000000E+00;  1.0000000E+02;  0.0000000E+00;  1.0000000E+02; -3.0821320E-05;  0.0000000E+00;  4.6776131E-06;  0.0000000E+00;
 -2.0000000E-01;  9.9999998E-03;  0.0000000E+00;94;  0.0000000E+00;  0.0000000E+00;  0.0000000E+00;  1.0006516E+01;  4.0000001E-01;  7.0108277E-01;0;  0.0000000E+00;  0.0000000E+00;  0.0000000E+00;  0.0000000E+00;  0.0000000E+00;  0.0000000E+00;0; -1.0339118E-04;  1.0000000E+02;  0.0000000E+00;  0.0000000E+00;  1.0000000E+02;  0.0000000E+00;  1.0000000E+02; -9.3842646E-05;  0.0000000E+00; -9.5485384E-06;  0.0000000E+00;
 -2.0000000E-01;  9.9999998E-03;  2.0000000E-01;95;  0.0000000E+00;  0.0000000E+00;  0.0000000E+00;  1.0006351E+01;  4.0000001E-01;  6.8325424E-01;0;  0.0000000E+00;  0.0000000E+00;  0.0000000E+00;  0.0000000E+00;  0.0000000E+00;  0.0000000E+00;0; -9.6486227E-05;  1.0000000E+02;  0.0000000E+00;  0.0000000E+00;  1.0000000E+02;  0.0000000E+00;  1.0000000E+02; -8.7523455E-05;  0.0000000E+00; -8.9627692E-06;  0.0000000E+00;
 -2.0000000E-01;  9.9999998E-03;  4.0000001E-01;96;  0.0000000E+00;  0.0000000E+00;  0.0000000E+00;  1.0005864E+01;  4.0000001E-01;  6.3092315E-01;0;  0.0000000E+00;  0.0000000E+00;  0.0000000E+00;  0.0000000E+00;  0.0000000E+00;  0.0000000E+00;0; -7.8497156E-05;  1.0000000E+02;  0.0000000E+00;  0.0000000E+00;  1.0000000E+02;  0.0000000E+00;  1.0000000E+02; -7.1366332E-05;  0.0000000E+00; -7.1308223E-06;  0.0000000E+00;
 -2.0000000E-01;  9.9999998E-03;  6.0000002E-01;97;  0.0000000E+00;  0.0000000E+00;  0.0000000E+00;  1.0005134E+01;  4.0000001E-01;  5.5229825E-01;0;  0.0000000E+00;  0.0000000E+00;  0.0000000E+00;  0.0000000E+00;  0.0000000E+00;  0.0000000E+00;0; -5.5785902E-05;  1.0000000E+02;  0.0000000E+00;  0.0000000E+00;  1.0000000E+02;  0.0000000E+00;  1.0000000E+02; -5.1798281E-05;  0.0000000E+00; -3.9876227E-06;  0.0000000E+00;
 -2.0000000E-01;  9.9999998E-03;  8.0000001E-01;98;  0.0000000E+00;  0.0000000E+00;  0.0000000E+00;  1.0004205E+01;  4.0000001E-01;  4.5238179E-01;0;  0.0000000E+00;  0.0000000E+00;  0.0000000E+00;  0.0000000E+00;  0.0000000E+00;  0.0000000E+00;0; -3.4629800E-05;  1.0000000E+02;  0.0000000E+00;  0.0000000E+00;  1.0000000E+02;  0.0000000E+00;  1.0000000E+02; -3.4660952E-05;  0.0000000E+00;  3.1152805E-08;  0.0000000E+00;
 -2.0000000E-01;  9.9999998E-03;  1.0000000E+00;99;  0.0000000E+00;  0.0000000E+00;  0.0000000E+00;  1.0003201E+01;  4.0000001E-01;  3.4438479E-01;0;  0.0000000E+00;  0.0000000E+00;  0.0000000E+00;  0.0000000E+00;  0.0000000E+00;  0.0000000E+00;0; -1.8462386E-05;  1.0000000E+02;  0.0000000E+00;  0.0000000E+00;  1.0000000E+02;  0.0000000E+00;  1.0000000E+02; -2.2411206E-05;  0.0000000E+00;  3.9488195E-06;  0.0000000E+00;
 -2.0000000E-01;  9.9999998E-03;  1.2000000E+00;100;  0.0000000E+00;  0.0000000E+00;  0.0000000E+00;  1.0002210E+01;  4.0000001E-01;  2.3779865E-01;0;  0.0000000E+00;  0.0000000E+00;  0.0000000E+00;  0.0000000E+00;  0.0000000E+00;  0.0000000E+00;0; -7.9538968E-06;  1.0000000E+02;  0.0000000E+00;  0.0000000E+00;  1.0000000E+02;  0.0000000E+00;  1.0000000E+02; -1.4775243E-05;  0.0000000E+00;  6.8213471E-06;  0.0000000E+00;
 -2.0000000E-01;  9.9999998E-03;  1.4000000E+00;101;  0.0000000E+00;  0.0000000E+00;  0.0000000E+00;  1.0001407E+01;  4.0000001E-01;  1.5134974E-01;0;  0.0000000E+00;  0.0000000E+00;  0.0000000E+00;  0.0000000E+00;  0.0000000E+00;  0.0000000E+00;0; -2.8988443E-06;  1.0000000E+02;  0.0000000E+00;  0.0000000E+00;  1.0000000E+02;  0.0000000E+00;  1.0000000E+02; -1.0993132E-05;  0.0000000E+00;  8.0942873E-06;  0.0000000E+00;
  0.0000000E+00;  9.9999998E-03;  1.2000000E+00;110;  0.0000000E+00;  0.0000000E+00;  0.0000000E+00;  1.0001824E+01;  4.0000001E-01;  1.9624037E-01;0;  0.0000000E+00;  0.0000000E+00;  0.0000000E+00;  0.0000000E+00;  0.0000000E+00;  0.0000000E+00;0;  8.3342042E-05;  1.0000000E+02;  0.0000000E+00;  0.0000000E+00;  1.0000000E+02;  0.0000000E+00;  1.0000000E+02;  7.3055868E-05;  0.0000000E+00;  1.0286171E-05;  0.0000000E+00;
  0.0000000E+00;  9.9999998E-03;  1.4000000E+00;111;  0.0000000E+00;  0.0000000E+00;  0.0000000E+00;  1.0001162E+01;  4.0000001E-01;  1.2492687E-01;0;  0.0000000E+00;  0.0000000E+00;  0.0000000E+00;  0.0000000E+00;  0.0000000E+00;  0.0000000E+00;0;  6.0647082E-05;  1.0000000E+02;  0.0000000E+00;  0.0000000E+00;  1.0000000E+02;  0.0000000E+00;  1.0000000E+02;  4.8312562E-05;  0.0000000E+00;  1.2334521E-05;  0.0000000E+00;
  2.0000000E-01;  9.9999998E-03;  1.2000000E+00;120;  0.0000000E+00;  0.0000000E+00;  0.0000000E+00;  1.0000772E+01;  4.0000001E-01;  8.3112404E-02;0;  0.0000000E+00;  0.0000000E+00;  0.0000000E+00;  0.0000000E+00;  0.0000000E+00;  0.0000000E+00;0;  2.6972548E-04;  1.0000000E+02;  0.0000000E+00;  0.0000000E+00;  1.0000000E+02;  0.0000000E+00;  1.0000000E+02;  2.5597450E-04;  0.0000000E+00;  1.3750974E-05;  0.0000000E+00;
  2.0000000E-01;  9.9999998E-03;  1.4000000E+00;121;  0.0000000E+00;  0.0000000E+00;  0.0000000E+00;  1.0000452E+01;  4.0000001E-01;  4.8610494E-02;0;  0.0000000E+00;  0.0000000E+00;  0.0000000E+00;  0.0000000E+00;  0.0000000E+00;  0.0000000E+00;0;  1.9210020E-04;  1.0000000E+02;  0.0000000E+00;  0.0000000E+00;  1.0000000E+02;  0.0000000E+00;  1.0000000E+02;  1.7557797E-04;  0.0000000E+00;  1.6522234E-05;  0.0000000E+00;
  4.0000001E-01;  9.9999998E-03;  1.2000000E+00;130;  0.0000000E+00;  0.0000000E+00;  0.0000000E+00;  1.0000000E+01;  4.0000001E-01;  0.0000000E+00;0;  0.0000000E+00;  0.0000000E+00;  0.0000000E+00;  0.0000000E+00;  0.0000000E+00;  0.0000000E+00;0;  5.9943349E-04;  1.0000000E+02;  0.0000000E+00;  0.0000000E+00;  1.0000000E+02;  0.0000000E+00;  1.0000000E+02;  5.8324588E-04;  0.0000000E+00;  1.6187607E-05;  0.0000000E+00;
  4.0000001E-01;  9.9999998E-03;  1.4000000E+00;131;  0.0000000E+00;  0.0000000E+00;  0.0000000E+00;  1.0000000E+01;  4.0000001E-01;  0.0000000E+00;0;  0.0000000E+00;  0.0000000E+00;  0.0000000E+00;  0.0000000E+00;  0.0000000E+00;  0.0000000E+00;0;  4.2977365E-04;  1.0000000E+02;  0.0000000E+00;  0.0000000E+00;  1.0000000E+02;  0.0000000E+00;  1.0000000E+02;  4.1032970E-04;  0.0000000E+00;  1.9443949E-05;  0.0000000E+00;
  6.0000002E-01;  9.9999998E-03;  1.2000000E+00;140;  0.0000000E+00;  0.0000000E+00;  0.0000000E+00;  1.0000000E+01;  4.0000001E-01;  0.0000000E+00;0;  0.0000000E+00;  0.0000000E+00;  0.0000000E+00;  0.0000000E+00;  0.0000000E+00;  0.0000000E+00;0;  1.1026653E-03;  1.0000000E+02;  0.0000000E+00;  0.0000000E+00;  1.0000000E+02;  0.0000000E+00;  1.0000000E+02;  1.0854402E-03;  0.0000000E+00;  1.7225109E-05;  0.0000000E+00;
  6.0000002E-01;  9.9999998E-03;  1.4000000E+00;141;  0.0000000E+00;  0.0000000E+00;  0.0000000E+00;  1.0000000E+01;  4.0000001E-01;  0.0000000E+00;0;  0.0000000E+00;  0.0000000E+00;  0.0000000E+00;  0.0000000E+00;  0.0000000E+00;  0.0000000E+00;0;  7.9903728E-04;  1.0000000E+02;  0.0000000E+00;  0.0000000E+00;  1.0000000E+02;  0.0000000E+00;  1.0000000E+02;  7.7882322E-04;  0.0000000E+00;  2.0214085E-05;  0.0000000E+00;
  8.0000001E-01;  9.9999998E-03;  1.2000000E+00;150;  0.0000000E+00;  0.0000000E+00;  0.0000000E+00;  1.0000000E+01;  4.0000001E-01;  0.0000000E+00;0;  0.0000000E+00;  0.0000000E+00;  0.0000000E+00;  0.0000000E+00;  0.0000000E+00;  0.0000000E+00;0;  1.7403788E-03;  1.0000000E+02;  0.0000000E+00;  0.0000000E+00;  1.0000000E+02;  0.0000000E+00;  1.0000000E+02;  1.7232939E-03;  0.0000000E+00;  1.7084931E-05;  0.0000000E+00;
  8.0000001E-01;  9.9999998E-03;  1.4000000E+00;151;  0.0000000E+00;  0.0000000E+00;  0.0000000E+00;  1.0000000E+01;  4.0000001E-01;  0.0000000E+00;0;  0.0000000E+00;  0.0000000E+00;  0.0000000E+00;  0.0000000E+00;  0.0000000E+00;  0.0000000E+00;0;  1.2650556E-03;  1.0000000E+02;  0.0000000E+00;  0.0000000E+00;  1.0000000E+02;  0.0000000E+00;  1.0000000E+02;  1.2466925E-03;  0.0000000E+00;  1.8363138E-05;  0.0000000E+00;
  1.0000000E+00;  9.9999998E-03;  1.2000000E+00;160;  0.0000000E+00;  0.0000000E+00;  0.0000000E+00;  1.0000000E+01;  4.0000001E-01;  0.0000000E+00;0;  0.0000000E+00;  0.0000000E+00;  0.0000000E+00;  0.0000000E+00;  0.0000000E+00;  0.0000000E+00;0;  2.3941407E-03;  1.0000000E+02;  0.0000000E+00;  0.0000000E+00;  1.0000000E+02;  0.0000000E+00;  1.0000000E+02;  2.3783245E-03;  0.0000000E+00;  1.5816075E-05;  0.0000000E+00;
  1.0000000E+00;  9.9999998E-03;  1.4000000E+00;161;  0.0000000E+00;  0.0000000E+00;  0.0000000E+00;  1.0000000E+01;  4.0000001E-01;  0.0000000E+00;0;  0.0000000E+00;  0.0000000E+00;  0.0000000E+00;  0.0000000E+00;  0.0000000E+00;  0.0000000E+00;0;  1.7265052E-03;  1.0000000E+02;  0.0000000E+00;  0.0000000E+00;  1.0000000E+02;  0.0000000E+00;  1.0000000E+02;  1.7137075E-03;  0.0000000E+00;  1.2797723E-05;  0.0000000E+00;
 -1.0000000E+00;  9.9999998E-03;  1.6000000E+00;18;  0.0000000E+00;  0.0000000E+00;  0.0000000E+00;  1.0000038E+01;  4.0000001E-01;  4.1044196E-03;0;  0.0000000E+00;  0.0000000E+00;  0.0000000E+00;  0.0000000E+00;  0.0000000E+00;  0.0000000E+00;0; -4.4446301E-06;  1.0000000E+02;  0.0000000E+00;  0.0000000E+00;  1.0000000E+02;  0.0000000E+00;  1.0000000E+02; -4.6816781E-06;  0.0000000E+00;  2.3704816E-07;  0.0000000E+00;
 -1.0000000E+00;  9.9999998E-03;  1.8000000E+00;19;  0.0000000E+00;  0.0000000E+00;  0.0000000E+00;  1.0000000E+01;  4.0000001E-01;  0.0000000E+00;0;  0.0000000E+00;  0.0000000E+00;  0.0000000E+00;  0.0000000E+00;  0.0000000E+00;  0.0000000E+00;0; -2.0807197E-06;  1.0000000E+02;  0.0000000E+00;  0.0000000E+00;  1.0000000E+02;  0.0000000E+00;  1.0000000E+02; -2.1824467E-06;  0.0000000E+00;  1.0172701E-07;  0.0000000E+00;
 -1.0000000E+00;  9.9999998E-03;  2.0000000E+00;20;  0.0000000E+00;  0.0000000E+00;  0.0000000E+00;  1.0000000E+01;  4.0000001E-01;  0.0000000E+00;0;  0.0000000E+00;  0.0000000E+00;  0.0000000E+00;  0.0000000E+00;  0.0000000E+00;  0.0000000E+00;0; -7.3801374E-07;  1.0000000E+02;  0.0000000E+00;  0.0000000E+00;  1.0000000E+02;  0.0000000E+00;  1.0000000E+02; -7.5174125E-07;  0.0000000E+00;  1.3727504E-08;  0.0000000E+00;
 -8.0000001E-01;  9.9999998E-03;  1.6000000E+00;39;  0.0000000E+00;  0.0000000E+00;  0.0000000E+00;  1.0000361E+01;  4.0000001E-01;  3.8863715E-02;0;  0.0000000E+00;  0.0000000E+00;  0.0000000E+00;  0.0000000E+00;  0.0000000E+00;  0.0000000E+00;0; -1.0113871E-05;  1.0000000E+02;  0.0000000E+00;  0.0000000E+00;  1.0000000E+02;  0.0000000E+00;  1.0000000E+02; -1.0931650E-05;  0.0000000E+00;  8.1777830E-07;  0.0000000E+00;
 -8.0000001E-01;  9.9999998E-03;  1.8000000E+00;40;  0.0000000E+00;  0.0000000E+00;  0.0000000E+00;  1.0000087E+01;  4.0000001E-01;  9.3632052E-03;0;  0.0000000E+00;  0.0000000E+00;  0.0000000E+00;  0.0000000E+00;  0.0000000E+00;  0.0000000E+00;0; -5.0320509E-06;  1.0000000E+02;  0.0000000E+00;  0.0000000E+00;  1.0000000E+02;  0.0000000E+00;  1.0000000E+02; -5.4932975E-06;  0.0000000E+00;  4.6124657E-07;  0.0000000E+00;
 -8.0000001E-01;  9.9999998E-03;  2.0000000E+00;41;  0.0000000E+00;  0.0000000E+00;  0.0000000E+00;  1.0000000E+01;  4.0000001E-01;  0.0000000E+00;0;  0.0000000E+00;  0.0000000E+00;  0.0000000E+00;  0.0000000E+00;  0.0000000E+00;  0.0000000E+00;0; -2.0629352E-06;  1.0000000E+02;  0.0000000E+00;  0.0000000E+00;  1.0000000E+02;  0.0000000E+00;  1.0000000E+02; -2.2058173E-06;  0.0000000E+00;  1.4288206E-07;  0.0000000E+00;
 -6.0000002E-01;  9.9999998E-03;  1.6000000E+00;60;  0.0000000E+00;  0.0000000E+00;  0.0000000E+00;  1.0000634E+01;  4.0000001E-01;  6.8235919E-02;0;  0.0000000E+00;  0.0000000E+00;  0.0000000E+00;  0.0000000E+00;  0.0000000E+00;  0.0000000E+00;0; -1.5177173E-05;  1.0000000E+02;  0.0000000E+00;  0.0000000E+00;  1.0000000E+02;  0.0000000E+00;  1.0000000E+02; -1.7221138E-05;  0.0000000E+00;  2.0439659E-06;  0.0000000E+00;
 -6.0000002E-01;  9.9999998E-03;  1.8000000E+00;61;  0.0000000E+00;  0.0000000E+00;  0.0000000E+00;  1.0000278E+01;  4.0000001E-01;  3.0013544E-02;0;  0.0000000E+00;  0.0000000E+00;  0.0000000E+00;  0.0000000E+00;  0.0000000E+00;  0.0000000E+00;0; -7.7119985E-06;  1.0000000E+02;  0.0000000E+00;  0.0000000E+00;  1.0000000E+02;  0.0000000E+00;  1.0000000E+02; -8.9967962E-06;  0.0000000E+00;  1.2847979E-06;  0.0000000E+00;
 -6.0000002E-01;  9.9999998E-03;  2.0000000E+00;62;  0.0000000E+00;  0.0000000E+00;  0.0000000E+00;  1.0000000E+01;  4.0000001E-01;  0.0000000E+00;0;  0.0000000E+00;  0.0000000E+00;  0.0000000E+00;  0.0000000E+00;  0.0000000E+00;  0.0000000E+00;0; -3.4028119E-06;  1.0000000E+02;  0.0000000E+00;  0.0000000E+00;  1.0000000E+02;  0.0000000E+00;  1.0000000E+02; -3.9044940E-06;  0.0000000E+00;  5.0168200E-07;  0.0000000E+00;
 -4.0000001E-01;  9.9999998E-03;  1.6000000E+00;81;  0.0000000E+00;  0.0000000E+00;  0.0000000E+00;  1.0000803E+01;  4.0000001E-01;  8.6449161E-02;0;  0.0000000E+00;  0.0000000E+00;  0.0000000E+00;  0.0000000E+00;  0.0000000E+00;  0.0000000E+00;0; -1.4997948E-05;  1.0000000E+02;  0.0000000E+00;  0.0000000E+00;  1.0000000E+02;  0.0000000E+00;  1.0000000E+02; -1.9241250E-05;  0.0000000E+00;  4.2433026E-06;  0.0000000E+00;
 -4.0000001E-01;  9.9999998E-03;  1.8000000E+00;82;  0.0000000E+00;  0.0000000E+00;  0.0000000E+00;  1.0000381E+01;  4.0000001E-01;  4.0915851E-02;0;  0.0000000E+00;  0.0000000E+00;  0.0000000E+00;  0.0000000E+00;  0.0000000E+00;  0.0000000E+00;0; -7.9543079E-06;  1.0000000E+02;  0.0000000E+00;  0.0000000E+00;  1.0000000E+02;  0.0000000E+00;  1.0000000E+02; -1.0811554E-05;  0.0000000E+00;  2.8572460E-06;  0.0000000E+00;
 -4.0000001E-01;  9.9999998E-03;  2.0000000E+00;83;  0.0000000E+00;  0.0000000E+00;  0.0000000E+00;  1.0000092E+01;  4.0000001E-01;  9.8762391E-03;0;  0.0000000E+00;  0.0000000E+00;  0.0000000E+00;  0.0000000E+00;  0.0000000E+00;  0.0000000E+00;0; -3.8165635E-06;  1.0000000E+02;  0.0000000E+00;  0.0000000E+00;  1.0000000E+02;  0.0000000E+00;  1.0000000E+02; -5.0738668E-06;  0.0000000E+00;  1.2573032E-06;  0.0000000E+00;
 -2.0000000E-01;  9.9999998E-03;  1.6000000E+00;102;  0.0000000E+00;  0.0000000E+00;  0.0000000E+00;  1.0000818E+01;  4.0000001E-01;  8.7988064E-02;0;  0.0000000E+00;  0.0000000E+00;  0.0000000E+00;  0.0000000E+00;  0.0000000E+00;  0.0000000E+00;0; -1.4967118E-06;  1.0000000E+02;  0.0000000E+00;  0.0000000E+00;  1.0000000E+02;  0.0000000E+00;  1.0000000E+02; -9.0378753E-06;  0.0000000E+00;  7.5411635E-06;  0.0000000E+00;
 -2.0000000E-01;  9.9999998E-03;  1.8000000E+00;103;  0.0000000E+00;  0.0000000E+00;  0.0000000E+00;  1.0000424E+01;  4.0000001E-01;  4.5661446E-02;0;  0.0000000E+00;  0.0000000E+00;  0.0000000E+00;  0.0000000E+00;  0.0000000E+00;  0.0000000E+00;0; -1.7588459E-06;  1.0000000E+02;  0.0000000E+00;  0.0000000E+00;  1.0000000E+02;  0.0000000E+00;  1.0000000E+02; -7.0781730E-06;  0.0000000E+00;  5.3193271E-06;  0.0000000E+00;
 -2.0000000E-01;  9.9999998E-03;  2.0000000E+00;104;  0.0000000E+00;  0.0000000E+00;  0.0000000E+00;  1.0000140E+01;  4.0000001E-01;  1.5134973E-02;0;  0.0000000E+00;  0.0000000E+00;  0.0000000E+00;  0.0000000E+00;  0.0000000E+00;  0.0000000E+00;0; -1.9488864E-06;  1.0000000E+02;  0.0000000E+00;  0.0000000E+00;  1.0000000E+02;  0.0000000E+00;  1.0000000E+02; -4.5068446E-06;  0.0000000E+00;  2.5579582E-06;  0.0000000E+00;
  0.0000000E+00;  9.9999998E-03;  1.6000000E+00;112;  0.0000000E+00;  0.0000000E+00;  0.0000000E+00;  1.0000689E+01;  4.0000001E-01;  7.4135244E-02;0;  0.0000000E+00;  0.0000000E+00;  0.0000000E+00;  0.0000000E+00;  0.0000000E+00;  0.0000000E+00;0;  3.7105005E-05;  1.0000000E+02;  0.0000000E+00;  0.0000000E+00;  1.0000000E+02;  0.0000000E+00;  1.0000000E+02;  2.5437501E-05;  0.0000000E+00;  1.1667505E-05;  0.0000000E+00;
  0.0000000E+00;  9.9999998E-03;  1.8000000E+00;113;  0.0000000E+00;  0.0000000E+00;  0.0000000E+00;  1.0000400E+01;  4.0000001E-01;  4.2967658E-02;0;  0.0000000E+00;  0.0000000E+00;  0.0000000E+00;  0.0000000E+00;  0.0000000E+00;  0.0000000E+00;0;  1.8005736E-05;  1.0000000E+02;  0.0000000E+00;  0.0000000E+00;  1.0000000E+02;  0.0000000E+00;  1.0000000E+02;  9.5390224E-06;  0.0000000E+00;  8.4667126E-06;  0.0000000E+00;
  0.0000000E+00;  9.9999998E-03;  2.0000000E+00;114;  0.0000000E+00;  0.0000000E+00;  0.0000000E+00;  1.0000150E+01;  4.0000001E-01;  1.6160971E-02;0;  0.0000000E+00;  0.0000000E+00;  0.0000000E+00;  0.0000000E+00;  0.0000000E+00;  0.0000000E+00;0;  5.7449488E-06;  1.0000000E+02;  0.0000000E+00;  0.0000000E+00;  1.0000000E+02;  0.0000000E+00;  1.0000000E+02;  1.4507934E-06;  0.0000000E+00;  4.2941551E-06;  0.0000000E+00;
  2.0000000E-01;  9.9999998E-03;  1.6000000E+00;122;  0.0000000E+00;  0.0000000E+00;  0.0000000E+00;  1.0000285E+01;  4.0000001E-01;  3.0654112E-02;0;  0.0000000E+00;  0.0000000E+00;  0.0000000E+00;  0.0000000E+00;  0.0000000E+00;  0.0000000E+00;0;  1.1890374E-04;  1.0000000E+02;  0.0000000E+00;  0.0000000E+00;  1.0000000E+02;  0.0000000E+00;  1.0000000E+02;  1.0314013E-04;  0.0000000E+00;  1.5763613E-05;  0.0000000E+00;
  2.0000000E-01;  9.9999998E-03;  1.8000000E+00;123;  0.0000000E+00;  0.0000000E+00;  0.0000000E+00;  1.0000189E+01;  4.0000001E-01;  2.0265061E-02;0;  0.0000000E+00;  0.0000000E+00;  0.0000000E+00;  0.0000000E+00;  0.0000000E+00;  0.0000000E+00;0;  6.2104315E-05;  1.0000000E+02;  0.0000000E+00;  0.0000000E+00;  1.0000000E+02;  0.0000000E+00;  1.0000000E+02;  5.0415849E-05;  0.0000000E+00;  1.1688468E-05;  0.0000000E+00;
  2.0000000E-01;  9.9999998E-03;  2.0000000E+00;124;  0.0000000E+00;  0.0000000E+00;  0.0000000E+00;  1.0000080E+01;  4.0000001E-01;  8.5934121E-03;0;  0.0000000E+00;  0.0000000E+00;  0.0000000E+00;  0.0000000E+00;  0.0000000E+00;  0.0000000E+00;0;  2.5156154E-05;  1.0000000E+02;  0.0000000E+00;  0.0000000E+00;  1.0000000E+02;  0.0000000E+00;  1.0000000E+02;  1.9011753E-05;  0.0000000E+00;  6.1444016E-06;  0.0000000E+00;
  4.0000001E-01;  9.9999998E-03;  1.6000000E+00;132;  0.0000000E+00;  0.0000000E+00;  0.0000000E+00;  1.0000000E+01;  4.0000001E-01;  0.0000000E+00;0;  0.0000000E+00;  0.0000000E+00;  0.0000000E+00;  0.0000000E+00;  0.0000000E+00;  0.0000000E+00;0;  2.7009507E-04;  1.0000000E+02;  0.0000000E+00;  0.0000000E+00;  1.0000000E+02;  0.0000000E+00;  1.0000000E+02;  2.5147275E-04;  0.0000000E+00;  1.8622304E-05;  0.0000000E+00;
  4.0000001E-01;  9.9999998E-03;  1.8000000E+00;133;  0.0000000E+00;  0.0000000E+00;  0.0000000E+00;  1.0000000E+01;  4.0000001E-01;  0.0000000E+00;0;  0.0000000E+00;  0.0000000E+00;  0.0000000E+00;  0.0000000E+00;  0.0000000E+00;  0.0000000E+00;0;  1.4641396E-04;  1.0000000E+02;  0.0000000E+00;  0.0000000E+00;  1.0000000E+02;  0.0000000E+00;  1.0000000E+02;  1.3232906E-04;  0.0000000E+00;  1.4084907E-05;  0.0000000E+00;
  4.0000001E-01;  9.9999998E-03;  2.0000000E+00;134;  0.0000000E+00;  0.0000000E+00;  0.0000000E+00;  1.0000000E+01;  4.0000001E-01;  0.0000000E+00;0;  0.0000000E+00;  0.0000000E+00;  0.0000000E+00;  0.0000000E+00;  0.0000000E+00;  0.0000000E+00;0;  6.4871958E-05;  1.0000000E+02;  0.0000000E+00;  0.0000000E+00;  1.0000000E+02;  0.0000000E+00;  1.0000000E+02;  5.7232155E-05;  0.0000000E+00;  7.6398001E-06;  0.0000000E+00;
  6.0000002E-01;  9.9999998E-03;  1.6000000E+00;142;  0.0000000E+00;  0.0000000E+00;  0.0000000E+00;  1.0000000E+01;  4.0000001E-01;  0.0000000E+00;0;  0.0000000E+00;  0.0000000E+00;  0.0000000E+00;  0.0000000E+00;  0.0000000E+00;  0.0000000E+00;0;  5.0992274E-04;  1.0000000E+02;  0.0000000E+00;  0.0000000E+00;  1.0000000E+02;  0.0000000E+00;  1.0000000E+02;  4.9074279E-04;  0.0000000E+00;  1.9179965E-05;  0.0000000E+00;
  6.0000002E-01;  9.9999998E-03;  1.8000000E+00;143;  0.0000000E+00;  0.0000000E+00;  0.0000000E+00;  1.0000000E+01;  4.0000001E-01;  0.0000000E+00;0;  0.0000000E+00;  0.0000000E+00;  0.0000000E+00;  0.0000000E+00;  0.0000000E+00;  0.0000000E+00;0;  2.8559240E-04;  1.0000000E+02;  0.0000000E+00;  0.0000000E+00;  1.0000000E+02;  0.0000000E+00;  1.0000000E+02;  2.7077712E-04;  0.0000000E+00;  1.4815276E-05;  0.0000000E+00;
  6.0000002E-01;  9.9999998E-03;  2.0000000E+00;144;  0.0000000E+00;  0.0000000E+00;  0.0000000E+00;  1.0000000E+01;  4.0000001E-01;  0.0000000E+00;0;  0.0000000E+00;  0.0000000E+00;  0.0000000E+00;  0.0000000E+00;  0.0000000E+00;  0.0000000E+00;0;  1.3493992E-04;  1.0000000E+02;  0.0000000E+00;  0.0000000E+00;  1.0000000E+02;  0.0000000E+00;  1.0000000E+02;  1.2655347E-04;  0.0000000E+00;  8.3864552E-06;  0.0000000E+00;
  8.0000001E-01;  9.9999998E-03;  1.6000000E+00;152;  0.0000000E+00;  0.0000000E+00;  0.0000000E+00;  1.0000000E+01;  4.0000001E-01;  0.0000000E+00;0;  0.0000000E+00;  0.0000000E+00;  0.0000000E+00;  0.0000000E+00;  0.0000000E+00;  0.0000000E+00;0;  8.1114593E-04;  1.0000000E+02;  0.0000000E+00;  0.0000000E+00;  1.0000000E+02;  0.0000000E+00;  1.0000000E+02;  7.9451833E-04;  0.0000000E+00;  1.6627600E-05;  0.0000000E+00;
  8.0000001E-01;  9.9999998E-03;  1.8000000E+00;153;  0.0000000E+00;  0.0000000E+00;  0.0000000E+00;  1.0000000E+01;  4.0000001E-01;  0.0000000E+00;0;  0.0000000E+00;  0.0000000E+00;  0.0000000E+00;  0.0000000E+00;  0.0000000E+00;  0.0000000E+00;0;  4.6609965E-04;  1.0000000E+02;  0.0000000E+00;  0.0000000E+00;  1.0000000E+02;  0.0000000E+00;  1.0000000E+02;  4.5305776E-04;  0.0000000E+00;  1.3041896E-05;  0.0000000E+00;
  8.0000001E-01;  9.9999998E-03;  2.0000000E+00;154;  0.0000000E+00;  0.0000000E+00;  0.0000000E+00;  1.0000000E+01;  4.0000001E-01;  0.0000000E+00;0;  0.0000000E+00;  0.0000000E+00;  0.0000000E+00;  0.0000000E+00;  0.0000000E+00;  0.0000000E+00;0;  2.3667963E-04;  1.0000000E+02;  0.0000000E+00;  0.0000000E+00;  1.0000000E+02;  0.0000000E+00;  1.0000000E+02;  2.2876894E-04;  0.0000000E+00;  7.9106767E-06;  0.0000000E+00;
  1.0000000E+00;  9.9999998E-03;  1.6000000E+00;162;  0.0000000E+00;  0.0000000E+00;  0.0000000E+00;  1.0000000E+01;  4.0000001E-01;  0.0000000E+00;0;  0.0000000E+00;  0.0000000E+00;  0.0000000E+00;  0.0000000E+00;  0.0000000E+00;  0.0000000E+00;0;  1.0975694E-03;  1.0000000E+02;  0.0000000E+00;  0.0000000E+00;  1.0000000E+02;  0.0000000E+00;  1.0000000E+02;  1.0882108E-03;  0.0000000E+00;  9.3584695E-06;  0.0000000E+00;
  1.0000000E+00;  9.9999998E-03;  1.8000000E+00;163;  0.0000000E+00;  0.0000000E+00;  0.0000000E+00;  1.0000000E+01;  4.0000001E-01;  0.0000000E+00;0;  0.0000000E+00;  0.0000000E+00;  0.0000000E+00;  0.0000000E+00;  0.0000000E+00;  0.0000000E+00;0;  6.3531054E-04;  1.0000000E+02;  0.0000000E+00;  0.0000000E+00;  1.0000000E+02;  0.0000000E+00;  1.0000000E+02;  6.2847434E-04;  0.0000000E+00;  6.8362247E-06;  0.0000000E+00;
  1.0000000E+00;  9.9999998E-03;  2.0000000E+00;164;  0.0000000E+00;  0.0000000E+00;  0.0000000E+00;  1.0000000E+01;  4.0000001E-01;  0.0000000E+00;0;  0.0000000E+00;  0.0000000E+00;  0.0000000E+00;  0.0000000E+00;  0.0000000E+00;  0.0000000E+00;0;  3.4141907E-04;  1.0000000E+02;  0.0000000E+00;  0.0000000E+00;  1.0000000E+02;  0.0000000E+00;  1.0000000E+02;  3.3700620E-04;  0.0000000E+00;  4.4128583E-06;  0.0000000E+00;
 -3.9245471E-04;  9.9999998E-03; -1.0000564E+00;165; -1.2584205E-04;  0.0000000E+00; -1.9606518E-06;  1.0000187E+01;  3.9990443E-01;  2.0137085E-02;3; -3.7574776E-02;  0.0000000E+00; -1.6479218E-02;  0.0000000E+00;  0.0000000E+00;  0.0000000E+00;0;  1.0008448E-04;  1.0005077E+02;  0.0000000E+00; -1.9843756E-04;  1.0000000E+02;  0.0000000E+00;  1.0000087E+02;  9.4292496E-05;  0.0000000E+00;  5.7919842E-06;  0.0000000E+00;
 -4.3642003E-04;  9.9999998E-03; -8.0004591E-01;166; -1.1873867E-04;  0.0000000E+00;  4.5582333E-06;  1.0000283E+01;  3.9987266E-01;  3.0526282E-02;3; -5.2984912E-02;  0.0000000E+00; -1.1775035E-02;  0.0000000E+00;  0.0000000E+00;  0.0000000E+00;0;  9.8384611E-05;  1.0006967E+02;  0.0000000E+00; -1.4113815E-04;  1.0000000E+02;  0.0000000E+00;  1.0000000E+02;  9.8904573E-05;  0.0000000E+00; -5.1995983E-07;  0.0000000E+00;
 -4.7421403E-04;  9.9999998E-03; -6.0003817E-01;167; -1.1162363E-04;  0.0000000E+00;  4.4531830E-06;  1.0000490E+01;  3.9984262E-01;  5.2715555E-02;3; -6.7953184E-02;  0.0000000E+00; -6.4936061E-03;  0.0000000E+00;  0.0000000E+00;  0.0000000E+00;0;  7.9087229E-05;  1.0008852E+02;  0.0000000E+00; -6.4106898E-05;  1.0000000E+02;  0.0000000E+00;  9.9998749E+01;  8.5558400E-05;  0.0000000E+00; -6.4711717E-06;  0.0000000E+00;
 -5.0320802E-04;  9.9999998E-03; -4.0002802E-01;168; -1.0543603E-04;  0.0000000E+00;  2.7985791E-06;  1.0000652E+01;  3.9981970E-01;  7.0159145E-02;3; -7.9439536E-02;  0.0000000E+00; -2.3309942E-03;  0.0000000E+00;  0.0000000E+00;  0.0000000E+00;0;  4.9016180E-05;  1.0010494E+02;  0.0000000E+00; -1.6027836E-05;  1.0000000E+02;  0.0000000E+00;  9.9998947E+01;  5.9859718E-05;  0.0000000E+00; -1.0843539E-05;  0.0000000E+00;
 -5.2116544E-04;  9.9999998E-03; -2.0001486E-01;169; -1.0126451E-04;  0.0000000E+00;  1.1868689E-06;  1.0000789E+01;  3.9980310E-01;  8.4909238E-02;3; -8.6824372E-02;  0.0000000E+00; -3.9577612E-04;  0.0000000E+00;  0.0000000E+00;  0.0000000E+00;0;  2.1678266E-05;  1.0011634E+02;  0.0000000E+00; -1.3878731E-06;  1.0000000E+02;  0.0000000E+00;  9.9998604E+01;  3.4938239E-05;  0.0000000E+00; -1.3259973E-05;  0.0000000E+00;
  1.9952057E-01;  9.9999998E-03; -9.9999928E-01;176; -1.6412885E-04;  0.0000000E+00;  3.9322171E-05;  9.9994907E+00;  3.9992025E-01; -5.4766975E-02;3; -3.3311784E-02;  0.0000000E+00; -3.0324619E-02;  0.0000000E+00;  0.0000000E+00;  0.0000000E+00;0;  3.2003369E-04;  1.0002946E+02;  0.0000000E+00; -8.4118993E-04;  1.0000000E+02;  0.0000000E+00;  1.0000108E+02;  3.1528511E-04;  0.0000000E+00;  4.7485719E-06;  0.0000000E+00;
  1.9946429E-01;  9.9999998E-03; -8.0000818E-01;177; -1.4992413E-04;  0.0000000E+00;  3.0011779E-05;  9.9994841E+00;  3.9989483E-01; -5.5536535E-02;3; -4.4618290E-02;  0.0000000E+00; -2.2136880E-02;  0.0000000E+00;  0.0000000E+00;  0.0000000E+00;0;  3.5303793E-04;  1.0004258E+02;  0.0000000E+00; -6.4943085E-04;  1.0000000E+02;  0.0000000E+00;  9.9999870E+01;  3.5509604E-04;  0.0000000E+00; -2.0581156E-06;  0.0000000E+00;
  1.9941744E-01;  9.9999998E-03; -6.0001510E-01;178; -1.3823707E-04;  0.0000000E+00;  2.0227842E-05;  9.9995861E+00;  3.9986703E-01; -4.4506185E-02;3; -5.5859763E-02;  0.0000000E+00; -1.3605686E-02;  0.0000000E+00;  0.0000000E+00;  0.0000000E+00;0;  3.4571608E-04;  1.0005879E+02;  0.0000000E+00; -3.4381999E-04;  1.0000000E+02;  0.0000000E+00;  9.9998962E+01;  3.5506621E-04;  0.0000000E+00; -9.3501230E-06;  0.0000000E+00;
  1.9938126E-01;  9.9999998E-03; -4.0001565E-01;179; -1.2973994E-04;  0.0000000E+00;  1.1843020E-05;  9.9997406E+00;  3.9984244E-01; -2.7896527E-02;3; -6.4933136E-02;  0.0000000E+00; -6.8585677E-03;  0.0000000E+00;  0.0000000E+00;  0.0000000E+00;0;  3.1212697E-04;  1.0007521E+02;  0.0000000E+00; -1.1339363E-04;  1.0000000E+02;  0.0000000E+00;  9.9998802E+01;  3.2658153E-04;  0.0000000E+00; -1.4454557E-05;  0.0000000E+00;
  1.9935857E-01;  9.9999998E-03; -2.0000978E-01;180; -1.2426529E-04;  0.0000000E+00;  5.1359148E-06;  9.9998684E+00;  3.9982343E-01; -1.4172719E-02;3; -7.0693836E-02;  0.0000000E+00; -2.5958682E-03;  0.0000000E+00;  0.0000000E+00;  0.0000000E+00;0;  2.7612763E-04;  1.0008769E+02;  0.0000000E+00; -1.6865542E-05;  1.0000000E+02;  0.0000000E+00;  9.9998436E+01;  2.9323448E-04;  0.0000000E+00; -1.7106851E-05;  0.0000000E+00;
  3.9949688E-01;  9.9999998E-03; -9.9998957E-01;187; -1.5763930E-04;  0.0000000E+00;  4.4109849E-05;  9.9986715E+00;  3.9997366E-01; -1.4294122E-01;3; -6.6729687E-02;  0.0000000E+00; -1.1971137E-01;  0.0000000E+00;  0.0000000E+00;  0.0000000E+00;0;  7.1076560E-04;  9.9986282E+01;  0.0000000E+00; -2.2185931E-03;  1.0000000E+02;  0.0000000E+00;  1.0000108E+02;  7.0703245E-04;  0.0000000E+00;  3.7331502E-06;  0.0000000E+00;
  3.9939249E-01;  9.9999998E-03; -7.9997975E-01;188; -1.6009796E-04;  0.0000000E+00;  3.8718201E-05;  9.9985247E+00;  3.9996171E-01; -1.5871671E-01;3; -7.5037338E-02;  0.0000000E+00; -9.3262434E-02;  0.0000000E+00;  0.0000000E+00;  0.0000000E+00;0;  7.9260353E-04;  9.9990227E+01;  0.0000000E+00; -1.8583110E-03;  1.0000000E+02;  0.0000000E+00;  9.9999763E+01;  7.9696585E-04;  0.0000000E+00; -4.3623259E-06;  0.0000000E+00;
  3.9931995E-01;  9.9999998E-03; -5.9998924E-01;189; -1.5480076E-04;  0.0000000E+00;  2.5921589E-05;  9.9985561E+00;  3.9994106E-01; -1.5531792E-01;3; -8.2841553E-02;  0.0000000E+00; -6.1622810E-02;  0.0000000E+00;  0.0000000E+00;  0.0000000E+00;0;  8.0313813E-04;  1.0000134E+02;  0.0000000E+00; -1.1032580E-03;  1.0000000E+02;  0.0000000E+00;  9.9999260E+01;  8.1513252E-04;  0.0000000E+00; -1.1994414E-05;  0.0000000E+00;
  3.9926773E-01;  9.9999998E-03; -3.9999634E-01;190; -1.4942045E-04;  0.0000000E+00;  1.5483420E-05;  9.9986820E+00;  3.9991680E-01; -1.4178692E-01;3; -8.9283787E-02;  0.0000000E+00; -3.4491025E-02;  0.0000000E+00;  0.0000000E+00;  0.0000000E+00;0;  7.6504826E-04;  1.0001646E+02;  0.0000000E+00; -4.2742895E-04;  1.0000000E+02;  0.0000000E+00;  9.9998520E+01;  7.8200514E-04;  0.0000000E+00; -1.6956874E-05;  0.0000000E+00;
  3.9923683E-01;  9.9999998E-03; -1.9999924E-01;191; -1.4528848E-04;  0.0000000E+00;  7.0541796E-06;  9.9988089E+00;  3.9989665E-01; -1.2812766E-01;3; -9.3398146E-02;  0.0000000E+00; -1.4772420E-02;  0.0000000E+00;  0.0000000E+00;  0.0000000E+00;0;  7.1725535E-04;  1.0002964E+02;  0.0000000E+00; -8.1780592E-05;  1.0000000E+02;  0.0000000E+00;  9.9998367E+01;  7.3657685E-04;  0.0000000E+00; -1.9321533E-05;  0.0000000E+00;
  5.9955132E-01;  9.9999998E-03; -1.0000052E+00;198; -1.2054926E-04;  0.0000000E+00;  5.5818087E-05;  9.9977398E+00;  4.0008387E-01; -2.4315643E-01;3; -6.4871088E-02;  0.0000000E+00; -1.3496585E-01;  0.0000000E+00;  0.0000000E+00;  0.0000000E+00;0;  1.3021014E-03;  9.9913078E+01;  0.0000000E+00; -3.8963028E-03;  1.0000000E+02;  0.0000000E+00;  1.0000097E+02;  1.3031224E-03;  0.0000000E+00; -1.0209660E-06;  0.0000000E+00;
  5.9937400E-01;  9.9999998E-03; -7.9996675E-01;199; -1.4302945E-04;  0.0000000E+00;  4.3242453E-05;  9.9975119E+00;  4.0008610E-01; -2.6765168E-01;3; -5.7711344E-02;  0.0000000E+00; -1.0605989E-01;  0.0000000E+00;  0.0000000E+00;  0.0000000E+00;0;  1.4381604E-03;  9.9907974E+01;  0.0000000E+00; -3.6264537E-03;  1.0000000E+02;  0.0000000E+00;  9.9999397E+01;  1.4456504E-03;  0.0000000E+00; -7.4899108E-06;  0.0000000E+00;
  5.9926480E-01;  9.9999998E-03; -5.9997147E-01;200; -1.4796569E-04;  0.0000000E+00;  2.6245787E-05;  9.9975023E+00;  4.0007550E-01; -2.6867765E-01;3; -5.2488960E-02;  0.0000000E+00; -6.8549104E-02;  0.0000000E+00;  0.0000000E+00;  0.0000000E+00;0;  1.4626670E-03;  9.9913437E+01;  0.0000000E+00; -2.4466524E-03;  1.0000000E+02;  0.0000000E+00;  9.9998657E+01;  1.4764235E-03;  0.0000000E+00; -1.3756451E-05;  0.0000000E+00;
  5.9918946E-01;  9.9999998E-03; -3.9998052E-01;201; -1.5098478E-04;  0.0000000E+00;  1.4130518E-05;  9.9976177E+00;  4.0005308E-01; -2.5630182E-01;3; -5.1089037E-02;  0.0000000E+00; -3.7864078E-02;  0.0000000E+00;  0.0000000E+00;  0.0000000E+00;0;  1.4121929E-03;  9.9927666E+01;  0.0000000E+00; -1.0735505E-03;  1.0000000E+02;  0.0000000E+00;  9.9998360E+01;  1.4299473E-03;  0.0000000E+00; -1.7754361E-05;  0.0000000E+00;
  5.9914732E-01;  9.9999998E-03; -1.9999003E-01;202; -1.5209237E-04;  0.0000000E+00;  6.1128590E-06;  9.9977579E+00;  4.0003112E-01; -2.4123281E-01;3; -5.1244706E-02;  0.0000000E+00; -1.6203407E-02;  0.0000000E+00;  0.0000000E+00;  0.0000000E+00;0;  1.3448818E-03;  9.9942062E+01;  0.0000000E+00; -2.3477200E-04;  1.0000000E+02;  0.0000000E+00;  9.9998360E+01;  1.3644884E-03;  0.0000000E+00; -1.9606556E-05;  0.0000000E+00;
  7.9973257E-01;  9.9999998E-03; -1.0000474E+00;209;  1.1132201E-04;  0.0000000E+00;  7.8383702E-05;  9.9968472E+00;  4.0028474E-01; -3.3916140E-01;3; -7.0850343E-02;  0.0000000E+00; -1.3459735E-01;  0.0000000E+00;  0.0000000E+00;  0.0000000E+00;0;  2.1201298E-03;  9.9796890E+01;  0.0000000E+00; -4.4045304E-03;  1.0000000E+02;  0.0000000E+00;  9.9997879E+01;  2.1338568E-03;  0.0000000E+00; -1.3727033E-05;  0.0000000E+00;
  7.9951012E-01;  9.9999998E-03; -8.0001241E-01;210; -5.6834109E-05;  0.0000000E+00;  4.5313245E-05;  9.9965906E+00;  4.0029550E-01; -3.6673042E-01;3; -5.3162303E-02;  0.0000000E+00; -1.0413492E-01;  0.0000000E+00;  0.0000000E+00;  0.0000000E+00;0;  2.2575189E-03;  9.9786919E+01;  0.0000000E+00; -5.1264591E-03;  1.0000000E+02;  0.0000000E+00;  9.9997322E+01;  2.2679823E-03;  0.0000000E+00; -1.0463380E-05;  0.0000000E+00;
  7.9929805E-01;  9.9999998E-03; -5.9998149E-01;211; -7.0695518E-05;  0.0000000E+00;  1.8666347E-05;  9.9965734E+00;  4.0028599E-01; -3.6858979E-01;3; -3.4326229E-02;  0.0000000E+00; -6.6582017E-02;  0.0000000E+00;  0.0000000E+00;  0.0000000E+00;0;  2.2885140E-03;  9.9791672E+01;  0.0000000E+00; -4.0164990E-03;  1.0000000E+02;  0.0000000E+00;  9.9996979E+01;  2.3014389E-03;  0.0000000E+00; -1.2924894E-05;  0.0000000E+00;
  7.9915583E-01;  9.9999998E-03; -3.9997691E-01;212; -1.2504698E-04;  0.0000000E+00;  1.0152581E-05;  9.9967041E+00;  4.0026197E-01; -3.5454893E-01;3; -2.6411429E-02;  0.0000000E+00; -3.6434744E-02;  0.0000000E+00;  0.0000000E+00;  0.0000000E+00;0;  2.2195105E-03;  9.9806686E+01;  0.0000000E+00; -1.9775329E-03;  1.0000000E+02;  0.0000000E+00;  9.9997070E+01;  2.2362792E-03;  0.0000000E+00; -1.6768628E-05;  0.0000000E+00;
  7.9909188E-01;  9.9999998E-03; -1.9998689E-01;213; -1.4456116E-04;  0.0000000E+00;  3.9200499E-06;  9.9968576E+00;  4.0023455E-01; -3.3800760E-01;3; -2.3303851E-02;  0.0000000E+00; -1.5462160E-02;  0.0000000E+00;  0.0000000E+00;  0.0000000E+00;0;  2.1328470E-03;  9.9822639E+01;  0.0000000E+00; -4.7130417E-04;  1.0000000E+02;  0.0000000E+00;  9.9997665E+01;  2.1519260E-03;  0.0000000E+00; -1.9079065E-05;  0.0000000E+00;
  1.0001496E+00;  9.9999998E-03; -1.0000484E+00;220;  2.2122399E-03;  0.0000000E+00; -4.8695354E-05;  9.9953594E+00;  4.0058398E-01; -4.9901864E-01;3; -6.9598787E-02;  0.0000000E+00; -1.2109952E-01;  0.0000000E+00;  0.0000000E+00;  0.0000000E+00;0;  3.9412547E-03;  9.9621048E+01;  0.0000000E+00; -3.0112097E-03;  1.0000000E+02;  0.0000000E+00;  9.9996498E+01;  3.9012814E-03;  0.0000000E+00;  3.9973205E-05;  0.0000000E+00;
  1.0002654E+00;  9.9999998E-03; -8.0005574E-01;221;  1.5338953E-03;  0.0000000E+00;  3.8272403E-05;  9.9954672E+00;  4.0064049E-01; -4.8741788E-01;3; -6.4760201E-02;  0.0000000E+00; -9.2569523E-02;  0.0000000E+00;  0.0000000E+00;  0.0000000E+00;0;  3.5376025E-03;  9.9597542E+01;  0.0000000E+00; -7.9014022E-03;  1.0000000E+02;  0.0000000E+00;  9.9992348E+01;  3.5452042E-03;  0.0000000E+00; -7.6016731E-06;  0.0000000E+00;
  1.0000503E+00;  9.9999998E-03; -6.0007441E-01;222;  1.7471982E-03;  0.0000000E+00; -6.0977873E-05;  9.9956236E+00;  4.0061727E-01; -4.7056201E-01;3; -3.0493934E-02;  0.0000000E+00; -5.4713670E-02;  0.0000000E+00;  0.0000000E+00;  0.0000000E+00;0;  3.4557702E-03;  9.9614624E+01;  0.0000000E+00; -6.5066796E-03;  1.0000000E+02;  0.0000000E+00;  9.9990448E+01;  3.4454630E-03;  0.0000000E+00;  1.0307087E-05;  0.0000000E+00;
  9.9932629E-01;  9.9999998E-03; -4.0000859E-01;223;  7.5554295E-04;  0.0000000E+00; -8.2006700E-05;  9.9959545E+00;  4.0056449E-01; -4.3499184E-01;3; -1.0817069E-02;  0.0000000E+00; -3.0593185E-02;  0.0000000E+00;  0.0000000E+00;  0.0000000E+00;0;  3.2206771E-03;  9.9643471E+01;  0.0000000E+00; -2.8800308E-03;  1.0000000E+02;  0.0000000E+00;  9.9994545E+01;  3.2232930E-03;  0.0000000E+00; -2.6158259E-06;  0.0000000E+00;
  9.9906760E-01;  9.9999998E-03; -1.9998586E-01;224; -1.0249618E-04;  0.0000000E+00; -4.5459769E-06;  9.9961205E+00;  4.0053287E-01; -4.1717452E-01;3; -8.6442363E-03;  0.0000000E+00; -1.3043321E-02;  0.0000000E+00;  0.0000000E+00;  0.0000000E+00;0;  3.0880605E-03;  9.9660690E+01;  0.0000000E+00; -7.0547720E-04;  1.0000000E+02;  0.0000000E+00;  9.9996101E+01;  3.1073375E-03;  0.0000000E+00; -1.9276880E-05;  0.0000000E+00;
  1.2008502E+00;  9.9999998E-03; -1.0000693E+00;231;  2.8637412E-03;  0.0000000E+00;  2.2692095E-05;  9.9946585E+00;  4.0103492E-01; -5.7395488E-01;3; -7.5068437E-02;  0.0000000E+00; -9.0925254E-02;  0.0000000E+00;  0.0000000E+00;  0.0000000E+00;0;  5.0272145E-03;  9.9388382E+01;  0.0000000E+00; -3.5035014E-03;  1.0000000E+02;  0.0000000E+00;  9.9990555E+01;  5.0227102E-03;  0.0000000E+00;  4.5045522E-06;  0.0000000E+00;
  1.2006123E+00;  9.9999998E-03; -8.0002868E-01;232;  1.7774500E-03;  0.0000000E+00;  9.7466247E-05;  9.9952402E+00;  4.0105593E-01; -5.1144940E-01;3; -5.1986970E-02;  0.0000000E+00; -7.7410832E-02;  0.0000000E+00;  0.0000000E+00;  0.0000000E+00;0;  4.5195315E-03;  9.9389168E+01;  0.0000000E+00; -7.3430310E-03;  1.0000000E+02;  0.0000000E+00;  9.9990143E+01;  4.5536845E-03;  0.0000000E+00; -3.4152912E-05;  0.0000000E+00;
  1.2007762E+00;  9.9999998E-03; -6.0009634E-01;233;  2.7172838E-03;  0.0000000E+00;  1.2123657E-05;  9.9951181E+00;  4.0106350E-01; -5.2451372E-01;3; -3.0419324E-02;  0.0000000E+00; -3.7918407E-02;  0.0000000E+00;  0.0000000E+00;  0.0000000E+00;0;  4.6235346E-03;  9.9390686E+01;  0.0000000E+00; -8.6862994E-03;  1.0000000E+02;  0.0000000E+00;  9.9983002E+01;  4.6172943E-03;  0.0000000E+00;  6.2400991E-06;  0.0000000E+00;
  1.2000135E+00;  9.9999998E-03; -4.0003678E-01;234;  2.4122770E-03;  0.0000000E+00; -8.1697501E-05;  9.9953222E+00;  4.0099898E-01; -5.0261307E-01;3; -7.2261174E-03;  0.0000000E+00; -2.0917062E-02;  0.0000000E+00;  0.0000000E+00;  0.0000000E+00;0;  4.4586770E-03;  9.9419525E+01;  0.0000000E+00; -3.6817915E-03;  1.0000000E+02;  0.0000000E+00;  9.9989403E+01;  4.4490811E-03;  0.0000000E+00;  9.5957676E-06;  0.0000000E+00;
  1.1993217E+00;  9.9999998E-03; -1.9996230E-01;235;  1.2087114E-03;  0.0000000E+00;  1.7919459E-05;  9.9954748E+00;  4.0096185E-01; -4.8621976E-01;3; -5.8099988E-04;  0.0000000E+00; -9.3155736E-03;  0.0000000E+00;  0.0000000E+00;  0.0000000E+00;0;  4.3090531E-03;  9.9436104E+01;  0.0000000E+00; -8.2570728E-04;  1.0000000E+02;  0.0000000E+00;  9.9994179E+01;  4.3308288E-03;  0.0000000E+00; -2.1775719E-05;  0.0000000E+00;
  1.4015285E+00;  9.9999998E-03; -1.0000895E+00;242;  3.7251266E-03;  0.0000000E+00; -8.8754728E-05;  9.9946051E+00;  4.0155184E-01; -5.7868654E-01;3; -5.6933559E-02;  0.0000000E+00; -5.7643130E-02;  0.0000000E+00;  0.0000000E+00;  0.0000000E+00;0;  6.2854094E-03;  9.9138046E+01;  0.0000000E+00; -2.7759552E-03;  1.0000000E+02;  0.0000000E+00;  9.9983856E+01;  6.1615715E-03;  0.0000000E+00;  1.2383806E-04;  0.0000000E+00;
  1.4011713E+00;  9.9999998E-03; -8.0001462E-01;243;  2.6181170E-03;  0.0000000E+00;  2.4382984E-05;  9.9948702E+00;  4.0157935E-01; -5.5023730E-01;3; -3.7357736E-02;  0.0000000E+00; -5.2360628E-02;  0.0000000E+00;  0.0000000E+00;  0.0000000E+00;0;  5.9129097E-03;  9.9126701E+01;  0.0000000E+00; -6.1196038E-03;  1.0000000E+02;  0.0000000E+00;  9.9986572E+01;  5.8805556E-03;  0.0000000E+00;  3.2354277E-05;  0.0000000E+00;
  1.4012837E+00;  9.9999998E-03; -6.0005099E-01;244;  3.0979025E-03;  0.0000000E+00;  4.6738907E-05;  9.9947720E+00;  4.0161762E-01; -5.6078607E-01;3; -2.2276945E-02;  0.0000000E+00; -2.4508635E-02;  0.0000000E+00;  0.0000000E+00;  0.0000000E+00;0;  5.9987148E-03;  9.9114471E+01;  0.0000000E+00; -8.2267784E-03;  1.0000000E+02;  0.0000000E+00;  9.9977402E+01;  5.9782811E-03;  0.0000000E+00;  2.0433479E-05;  0.0000000E+00;
  1.4005218E+00;  9.9999998E-03; -3.9999580E-01;245;  2.8623696E-03;  0.0000000E+00; -4.8859165E-05;  9.9947939E+00;  4.0158311E-01; -5.5842549E-01;3; -6.0098469E-03;  0.0000000E+00; -1.3291944E-02;  0.0000000E+00;  0.0000000E+00;  0.0000000E+00;0;  5.9805373E-03;  9.9125946E+01;  0.0000000E+00; -3.4278471E-03;  1.0000000E+02;  0.0000000E+00;  9.9984299E+01;  5.9523620E-03;  0.0000000E+00;  2.8175422E-05;  0.0000000E+00;
  1.3998069E+00;  9.9999998E-03; -1.9994813E-01;246;  2.1989129E-03;  0.0000000E+00;  2.4809726E-05;  9.9948416E+00;  4.0156224E-01; -5.5331522E-01;3;  3.7402179E-04;  0.0000000E+00; -5.5833501E-03;  0.0000000E+00;  0.0000000E+00;  0.0000000E+00;0;  5.9273359E-03;  9.9130600E+01;  0.0000000E+00; -7.4510509E-04;  1.0000000E+02;  0.0000000E+00;  9.9989586E+01;  5.9406902E-03;  0.0000000E+00; -1.3354176E-05;  0.0000000E+00;
  1.6025035E+00;  9.9999998E-03; -1.0001338E+00;253;  4.9564363E-03;  0.0000000E+00; -3.7360878E-05;  9.9944572E+00;  4.0218028E-01; -5.9238631E-01;3; -4.4367660E-02;  0.0000000E+00; -3.2458972E-02;  0.0000000E+00;  0.0000000E+00;  0.0000000E+00;0;  7.6452000E-03;  9.8834633E+01;  0.0000000E+00; -3.6460611E-03;  1.0000000E+02;  0.0000000E+00;  9.9974174E+01;  7.5855041E-03;  0.0000000E+00;  5.9695831E-05;  0.0000000E+00;
  1.6019213E+00;  9.9999998E-03; -8.0002910E-01;254;  3.4488766E-03;  0.0000000E+00;  1.1251426E-05;  9.9945135E+00;  4.0224457E-01; -5.8640689E-01;3; -1.8870762E-02;  0.0000000E+00; -2.6709026E-02;  0.0000000E+00;  0.0000000E+00;  0.0000000E+00;0;  7.6198974E-03;  9.8801132E+01;  0.0000000E+00; -4.1283411E-03;  1.0000000E+02;  0.0000000E+00;  9.9976952E+01;  7.5407969E-03;  0.0000000E+00;  7.9100653E-05;  0.0000000E+00;
  1.6017798E+00;  9.9999998E-03; -5.9999132E-01;255;  3.6731428E-03;  0.0000000E+00;  8.7054439E-05;  9.9943180E+00;  4.0231806E-01; -6.0730445E-01;3; -1.2819828E-02;  0.0000000E+00; -1.2885844E-02;  0.0000000E+00;  0.0000000E+00;  0.0000000E+00;0;  7.8630559E-03;  9.8768135E+01;  0.0000000E+00; -5.4092030E-03;  1.0000000E+02;  0.0000000E+00;  9.9969666E+01;  7.8091193E-03;  0.0000000E+00;  5.3936856E-05;  0.0000000E+00;
  1.6009784E+00;  9.9999998E-03; -3.9994562E-01;256;  3.0839304E-03;  0.0000000E+00;  4.9455997E-05;  9.9942093E+00;  4.0233952E-01; -6.1891162E-01;3; -4.7020293E-03;  0.0000000E+00; -6.0795243E-03;  0.0000000E+00;  0.0000000E+00;  0.0000000E+00;0;  8.0155618E-03;  9.8752396E+01;  0.0000000E+00; -2.2218323E-03;  1.0000000E+02;  0.0000000E+00;  9.9972763E+01;  7.9562683E-03;  0.0000000E+00;  5.9293397E-05;  0.0000000E+00;
  1.6003644E+00;  9.9999998E-03; -1.9993712E-01;257;  2.6535082E-03;  0.0000000E+00;  4.3636861E-05;  9.9941397E+00;  4.0235573E-01; -6.2637514E-01;3; -1.0969813E-03;  0.0000000E+00; -2.3622815E-03;  0.0000000E+00;  0.0000000E+00;  0.0000000E+00;0;  8.1048282E-03;  9.8739220E+01;  0.0000000E+00; -4.7580831E-04;  1.0000000E+02;  0.0000000E+00;  9.9976845E+01;  8.0745881E-03;  0.0000000E+00;  3.0239878E-05;  0.0000000E+00;
  1.8035895E+00;  9.9999998E-03; -1.0002334E+00;264;  6.7229588E-03;  0.0000000E+00; -1.2899103E-04;  9.9942513E+00;  4.0292430E-01; -6.0975432E-01;3; -2.0220576E-02;  0.0000000E+00; -1.2892677E-02;  0.0000000E+00;  0.0000000E+00;  0.0000000E+00;0;  9.5464466E-03;  9.8482513E+01;  0.0000000E+00; -1.6597691E-03;  1.0000000E+02;  0.0000000E+00;  9.9957191E+01;  9.4148358E-03;  0.0000000E+00;  1.3161081E-04;  0.0000000E+00;
  1.8035233E+00;  9.9999998E-03; -8.0007619E-01;265;  4.8652734E-03;  0.0000000E+00;  1.1836561E-05;  9.9940720E+00;  4.0307057E-01; -6.2878561E-01;3; -1.1635949E-02;  0.0000000E+00; -1.2310144E-02;  0.0000000E+00;  0.0000000E+00;  0.0000000E+00;0;  9.7875698E-03;  9.8406128E+01;  0.0000000E+00; -5.1612579E-03;  1.0000000E+02;  0.0000000E+00;  9.9959152E+01;  9.6749552E-03;  0.0000000E+00;  1.1261471E-04;  0.0000000E+00;
  1.8026872E+00;  9.9999998E-03; -5.9993196E-01;266;  5.1100291E-03;  0.0000000E+00;  1.3289425E-04;  9.9937992E+00;  4.0316504E-01; -6.5770620E-01;3; -4.6395576E-03;  0.0000000E+00; -5.7802279E-03;  0.0000000E+00;  0.0000000E+00;  0.0000000E+00;0;  1.0247714E-02;  9.8357658E+01;  0.0000000E+00; -2.7211066E-03;  1.0000000E+02;  0.0000000E+00;  9.9955887E+01;  1.0122112E-02;  0.0000000E+00;  1.2560158E-04;  0.0000000E+00;
  1.8015810E+00;  9.9999998E-03; -3.9986572E-01;267;  3.7065453E-03;  0.0000000E+00;  1.8931391E-04;  9.9935989E+00;  4.0325412E-01; -6.7898870E-01;3; -1.8747894E-03;  0.0000000E+00; -2.1233601E-03;  0.0000000E+00;  0.0000000E+00;  0.0000000E+00;0;  1.0571891E-02;  9.8315567E+01;  0.0000000E+00; -9.2502969E-04;  1.0000000E+02;  0.0000000E+00;  9.9950531E+01;  1.0432355E-02;  0.0000000E+00;  1.3953535E-04;  0.0000000E+00;
  1.8010223E+00;  9.9999998E-03; -1.9991690E-01;268;  3.0990874E-03;  0.0000000E+00;  9.4308511E-05;  9.9934549E+00;  4.0331599E-01; -6.9430983E-01;3; -7.2830723E-04;  0.0000000E+00; -5.5271049E-04;  0.0000000E+00;  0.0000000E+00;  0.0000000E+00;0;  1.0823823E-02;  9.8284157E+01;  0.0000000E+00; -1.8851280E-04;  1.0000000E+02;  0.0000000E+00;  9.9948799E+01;  1.0674975E-02;  0.0000000E+00;  1.4884802E-04;  0.0000000E+00;
  2.0065989E+00;  9.9999998E-03; -1.0004430E+00;275;  6.5408298E-03;  0.0000000E+00; -3.1238698E-04;  9.9940109E+00;  4.0383708E-01; -6.2567532E-01;3; -7.5977514E-03;  0.0000000E+00; -5.0559086E-03;  0.0000000E+00;  0.0000000E+00;  0.0000000E+00;0;  1.1643212E-02;  9.8068947E+01;  0.0000000E+00; -8.2890196E-03;  1.0000000E+02;  0.0000000E+00;  9.9920570E+01;  1.1377916E-02;  0.0000000E+00;  2.6529672E-04;  0.0000000E+00;
  2.0063486E+00;  9.9999998E-03; -8.0020607E-01;276;  9.1495235E-03;  0.0000000E+00; -8.9818197E-05;  9.9936600E+00;  4.0397283E-01; -6.6236812E-01;3; -2.7551313E-03;  0.0000000E+00; -4.2111892E-03;  0.0000000E+00;  0.0000000E+00;  0.0000000E+00;0;  1.2360306E-02;  9.7994446E+01;  0.0000000E+00; -5.5450662E-03;  1.0000000E+02;  0.0000000E+00;  9.9922241E+01;  1.2101681E-02;  0.0000000E+00;  2.5862569E-04;  0.0000000E+00;
  2.0046813E+00;  9.9999998E-03; -5.9992892E-01;277;  7.6745520E-03;  0.0000000E+00;  1.6269390E-04;  9.9934063E+00;  4.0409833E-01; -6.8894702E-01;3;  1.5063270E-03;  0.0000000E+00; -1.7308432E-03;  0.0000000E+00;  0.0000000E+00;  0.0000000E+00;0;  1.2853782E-02;  9.7929718E+01;  0.0000000E+00; -1.4164512E-03;  1.0000000E+02;  0.0000000E+00;  9.9922218E+01;  1.2580211E-02;  0.0000000E+00;  2.7357051E-04;  0.0000000E+00;
  2.0032787E+00;  9.9999998E-03; -3.9982486E-01;278;  5.6489133E-03;  0.0000000E+00;  2.7269576E-04;  9.9931402E+00;  4.0425080E-01; -7.1688586E-01;3;  6.1431527E-04;  0.0000000E+00; -2.3054946E-04;  0.0000000E+00;  0.0000000E+00;  0.0000000E+00;0;  1.3386042E-02;  9.7866379E+01;  0.0000000E+00; -3.1581576E-04;  1.0000000E+02;  0.0000000E+00;  9.9905029E+01;  1.3036606E-02;  0.0000000E+00;  3.4943601E-04;  0.0000000E+00;
  2.0025847E+00;  9.9999998E-03; -1.9990654E-01;279;  4.9278713E-03;  0.0000000E+00;  1.3204225E-04;  9.9929438E+00;  4.0435487E-01; -7.3742944E-01;3;  7.1288581E-04;  0.0000000E+00;  1.0307022E-04;  0.0000000E+00;  0.0000000E+00;  0.0000000E+00;0;  1.3778714E-02;  9.7820999E+01;  0.0000000E+00; -4.3505384E-05;  1.0000000E+02;  0.0000000E+00;  9.9896431E+01;  1.3377707E-02;  0.0000000E+00;  4.0100640E-04;  0.0000000E+00;
  2.2091424E+00;  9.9999998E-03; -1.0008273E+00;286;  1.2192037E-02;  0.0000000E+00; -7.0427003E-04;  9.9936867E+00;  4.0474099E-01; -6.4257932E-01;3;  4.7005832E-04;  0.0000000E+00; -1.0515476E-03;  0.0000000E+00;  0.0000000E+00;  0.0000000E+00;0;  1.4362119E-02;  9.7696190E+01;  0.0000000E+00; -3.5283272E-03;  1.0000000E+02;  0.0000000E+00;  9.9847618E+01;  1.3743497E-02;  0.0000000E+00;  6.1862211E-04;  0.0000000E+00;
  2.2081485E+00;  9.9999998E-03; -8.0049521E-01;287;  1.1351800E-02;  0.0000000E+00; -4.0240175E-04;  9.9934778E+00;  4.0488657E-01; -6.6391641E-01;3;  3.1309940E-03;  0.0000000E+00; -1.4361029E-03;  0.0000000E+00;  0.0000000E+00;  0.0000000E+00;0;  1.4879491E-02;  9.7621803E+01;  0.0000000E+00; -1.3988944E-03;  1.0000000E+02;  0.0000000E+00;  9.9847969E+01;  1.4228588E-02;  0.0000000E+00;  6.5090362E-04;  0.0000000E+00;
  2.2074323E+00;  9.9999998E-03; -6.0009581E-01;288;  1.0840298E-02;  0.0000000E+00;  3.7855469E-05;  9.9932213E+00;  4.0503916E-01; -6.9014537E-01;3;  4.4997805E-03;  0.0000000E+00;  8.6905103E-04;  0.0000000E+00;  0.0000000E+00;  0.0000000E+00;0;  1.5389744E-02;  9.7542519E+01;  0.0000000E+00; -4.3018305E-04;  1.0000000E+02;  0.0000000E+00;  9.9847969E+01;  1.4769079E-02;  0.0000000E+00;  6.2066480E-04;  0.0000000E+00;
  2.2070580E+00;  9.9999998E-03; -3.9988050E-01;289;  1.0716042E-02;  0.0000000E+00;  2.7890800E-04;  9.9929647E+00;  4.0522471E-01; -7.1628100E-01;3;  5.2620838E-03;  0.0000000E+00;  3.1154318E-04;  0.0000000E+00;  0.0000000E+00;  0.0000000E+00;0;  1.6022459E-02;  9.7470154E+01;  0.0000000E+00; -7.4362171E-05;  1.0000000E+02;  0.0000000E+00;  9.9826241E+01;  1.5282374E-02;  0.0000000E+00;  7.4008538E-04;  0.0000000E+00;
  2.2069573E+00;  9.9999998E-03; -1.9993140E-01;290;  1.0810883E-02;  0.0000000E+00;  1.4469132E-04;  9.9927626E+00;  4.0535101E-01; -7.3686528E-01;3;  5.6220694E-03;  0.0000000E+00;  1.4090951E-04;  0.0000000E+00;  0.0000000E+00;  0.0000000E+00;0;  1.6494945E-02;  9.7419106E+01;  0.0000000E+00;  1.5747016E-06;  1.0000000E+02;  0.0000000E+00;  9.9811729E+01;  1.5654301E-02;  0.0000000E+00;  8.4064348E-04;  0.0000000E+00;
  2.4096653E+00;  9.9999998E-03; -1.0014454E+00;297;  1.2358072E-02;  0.0000000E+00; -1.3706497E-03;  9.9934559E+00;  4.0576836E-01; -6.4273691E-01;3;  2.8693450E-03;  0.0000000E+00; -8.8391692E-04;  0.0000000E+00;  0.0000000E+00;  0.0000000E+00;0;  1.7176330E-02;  9.7320869E+01;  0.0000000E+00; -9.8246666E-05;  1.0000000E+02;  0.0000000E+00;  9.9721710E+01;  1.5890213E-02;  0.0000000E+00;  1.2861167E-03;  0.0000000E+00;
  2.4098980E+00;  9.9999998E-03; -8.0101281E-01;298;  1.3075786E-02;  0.0000000E+00; -7.0590241E-04;  9.9933949E+00;  4.0588927E-01; -6.4873809E-01;3;  4.4474876E-03;  0.0000000E+00; -1.8336803E-03;  0.0000000E+00;  0.0000000E+00;  0.0000000E+00;0;  1.7217739E-02;  9.7262589E+01;  0.0000000E+00; -1.0009442E-04;  1.0000000E+02;  0.0000000E+00;  9.9720566E+01;  1.6234437E-02;  0.0000000E+00;  9.8330132E-04;  0.0000000E+00;
  2.4103642E+00;  9.9999998E-03; -6.0052520E-01;299;  1.4278006E-02;  0.0000000E+00; -6.3430518E-04;  9.9930878E+00;  4.0600947E-01; -6.7882586E-01;3;  6.5126964E-03;  0.0000000E+00;  4.0006852E-03;  0.0000000E+00;  0.0000000E+00;  0.0000000E+00;0;  1.8092057E-02;  9.7200500E+01;  0.0000000E+00; -1.0121274E-05;  1.0000000E+02;  0.0000000E+00;  9.9719231E+01;  1.6618546E-02;  0.0000000E+00;  1.4735110E-03;  0.0000000E+00;
  2.4110637E+00;  9.9999998E-03; -4.0004483E-01;300;  1.5876485E-02;  0.0000000E+00;  1.1993604E-04;  9.9930105E+00;  4.0613765E-01; -6.8628544E-01;3;  8.7940786E-03;  0.0000000E+00;  4.9161096E-04;  0.0000000E+00;  0.0000000E+00;  0.0000000E+00;0;  1.8336622E-02;  9.7144470E+01;  0.0000000E+00;  2.0357502E-05;  1.0000000E+02;  0.0000000E+00;  9.9711929E+01;  1.6981503E-02;  0.0000000E+00;  1.3551195E-03;  0.0000000E+00;
  2.4116325E+00;  9.9999998E-03; -1.9999976E-01;301;  1.7128132E-02;  0.0000000E+00;  8.8901354E-05;  9.9928675E+00;  4.0625459E-01; -7.0025605E-01;3;  1.0493103E-02;  0.0000000E+00;  2.6219545E-04;  0.0000000E+00;  0.0000000E+00;  0.0000000E+00;0;  1.8737501E-02;  9.7104866E+01;  0.0000000E+00;  6.5351655E-06;  1.0000000E+02;  0.0000000E+00;  9.9692307E+01;  1.7244538E-02;  0.0000000E+00;  1.4929629E-03;  0.0000000E+00;
  2.6116483E+00;  9.9999998E-03; -1.0022893E+00;308;  1.4689565E-02;  0.0000000E+00; -2.2821650E-03;  9.9931107E+00;  4.0700075E-01; -6.5198654E-01;3;  3.8495888E-03;  0.0000000E+00;  1.8350942E-04;  0.0000000E+00;  0.0000000E+00;  0.0000000E+00;0;  2.0530399E-02;  9.6898697E+01;  0.0000000E+00;  1.3495358E-05;  1.0000000E+02;  0.0000000E+00;  9.9543343E+01;  1.8306538E-02;  0.0000000E+00;  2.2238602E-03;  0.0000000E+00;
  2.6123872E+00;  9.9999998E-03; -8.0175793E-01;309;  1.5878700E-02;  0.0000000E+00; -1.5507957E-03;  9.9930897E+00;  4.0705380E-01; -6.5393621E-01;3;  5.3347400E-03;  0.0000000E+00;  5.3201765E-03;  0.0000000E+00;  0.0000000E+00;  0.0000000E+00;0;  2.0369314E-02;  9.6876678E+01;  0.0000000E+00;  1.0108819E-05;  1.0000000E+02;  0.0000000E+00;  9.9539894E+01;  1.8372314E-02;  0.0000000E+00;  1.9969989E-03;  0.0000000E+00;
  2.6130657E+00;  9.9999998E-03; -6.0117936E-01;310;  1.7276140E-02;  0.0000000E+00; -1.3409387E-03;  9.9930134E+00;  4.0708953E-01; -6.6108048E-01;3;  7.4067716E-03;  0.0000000E+00;  7.5691909E-04;  0.0000000E+00;  0.0000000E+00;  0.0000000E+00;0;  2.0859299E-02;  9.6853638E+01;  0.0000000E+00;  2.6024021E-05;  1.0000000E+02;  0.0000000E+00;  9.9544388E+01;  1.8449960E-02;  0.0000000E+00;  2.4093383E-03;  0.0000000E+00;
  2.6139307E+00;  9.9999998E-03; -4.0056109E-01;311;  1.9001279E-02;  0.0000000E+00; -3.0300370E-04;  9.9930553E+00;  4.0712473E-01; -6.5698105E-01;3;  9.8453602E-03;  0.0000000E+00;  9.2733582E-04;  0.0000000E+00;  0.0000000E+00;  0.0000000E+00;0;  2.0724757E-02;  9.6833328E+01;  0.0000000E+00;  1.5062022E-05;  1.0000000E+02;  0.0000000E+00;  9.9548737E+01;  1.8522227E-02;  0.0000000E+00;  2.2025297E-03;  0.0000000E+00;
  2.6146441E+00;  9.9999998E-03; -2.0010367E-01;312;  2.0433217E-02;  0.0000000E+00;  3.2120603E-05;  9.9930067E+00;  4.0716413E-01; -6.6152596E-01;3;  1.1886229E-02;  0.0000000E+00;  2.6617889E-04;  0.0000000E+00;  0.0000000E+00;  0.0000000E+00;0;  2.0893002E-02;  9.6819626E+01;  0.0000000E+00;  3.5317464E-06;  1.0000000E+02;  0.0000000E+00;  9.9542480E+01;  1.8572306E-02;  0.0000000E+00;  2.3206957E-03;  0.0000000E+00;
  2.8149784E+00;  9.9999998E-03; -1.0032474E+00;319;  1.8779274E-02;  0.0000000E+00; -3.3506858E-03;  9.9927473E+00;  4.0843242E-01; -6.6704190E-01;3;  5.4683741E-03;  0.0000000E+00; -4.2282329E-03;  0.0000000E+00;  0.0000000E+00;  0.0000000E+00;0;  2.4409685E-02;  9.6408394E+01;  0.0000000E+00; -1.6455606E-05;  1.0000000E+02;  0.0000000E+00;  9.9342262E+01;  2.1089252E-02;  0.0000000E+00;  3.3204327E-03;  0.0000000E+00;
  2.8155432E+00;  9.9999998E-03; -8.0258882E-01;320;  1.9571446E-02;  0.0000000E+00; -2.6919716E-03;  9.9927282E+00;  4.0840241E-01; -6.6875404E-01;3;  6.6137365E-03;  0.0000000E+00;  4.4860290E-03;  0.0000000E+00;  0.0000000E+00;  0.0000000E+00;0;  2.4245692E-02;  9.6423882E+01;  0.0000000E+00;  1.6719816E-05;  1.0000000E+02;  0.0000000E+00;  9.9340790E+01;  2.0884534E-02;  0.0000000E+00;  3.3611585E-03;  0.0000000E+00;
  2.8159492E+00;  9.9999998E-03; -6.0191029E-01;321;  2.0403745E-02;  0.0000000E+00; -2.1219144E-03;  9.9928246E+00;  4.0834835E-01; -6.5984404E-01;3;  8.1327511E-03;  0.0000000E+00; -1.4558568E-03;  0.0000000E+00;  0.0000000E+00;  0.0000000E+00;0;  2.4098067E-02;  9.6442307E+01;  0.0000000E+00;  4.0996270E-05;  1.0000000E+02;  0.0000000E+00;  9.9350014E+01;  2.0657167E-02;  0.0000000E+00;  3.4408995E-03;  0.0000000E+00;
  2.8164451E+00;  9.9999998E-03; -4.0128723E-01;322;  2.1450715E-02;  0.0000000E+00; -1.3148551E-03;  9.9929094E+00;  4.0830159E-01; -6.5202457E-01;3;  9.9038361E-03;  0.0000000E+00;  8.5076492E-05;  0.0000000E+00;  0.0000000E+00;  0.0000000E+00;0;  2.3791136E-02;  9.6460571E+01;  0.0000000E+00;  2.5707783E-05;  1.0000000E+02;  0.0000000E+00;  9.9355057E+01;  2.0441737E-02;  0.0000000E+00;  3.3493985E-03;  0.0000000E+00;
  2.8168864E+00;  9.9999998E-03; -2.0071371E-01;323;  2.2391640E-02;  0.0000000E+00; -5.2636507E-04;  9.9929657E+00;  4.0826589E-01; -6.4684069E-01;3;  1.1472073E-02;  0.0000000E+00;  4.4137263E-04;  0.0000000E+00;  0.0000000E+00;  0.0000000E+00;0;  2.3611836E-02;  9.6474586E+01;  0.0000000E+00;  6.8308350E-06;  1.0000000E+02;  0.0000000E+00;  9.9359543E+01;  2.0282570E-02;  0.0000000E+00;  3.3292649E-03;  0.0000000E+00;
  3.0192554E+00;  9.9999998E-03; -1.0042137E+00;330;  2.4051681E-02;  0.0000000E+00; -4.2617363E-03;  9.9924011E+00;  4.1000724E-01; -6.8691885E-01;3;  7.7100140E-03;  0.0000000E+00; -4.7899173E-03;  0.0000000E+00;  0.0000000E+00;  0.0000000E+00;0;  2.8288638E-02;  9.5854294E+01;  0.0000000E+00; -1.2668250E-05;  1.0000000E+02;  0.0000000E+00;  9.9143623E+01;  2.4155347E-02;  0.0000000E+00;  4.1332911E-03;  0.0000000E+00;
  3.0193875E+00;  9.9999998E-03; -8.0339658E-01;331;  2.4246862E-02;  0.0000000E+00; -3.6948510E-03;  9.9923735E+00;  4.0990955E-01; -6.8939185E-01;3;  8.5063018E-03;  0.0000000E+00;  2.2334135E-03;  0.0000000E+00;  0.0000000E+00;  0.0000000E+00;0;  2.8319690E-02;  9.5895935E+01;  0.0000000E+00;  5.2244326E-05;  1.0000000E+02;  0.0000000E+00;  9.9147270E+01;  2.3780840E-02;  0.0000000E+00;  4.5388504E-03;  0.0000000E+00;
  3.0193505E+00;  9.9999998E-03; -6.0258353E-01;332;  2.4396345E-02;  0.0000000E+00; -2.8477642E-03;  9.9925394E+00;  4.0979090E-01; -6.7441481E-01;3;  9.4869789E-03;  0.0000000E+00; -2.6606862E-03;  0.0000000E+00;  0.0000000E+00;  0.0000000E+00;0;  2.7812598E-02;  9.5942245E+01;  0.0000000E+00;  7.4753269E-05;  1.0000000E+02;  0.0000000E+00;  9.9159828E+01;  2.3367980E-02;  0.0000000E+00;  4.4446182E-03;  0.0000000E+00;
  3.0194082E+00;  9.9999998E-03; -4.0181318E-01;333;  2.4710838E-02;  0.0000000E+00; -2.2884547E-03;  9.9926214E+00;  4.0968004E-01; -6.6697705E-01;3;  1.0582184E-02;  0.0000000E+00; -1.8090979E-03;  0.0000000E+00;  0.0000000E+00;  0.0000000E+00;0;  2.7484559E-02;  9.5985840E+01;  0.0000000E+00;  4.7567537E-05;  1.0000000E+02;  0.0000000E+00;  9.9169693E+01;  2.2981869E-02;  0.0000000E+00;  4.5026890E-03;  0.0000000E+00;
  3.0194712E+00;  9.9999998E-03; -2.0116320E-01;334;  2.5022890E-02;  0.0000000E+00; -1.1991663E-03;  9.9927292E+00;  4.0960729E-01; -6.5722233E-01;3;  1.1512494E-02;  0.0000000E+00; -5.1683327E-04;  0.0000000E+00;  0.0000000E+00;  0.0000000E+00;0;  2.7077340E-02;  9.6017982E+01;  0.0000000E+00;  1.3423976E-05;  1.0000000E+02;  0.0000000E+00;  9.9174576E+01;  2.2700099E-02;  0.0000000E+00;  4.3772408E-03;  0.0000000E+00;
  3.2244775E+00;  9.9999998E-03; -1.0051188E+00;341;  3.0367084E-02;  0.0000000E+00; -5.1160608E-03;  9.9920988E+00;  4.1161719E-01; -7.0788068E-01;3;  1.0431262E-02;  0.0000000E+00; -2.1507991E-03;  0.0000000E+00;  0.0000000E+00;  0.0000000E+00;0;  3.2084335E-02;  9.5273323E+01;  0.0000000E+00;  7.3859854E-05;  1.0000000E+02;  0.0000000E+00;  9.8963120E+01;  2.7179569E-02;  0.0000000E+00;  4.9047656E-03;  0.0000000E+00;
  3.2242064E+00;  9.9999998E-03; -8.0413210E-01;342;  3.0081015E-02;  0.0000000E+00; -4.5322282E-03;  9.9920588E+00;  4.1149679E-01; -7.1146423E-01;3;  1.0986530E-02;  0.0000000E+00;  1.5984431E-03;  0.0000000E+00;  0.0000000E+00;  0.0000000E+00;0;  3.2318715E-02;  9.5321663E+01;  0.0000000E+00;  1.5006009E-04;  1.0000000E+02;  0.0000000E+00;  9.8969765E+01;  2.6791073E-02;  0.0000000E+00;  5.5276430E-03;  0.0000000E+00;
  3.2237854E+00;  9.9999998E-03; -6.0315669E-01;343;  2.9712716E-02;  0.0000000E+00; -3.5383787E-03;  9.9922113E+00;  4.1135964E-01; -6.9780219E-01;3;  1.1589837E-02;  0.0000000E+00; -3.2959632E-03;  0.0000000E+00;  0.0000000E+00;  0.0000000E+00;0;  3.1783156E-02;  9.5375107E+01;  0.0000000E+00;  1.3761701E-04;  1.0000000E+02;  0.0000000E+00;  9.8983589E+01;  2.6363684E-02;  0.0000000E+00;  5.4194708E-03;  0.0000000E+00;
  3.2234488E+00;  9.9999998E-03; -4.0219164E-01;344;  2.9455420E-02;  0.0000000E+00; -2.8018325E-03;  9.9923010E+00;  4.1122934E-01; -6.8979883E-01;3;  1.2188748E-02;  0.0000000E+00; -3.3133111E-03;  0.0000000E+00;  0.0000000E+00;  0.0000000E+00;0;  3.1415991E-02;  9.5424942E+01;  0.0000000E+00;  7.7862409E-05;  1.0000000E+02;  0.0000000E+00;  9.8996368E+01;  2.5964640E-02;  0.0000000E+00;  5.4513533E-03;  0.0000000E+00;
  3.2231762E+00;  9.9999998E-03; -2.0133172E-01;345;  2.9276218E-02;  0.0000000E+00; -1.4790013E-03;  9.9924059E+00;  4.1114503E-01; -6.8040550E-01;3;  1.2657872E-02;  0.0000000E+00; -1.2793125E-03;  0.0000000E+00;  0.0000000E+00;  0.0000000E+00;0;  3.0985463E-02;  9.5461205E+01;  0.0000000E+00;  2.1454469E-05;  1.0000000E+02;  0.0000000E+00;  9.9001434E+01;  2.5675114E-02;  0.0000000E+00;  5.3103492E-03;  0.0000000E+00;
  3.4304433E+00;  9.9999998E-03; -1.0059389E+00;352;  3.7348706E-02;  0.0000000E+00; -5.8800415E-03;  9.9918966E+00;  4.1317472E-01; -7.2291082E-01;3;  1.3547608E-02;  0.0000000E+00;  1.3325048E-03;  0.0000000E+00;  0.0000000E+00;  0.0000000E+00;0;  3.5423160E-02;  9.4704666E+01;  0.0000000E+00;  1.6081832E-04;  1.0000000E+02;  0.0000000E+00;  9.8804489E+01;  2.9810430E-02;  0.0000000E+00;  5.6127273E-03;  0.0000000E+00;
  3.4299269E+00;  9.9999998E-03; -8.0477953E-01;353;  3.6813568E-02;  0.0000000E+00; -5.2244458E-03;  9.9918346E+00;  4.1306895E-01; -7.2844613E-01;3;  1.3982794E-02;  0.0000000E+00;  4.8737755E-04;  0.0000000E+00;  0.0000000E+00;  0.0000000E+00;0;  3.5902031E-02;  9.4744102E+01;  0.0000000E+00;  2.5312303E-04;  1.0000000E+02;  0.0000000E+00;  9.8812477E+01;  2.9538460E-02;  0.0000000E+00;  6.3635716E-03;  0.0000000E+00;
  3.4292672E+00;  9.9999998E-03; -6.0363382E-01;354;  3.6168102E-02;  0.0000000E+00; -4.1290461E-03;  9.9919319E+00;  4.1295308E-01; -7.1978498E-01;3;  1.4333980E-02;  0.0000000E+00; -3.3545746E-03;  0.0000000E+00;  0.0000000E+00;  0.0000000E+00;0;  3.5531785E-02;  9.4788513E+01;  0.0000000E+00;  1.9767080E-04;  1.0000000E+02;  0.0000000E+00;  9.8823990E+01;  2.9233880E-02;  0.0000000E+00;  6.2979055E-03;  0.0000000E+00;
  3.4286728E+00;  9.9999998E-03; -4.0246943E-01;355;  3.5579864E-02;  0.0000000E+00; -2.8450959E-03;  9.9920321E+00;  4.1283974E-01; -7.1085727E-01;3;  1.4587131E-02;  0.0000000E+00; -3.9759208E-03;  0.0000000E+00;  0.0000000E+00;  0.0000000E+00;0;  3.5100214E-02;  9.4830528E+01;  0.0000000E+00;  1.0053056E-04;  1.0000000E+02;  0.0000000E+00;  9.8836243E+01;  2.8946178E-02;  0.0000000E+00;  6.1540380E-03;  0.0000000E+00;
  3.4281716E+00;  9.9999998E-03; -2.0136049E-01;356;  3.5097215E-02;  0.0000000E+00; -1.5607093E-03;  9.9920902E+00;  4.1276386E-01; -7.0565087E-01;3;  1.4745530E-02;  0.0000000E+00; -1.7109605E-03;  0.0000000E+00;  0.0000000E+00;  0.0000000E+00;0;  3.4839038E-02;  9.4861244E+01;  0.0000000E+00;  2.6247801E-05;  1.0000000E+02;  0.0000000E+00;  9.8841461E+01;  2.8735707E-02;  0.0000000E+00;  6.1033312E-03;  0.0000000E+00;
  3.6368001E+00;  9.9999998E-03; -1.0066912E+00;363;  4.4518504E-02;  0.0000000E+00; -6.5379194E-03;  9.9917669E+00;  4.1467172E-01; -7.3308963E-01;3;  1.7082073E-02;  0.0000000E+00;  4.9003968E-03;  0.0000000E+00;  0.0000000E+00;  0.0000000E+00;0;  3.8160376E-02;  9.4155174E+01;  0.0000000E+00;  1.6664181E-04;  1.0000000E+02;  0.0000000E+00;  9.8662247E+01;  3.1926189E-02;  0.0000000E+00;  6.2341890E-03;  0.0000000E+00;
  3.6362162E+00;  9.9999998E-03; -8.0536073E-01;364;  4.3956351E-02;  0.0000000E+00; -5.7735913E-03;  9.9916916E+00;  4.1458651E-01; -7.3977929E-01;3;  1.7453868E-02;  0.0000000E+00; -1.1896477E-03;  0.0000000E+00;  0.0000000E+00;  0.0000000E+00;0;  3.8850892E-02;  9.4183441E+01;  0.0000000E+00;  2.6170927E-04;  1.0000000E+02;  0.0000000E+00;  9.8671562E+01;  3.1811431E-02;  0.0000000E+00;  7.0394613E-03;  0.0000000E+00;
  3.6354997E+00;  9.9999998E-03; -6.0403126E-01;365;  4.3273766E-02;  0.0000000E+00; -4.5707319E-03;  9.9917345E+00;  4.1449741E-01; -7.3596132E-01;3;  1.7634122E-02;  0.0000000E+00; -3.9174873E-03;  0.0000000E+00;  0.0000000E+00;  0.0000000E+00;0;  3.8697682E-02;  9.4216080E+01;  0.0000000E+00;  1.9013406E-04;  1.0000000E+02;  0.0000000E+00;  9.8680717E+01;  3.1676527E-02;  0.0000000E+00;  7.0211557E-03;  0.0000000E+00;
  3.6348374E+00;  9.9999998E-03; -4.0268099E-01;366;  4.2607397E-02;  0.0000000E+00; -2.5979383E-03;  9.9918394E+00;  4.1441372E-01; -7.2662342E-01;3;  1.7655900E-02;  0.0000000E+00; -3.2933035E-03;  0.0000000E+00;  0.0000000E+00;  0.0000000E+00;0;  3.8204081E-02;  9.4248367E+01;  0.0000000E+00;  8.7074339E-05;  1.0000000E+02;  0.0000000E+00;  9.8688469E+01;  3.1542007E-02;  0.0000000E+00;  6.6620754E-03;  0.0000000E+00;
  3.6342473E+00;  9.9999998E-03; -2.0121866E-01;367;  4.2010821E-02;  0.0000000E+00; -1.3808960E-03;  9.9918451E+00;  4.1434288E-01; -7.2614843E-01;3;  1.7622137E-02;  0.0000000E+00; -1.7798292E-03;  0.0000000E+00;  0.0000000E+00;  0.0000000E+00;0;  3.8176361E-02;  9.4273201E+01;  0.0000000E+00;  2.0422782E-05;  1.0000000E+02;  0.0000000E+00;  9.8696136E+01;  3.1437129E-02;  0.0000000E+00;  6.7392318E-03;  0.0000000E+00;
  3.8431888E+00;  9.9999998E-03; -1.0074148E+00;374;  5.1405001E-02;  0.0000000E+00; -7.1257711E-03;  9.9916286E+00;  4.1619018E-01; -7.4476427E-01;3;  2.0966405E-02;  0.0000000E+00;  7.7222027E-03;  0.0000000E+00;  0.0000000E+00;  0.0000000E+00;0;  4.0496413E-02;  9.3596832E+01;  0.0000000E+00;  1.5039556E-04;  1.0000000E+02;  0.0000000E+00;  9.8524902E+01;  3.3681344E-02;  0.0000000E+00;  6.8150694E-03;  0.0000000E+00;
  3.8426962E+00;  9.9999998E-03; -8.0592245E-01;375;  5.0990697E-02;  0.0000000E+00; -6.1844825E-03;  9.9915714E+00;  4.1609758E-01; -7.4985588E-01;3;  2.1248082E-02;  0.0000000E+00; -3.5900746E-03;  0.0000000E+00;  0.0000000E+00;  0.0000000E+00;0;  4.1213978E-02;  9.3624985E+01;  0.0000000E+00;  1.9766798E-04;  1.0000000E+02;  0.0000000E+00;  9.8537880E+01;  3.3675946E-02;  0.0000000E+00;  7.5380318E-03;  0.0000000E+00;
  3.8421209E+00;  9.9999998E-03; -6.0441291E-01;376;  5.0494403E-02;  0.0000000E+00; -4.8832456E-03;  9.9915667E+00;  4.1601050E-01; -7.5028127E-01;3;  2.1309638E-02;  0.0000000E+00; -4.6740454E-03;  0.0000000E+00;  0.0000000E+00;  0.0000000E+00;0;  4.1252002E-02;  9.3655739E+01;  0.0000000E+00;  1.2859909E-04;  1.0000000E+02;  0.0000000E+00;  9.8547028E+01;  3.3670153E-02;  0.0000000E+00;  7.5818477E-03;  0.0000000E+00;
  3.8415875E+00;  9.9999998E-03; -4.0289807E-01;377;  5.0004203E-02;  0.0000000E+00; -2.4355636E-03;  9.9916611E+00;  4.1594186E-01; -7.4185097E-01;3;  2.1228695E-02;  0.0000000E+00; -1.3833067E-03;  0.0000000E+00;  0.0000000E+00;  0.0000000E+00;0;  4.0766403E-02;  9.3686661E+01;  0.0000000E+00;  4.9091290E-05;  1.0000000E+02;  0.0000000E+00;  9.8548767E+01;  3.3656765E-02;  0.0000000E+00;  7.1096374E-03;  0.0000000E+00;
  3.8410826E+00;  9.9999998E-03; -2.0093331E-01;378;  4.9524959E-02;  0.0000000E+00; -1.0010215E-03;  9.9916401E+00;  4.1585675E-01; -7.4376100E-01;3;  2.1136105E-02;  0.0000000E+00; -1.7236070E-03;  0.0000000E+00;  0.0000000E+00;  0.0000000E+00;0;  4.0886171E-02;  9.3711121E+01;  0.0000000E+00;  8.9558916E-06;  1.0000000E+02;  0.0000000E+00;  9.8562798E+01;  3.3638619E-02;  0.0000000E+00;  7.2475504E-03;  0.0000000E+00;
  4.0493503E+00;  9.9999998E-03; -1.0081372E+00;385;  5.7598744E-02;  0.0000000E+00; -7.6839351E-03;  9.9913788E+00;  4.1781715E-01; -7.6669329E-01;3;  2.4809752E-02;  0.0000000E+00;  9.0630529E-03;  0.0000000E+00;  0.0000000E+00;  0.0000000E+00;0;  4.2759661E-02;  9.2998299E+01;  0.0000000E+00;  1.1470724E-04;  1.0000000E+02;  0.0000000E+00;  9.8382957E+01;  3.5345607E-02;  0.0000000E+00;  7.4140551E-03;  0.0000000E+00;
  4.0490847E+00;  9.9999998E-03; -8.0651093E-01;386;  5.7500038E-02;  0.0000000E+00; -6.5184385E-03;  9.9913778E+00;  4.1767925E-01; -7.6679957E-01;3;  2.4976626E-02;  0.0000000E+00; -6.4836331E-03;  0.0000000E+00;  0.0000000E+00;  0.0000000E+00;0;  4.3280013E-02;  9.3041374E+01;  0.0000000E+00;  1.3939546E-04;  1.0000000E+02;  0.0000000E+00;  9.8402336E+01;  3.5360750E-02;  0.0000000E+00;  7.9192650E-03;  0.0000000E+00;
  4.0488248E+00;  9.9999998E-03; -6.0486060E-01;387;  5.7407383E-02;  0.0000000E+00; -5.1770941E-03;  9.9913445E+00;  4.1755489E-01; -7.6976818E-01;3;  2.5003327E-02;  0.0000000E+00; -5.7584136E-03;  0.0000000E+00;  0.0000000E+00;  0.0000000E+00;0;  4.3435056E-02;  9.3084961E+01;  0.0000000E+00;  9.2994705E-05;  1.0000000E+02;  0.0000000E+00;  9.8414436E+01;  3.5394326E-02;  0.0000000E+00;  8.0407290E-03;  0.0000000E+00;
  4.0486083E+00;  9.9999998E-03; -4.0321824E-01;388;  5.7362311E-02;  0.0000000E+00; -2.6685076E-03;  9.9914179E+00;  4.1746703E-01; -7.6319546E-01;3;  2.4984665E-02;  0.0000000E+00;  2.7963993E-04;  0.0000000E+00;  0.0000000E+00;  0.0000000E+00;0;  4.3024845E-02;  9.3126686E+01;  0.0000000E+00;  3.3799111E-05;  1.0000000E+02;  0.0000000E+00;  9.8413048E+01;  3.5425313E-02;  0.0000000E+00;  7.5995345E-03;  0.0000000E+00;
  4.0483651E+00;  9.9999998E-03; -2.0074606E-01;389;  5.7261437E-02;  0.0000000E+00; -7.9254410E-04;  9.9914036E+00;  4.1734847E-01; -7.6446790E-01;3;  2.4933841E-02;  0.0000000E+00; -1.8749485E-03;  0.0000000E+00;  0.0000000E+00;  0.0000000E+00;0;  4.3138780E-02;  9.3158180E+01;  0.0000000E+00;  5.5432529E-06;  1.0000000E+02;  0.0000000E+00;  9.8435600E+01;  3.5444181E-02;  0.0000000E+00;  7.6945978E-03;  0.0000000E+00;
  4.2557158E+00;  9.9999998E-03; -2.0101386E-01;400;  6.4783290E-02;  0.0000000E+00; -1.1760952E-03;  9.9910831E+00;  4.1881305E-01; -7.9285318E-01;3;  2.8345788E-02;  0.0000000E+00; -2.2158709E-03;  0.0000000E+00;  0.0000000E+00;  0.0000000E+00;0;  4.5009766E-02;  9.2617516E+01;  0.0000000E+00;  1.4204125E-05;  1.0000000E+02;  0.0000000E+00;  9.8312553E+01;  3.6898993E-02;  0.0000000E+00;  8.1107728E-03;  0.0000000E+00;
  4.2554665E+00;  9.9999998E-03; -8.0711997E-01;397;  6.3575596E-02;  0.0000000E+00; -6.7963684E-03;  9.9910622E+00;  4.1929743E-01; -7.9470819E-01;3;  2.8229879E-02;  0.0000000E+00; -9.3279593E-03;  0.0000000E+00;  0.0000000E+00;  0.0000000E+00;0;  4.5135405E-02;  9.2446938E+01;  0.0000000E+00; -1.4809351E-05;  1.0000000E+02;  0.0000000E+00;  9.8265953E+01;  3.6920637E-02;  0.0000000E+00;  8.2147680E-03;  0.0000000E+00;
  4.2555776E+00;  9.9999998E-03; -6.0540503E-01;398;  6.3968457E-02;  0.0000000E+00; -5.5010486E-03;  9.9910212E+00;  4.1910827E-01; -7.9836500E-01;3;  2.8251579E-02;  0.0000000E+00; -7.4410760E-03;  0.0000000E+00;  0.0000000E+00;  0.0000000E+00;0;  4.5323629E-02;  9.2513039E+01;  0.0000000E+00;  1.2785463E-05;  1.0000000E+02;  0.0000000E+00;  9.8283615E+01;  3.6904495E-02;  0.0000000E+00;  8.4191347E-03;  0.0000000E+00;
  4.2556958E+00;  9.9999998E-03; -4.0370950E-01;399;  6.4431079E-02;  0.0000000E+00; -3.3503950E-03;  9.9910727E+00;  4.1897064E-01; -7.9380715E-01;3;  2.8342810E-02;  0.0000000E+00;  3.1835225E-04;  0.0000000E+00;  0.0000000E+00;  0.0000000E+00;0;  4.5019660E-02;  9.2573769E+01;  0.0000000E+00;  2.4102204E-05;  1.0000000E+02;  0.0000000E+00;  9.8284775E+01;  3.6897924E-02;  0.0000000E+00;  8.1217363E-03;  0.0000000E+00;
  4.2555022E+00;  9.9999998E-03; -1.0088282E+00;396;  6.3305490E-02;  0.0000000E+00; -8.1999153E-03;  9.9909887E+00;  4.1949746E-01; -8.0122697E-01;3;  2.8175317E-02;  0.0000000E+00;  7.9167048E-03;  0.0000000E+00;  0.0000000E+00;  0.0000000E+00;0;  4.4979587E-02;  9.2381950E+01;  0.0000000E+00; -1.5141509E-04;  1.0000000E+02;  0.0000000E+00;  9.8240463E+01;  3.6952280E-02;  0.0000000E+00;  8.0273096E-03;  0.0000000E+00;
  4.4632554E+00;  9.9999998E-03; -1.0093732E+00;407;  7.0309028E-02;  0.0000000E+00; -8.5710790E-03;  9.9905357E+00;  4.2091966E-01; -8.4144408E-01;3;  3.1129578E-02;  0.0000000E+00;  3.4622706E-03;  0.0000000E+00;  0.0000000E+00;  0.0000000E+00;0;  4.6574242E-02;  9.1861069E+01;  0.0000000E+00; -4.4620250E-04;  1.0000000E+02;  0.0000000E+00;  9.8122459E+01;  3.8039163E-02;  0.0000000E+00;  8.5350787E-03;  0.0000000E+00;
  4.4629374E+00;  9.9999998E-03; -8.0764407E-01;408;  7.0510224E-02;  0.0000000E+00; -6.9852727E-03;  9.9906654E+00;  4.2068487E-01; -8.2994431E-01;3;  3.0965775E-02;  0.0000000E+00; -1.1914542E-02;  0.0000000E+00;  0.0000000E+00;  0.0000000E+00;0;  4.6379641E-02;  9.1939781E+01;  0.0000000E+00; -9.2286718E-05;  1.0000000E+02;  0.0000000E+00;  9.8150169E+01;  3.7958752E-02;  0.0000000E+00;  8.4208893E-03;  0.0000000E+00;
  4.4628696E+00;  9.9999998E-03; -6.0594386E-01;409;  7.0878334E-02;  0.0000000E+00; -5.7017044E-03;  9.9906530E+00;  4.2043772E-01; -8.3105725E-01;3;  3.0847350E-02;  0.0000000E+00; -1.0279686E-02;  0.0000000E+00;  0.0000000E+00;  0.0000000E+00;0;  4.6461623E-02;  9.2025032E+01;  0.0000000E+00; -2.8604749E-04;  1.0000000E+02;  0.0000000E+00;  9.8173782E+01;  3.7859682E-02;  0.0000000E+00;  8.6019412E-03;  0.0000000E+00;
  4.4629364E+00;  9.9999998E-03; -4.0427217E-01;410;  7.1402520E-02;  0.0000000E+00; -4.2225826E-03;  9.9906673E+00;  4.2024550E-01; -8.2978529E-01;3;  3.0875428E-02;  0.0000000E+00; -2.1107935E-03;  0.0000000E+00;  0.0000000E+00;  0.0000000E+00;0;  4.6320137E-02;  9.2101654E+01;  0.0000000E+00; -2.4177686E-04;  1.0000000E+02;  0.0000000E+00;  9.8182190E+01;  3.7778433E-02;  0.0000000E+00;  8.5417042E-03;  0.0000000E+00;
  4.4630060E+00;  9.9999998E-03; -2.0192330E-01;411;  7.1891591E-02;  0.0000000E+00; -2.2286307E-03;  9.9907064E+00;  4.2007780E-01; -8.2628769E-01;3;  3.0826859E-02;  0.0000000E+00; -2.3051412E-03;  0.0000000E+00;  0.0000000E+00;  0.0000000E+00;0;  4.6160735E-02;  9.2154518E+01;  0.0000000E+00; -5.5844925E-05;  1.0000000E+02;  0.0000000E+00;  9.8204865E+01;  3.7730329E-02;  0.0000000E+00;  8.4304055E-03;  0.0000000E+00;
  4.6755843E+00;  9.9999998E-03; -1.0096128E+00;418;  8.1833929E-02;  0.0000000E+00; -8.7403562E-03;  9.9901333E+00;  4.2163292E-01; -8.7723994E-01;3;  3.4384005E-02;  0.0000000E+00; -4.5982501E-03;  0.0000000E+00;  0.0000000E+00;  0.0000000E+00;0;  4.6746049E-02;  9.1595970E+01;  0.0000000E+00;  9.6787413E-04;  1.0000000E+02;  0.0000000E+00;  9.8065506E+01;  3.7829667E-02;  0.0000000E+00;  8.9163808E-03;  0.0000000E+00;
  4.6739235E+00;  9.9999998E-03; -8.0789530E-01;419;  8.0860980E-02;  0.0000000E+00; -6.9803712E-03;  9.9903202E+00;  4.2139018E-01; -8.6060029E-01;3;  3.3631533E-02;  0.0000000E+00; -1.6092429E-02;  0.0000000E+00;  0.0000000E+00;  0.0000000E+00;0;  4.6171941E-02;  9.1680138E+01;  0.0000000E+00; -6.7539938E-04;  1.0000000E+02;  0.0000000E+00;  9.8092567E+01;  3.7715852E-02;  0.0000000E+00;  8.4560867E-03;  0.0000000E+00;
  4.6722326E+00;  9.9999998E-03; -6.0625201E-01;420;  7.9799674E-02;  0.0000000E+00; -5.5390699E-03;  9.9903564E+00;  4.2112494E-01; -8.5736793E-01;3;  3.3060834E-02;  0.0000000E+00; -1.3009982E-02;  0.0000000E+00;  0.0000000E+00;  0.0000000E+00;0;  4.5992170E-02;  9.1772072E+01;  0.0000000E+00; -8.7367505E-04;  1.0000000E+02;  0.0000000E+00;  9.8117836E+01;  3.7563626E-02;  0.0000000E+00;  8.4285429E-03;  0.0000000E+00;
  4.6711249E+00;  9.9999998E-03; -4.0469030E-01;421;  7.9245336E-02;  0.0000000E+00; -4.7235074E-03;  9.9903297E+00;  4.2091891E-01; -8.5975271E-01;3;  3.2891154E-02;  0.0000000E+00; -4.3715718E-03;  0.0000000E+00;  0.0000000E+00;  0.0000000E+00;0;  4.6071306E-02;  9.1849884E+01;  0.0000000E+00; -7.9554046E-04;  1.0000000E+02;  0.0000000E+00;  9.8130234E+01;  3.7438989E-02;  0.0000000E+00;  8.6323172E-03;  0.0000000E+00;
  4.6702690E+00;  9.9999998E-03; -2.0317289E-01;422;  7.8851610E-02;  0.0000000E+00; -3.3478902E-03;  9.9903812E+00;  4.2078221E-01; -8.5519534E-01;3;  3.2720048E-02;  0.0000000E+00; -1.4491086E-03;  0.0000000E+00;  0.0000000E+00;  0.0000000E+00;0;  4.5840524E-02;  9.1902664E+01;  0.0000000E+00; -2.9058190E-04;  1.0000000E+02;  0.0000000E+00;  9.8138290E+01;  3.7349761E-02;  0.0000000E+00;  8.4907655E-03;  0.0000000E+00;
  4.8940225E+00;  9.9999998E-03; -1.0095208E+00;429;  9.8091468E-02;  0.0000000E+00; -8.6498857E-03;  9.9897079E+00;  4.2167878E-01; -9.1501069E-01;3;  3.1781703E-02;  0.0000000E+00; -1.3314445E-02;  0.0000000E+00;  0.0000000E+00;  0.0000000E+00;0;  4.5464806E-02;  9.1569588E+01;  0.0000000E+00;  1.9431144E-02;  1.0000000E+02;  0.0000000E+00;  9.8065132E+01;  3.6337160E-02;  0.0000000E+00;  9.1276485E-03;  0.0000000E+00;
  4.8902750E+00;  9.9999998E-03; -8.0778086E-01;430;  9.6454866E-02;  0.0000000E+00; -6.7231068E-03;  9.9900265E+00;  4.2123860E-01; -8.8671321E-01;3;  3.5809755E-02;  0.0000000E+00; -2.0452201E-02;  0.0000000E+00;  0.0000000E+00;  0.0000000E+00;0;  4.4254202E-02;  9.1726646E+01;  0.0000000E+00; -9.5077287E-03;  1.0000000E+02;  0.0000000E+00;  9.8107399E+01;  3.5970028E-02;  0.0000000E+00;  8.2841739E-03;  0.0000000E+00;
  4.8851080E+00;  9.9999998E-03; -6.0614181E-01;431;  9.2039824E-02;  0.0000000E+00; -5.0663957E-03;  9.9901886E+00;  4.2085135E-01; -8.7229955E-01;3;  3.4924936E-02;  0.0000000E+00; -1.3089374E-02;  0.0000000E+00;  0.0000000E+00;  0.0000000E+00;0;  4.3494165E-02;  9.1867233E+01;  0.0000000E+00; -5.5069588E-03;  1.0000000E+02;  0.0000000E+00;  9.8140465E+01;  3.5533484E-02;  0.0000000E+00;  7.9606809E-03;  0.0000000E+00;
  4.8816280E+00;  9.9999998E-03; -4.0460810E-01;432;  8.9593530E-02;  0.0000000E+00; -3.9415369E-03;  9.9902134E+00;  4.2062315E-01; -8.7007403E-01;3;  3.5246424E-02;  0.0000000E+00; -5.3562168E-03;  0.0000000E+00;  0.0000000E+00;  0.0000000E+00;0;  4.3382287E-02;  9.1951096E+01;  0.0000000E+00; -1.2433066E-03;  1.0000000E+02;  0.0000000E+00;  9.8157646E+01;  3.5335187E-02;  0.0000000E+00;  8.0471020E-03;  0.0000000E+00;
  4.8791070E+00;  9.9999998E-03; -2.0362024E-01;433;  8.7635241E-02;  0.0000000E+00; -3.0128194E-03;  9.9902487E+00;  4.2052579E-01; -8.6694759E-01;3;  3.5363428E-02;  0.0000000E+00; -1.9522602E-04;  0.0000000E+00;  0.0000000E+00;  0.0000000E+00;0;  4.3265305E-02;  9.1998062E+01;  0.0000000E+00; -1.3509010E-04;  1.0000000E+02;  0.0000000E+00;  9.8153633E+01;  3.5214175E-02;  0.0000000E+00;  8.0511291E-03;  0.0000000E+00;
  5.0986161E+00;  9.9999998E-03; -1.0088975E+00;440;  9.7963102E-02;  0.0000000E+00; -7.9464158E-03;  9.9899540E+00;  4.2021304E-01; -8.9312005E-01;3;  3.2337725E-02;  0.0000000E+00; -2.1356653E-02;  0.0000000E+00;  0.0000000E+00;  0.0000000E+00;0;  4.0188540E-02;  9.2095848E+01;  0.0000000E+00;  4.1878894E-02;  1.0000000E+02;  0.0000000E+00;  9.8190880E+01;  3.1702820E-02;  0.0000000E+00;  8.4857186E-03;  0.0000000E+00;
  5.0987244E+00;  9.9999998E-03; -8.0723643E-01;441;  9.9187180E-02;  0.0000000E+00; -5.9965965E-03;  9.9900694E+00;  4.2001596E-01; -8.8289267E-01;3;  3.3786248E-02;  0.0000000E+00; -1.6460953E-02;  0.0000000E+00;  0.0000000E+00;  0.0000000E+00;0;  3.9423585E-02;  9.2164696E+01;  0.0000000E+00; -1.0533297E-02;  1.0000000E+02;  0.0000000E+00;  9.8211685E+01;  3.1840283E-02;  0.0000000E+00;  7.5833006E-03;  0.0000000E+00;
  5.0984316E+00;  9.9999998E-03; -6.0569072E-01;442;  1.0094269E-01;  0.0000000E+00; -4.4988501E-03;  9.9900637E+00;  4.1983753E-01; -8.8336962E-01;3;  3.2901306E-02;  0.0000000E+00; -1.2033514E-02;  0.0000000E+00;  0.0000000E+00;  0.0000000E+00;0;  3.9381068E-02;  9.2227036E+01;  0.0000000E+00; -1.9087903E-02;  1.0000000E+02;  0.0000000E+00;  9.8228317E+01;  3.2020222E-02;  0.0000000E+00;  7.3608453E-03;  0.0000000E+00;
  5.0954785E+00;  9.9999998E-03; -4.0412080E-01;443;  1.0274246E-01;  0.0000000E+00; -3.3887145E-03;  9.9900665E+00;  4.1949365E-01; -8.8315767E-01;3;  3.7121598E-02;  0.0000000E+00; -5.1617264E-03;  0.0000000E+00;  0.0000000E+00;  0.0000000E+00;0;  3.9399683E-02;  9.2350388E+01;  0.0000000E+00; -5.6693903E-03;  1.0000000E+02;  0.0000000E+00;  9.8257721E+01;  3.2037582E-02;  0.0000000E+00;  7.3621017E-03;  0.0000000E+00;
  5.0918994E+00;  9.9999998E-03; -2.0310946E-01;444;  1.0082461E-01;  0.0000000E+00; -1.7284951E-03;  9.9902258E+00;  4.1929546E-01; -8.6895597E-01;3;  3.9913792E-02;  0.0000000E+00;  1.3003072E-03;  0.0000000E+00;  0.0000000E+00;  0.0000000E+00;0;  3.8842037E-02;  9.2440781E+01;  0.0000000E+00; -1.5602380E-04;  1.0000000E+02;  0.0000000E+00;  9.8257523E+01;  3.1659100E-02;  0.0000000E+00;  7.1829357E-03;  0.0000000E+00;
  5.3001752E+00;  9.9999998E-03; -1.0077409E+00;451;  9.8658718E-02;  0.0000000E+00; -6.1155278E-03;  9.9909201E+00;  4.1714734E-01; -8.0727166E-01;3;  2.9210415E-02;  0.0000000E+00; -2.1970212E-02;  0.0000000E+00;  0.0000000E+00;  0.0000000E+00;0;  3.1045124E-02;  9.3225853E+01;  0.0000000E+00;  3.4876768E-02;  1.0000000E+02;  0.0000000E+00;  9.8450050E+01;  2.4960237E-02;  0.0000000E+00;  6.0848873E-03;  0.0000000E+00;
  5.3043876E+00;  9.9999998E-03; -8.0632782E-01;452;  1.0556553E-01;  0.0000000E+00; -5.3051701E-03;  9.9898014E+00;  4.1797405E-01; -9.0668356E-01;3;  2.7008176E-02;  0.0000000E+00; -2.6915487E-02;  0.0000000E+00;  0.0000000E+00;  0.0000000E+00;0;  3.5066139E-02;  9.2884682E+01;  0.0000000E+00;  2.6773305E-03;  1.0000000E+02;  0.0000000E+00;  9.8399536E+01;  2.8126914E-02;  0.0000000E+00;  6.9392263E-03;  0.0000000E+00;
  5.3043771E+00;  9.9999998E-03; -6.0482860E-01;453;  1.0585418E-01;  0.0000000E+00; -3.4513029E-03;  9.9899788E+00;  4.1788277E-01; -8.9094514E-01;3;  3.3097610E-02;  0.0000000E+00; -1.0428051E-02;  0.0000000E+00;  0.0000000E+00;  0.0000000E+00;0;  3.4021232E-02;  9.2928688E+01;  0.0000000E+00; -1.5666967E-02;  1.0000000E+02;  0.0000000E+00;  9.8399261E+01;  2.7752226E-02;  0.0000000E+00;  6.2690056E-03;  0.0000000E+00;
  5.3044043E+00;  9.9999998E-03; -4.0344241E-01;454;  1.0740811E-01;  0.0000000E+00; -2.2161761E-03;  9.9899673E+00;  4.1777992E-01; -8.9195198E-01;3;  3.3781666E-02;  0.0000000E+00; -2.0354551E-03;  0.0000000E+00;  0.0000000E+00;  0.0000000E+00;0;  3.4034505E-02;  9.2964050E+01;  0.0000000E+00; -7.6066381E-03;  1.0000000E+02;  0.0000000E+00;  9.8410065E+01;  2.7787138E-02;  0.0000000E+00;  6.2473691E-03;  0.0000000E+00;
  5.3039961E+00;  9.9999998E-03; -2.0203434E-01;455;  1.0694533E-01;  0.0000000E+00; -2.1128308E-03;  9.9900532E+00;  4.1760162E-01; -8.8432121E-01;3;  2.9617503E-02;  0.0000000E+00;  1.2014728E-03;  0.0000000E+00;  0.0000000E+00;  0.0000000E+00;0;  3.3719353E-02;  9.3020569E+01;  0.0000000E+00; -1.2256161E-03;  1.0000000E+02;  0.0000000E+00;  9.8435844E+01;  2.7291428E-02;  0.0000000E+00;  6.4279237E-03;  0.0000000E+00;
  5.5036364E+00;  9.9999998E-03; -1.0062717E+00;462;  1.0444603E-01;  0.0000000E+00; -5.5278158E-03;  9.9904156E+00;  4.1362453E-01; -8.5210145E-01;3;  1.7898779E-02;  0.0000000E+00; -3.5414439E-02;  0.0000000E+00;  0.0000000E+00;  0.0000000E+00;0;  2.6982762E-02;  9.4501213E+01;  0.0000000E+00;  1.8218087E-02;  1.0000000E+02;  0.0000000E+00;  9.8772743E+01;  2.1079093E-02;  0.0000000E+00;  5.9036692E-03;  0.0000000E+00;
  5.5088315E+00;  9.9999998E-03; -8.0532026E-01;463;  1.0686856E-01;  0.0000000E+00; -3.7467405E-03;  9.9901209E+00;  4.1562632E-01; -8.7827921E-01;3;  1.6299620E-02;  0.0000000E+00; -3.1683307E-02;  0.0000000E+00;  0.0000000E+00;  0.0000000E+00;0;  2.7294438E-02;  9.3744003E+01;  0.0000000E+00;  3.4629844E-02;  1.0000000E+02;  0.0000000E+00;  9.8608818E+01;  2.2239288E-02;  0.0000000E+00;  5.0551509E-03;  0.0000000E+00;
  5.5083947E+00;  9.9999998E-03; -6.0378748E-01;464;  1.0789026E-01;  0.0000000E+00; -2.6580715E-03;  9.9898643E+00;  4.1530067E-01; -9.0111852E-01;3;  2.5783336E-02;  0.0000000E+00; -1.0521358E-02;  0.0000000E+00;  0.0000000E+00;  0.0000000E+00;0;  2.7768580E-02;  9.3866867E+01;  0.0000000E+00; -4.4074534E-03;  1.0000000E+02;  0.0000000E+00;  9.8628624E+01;  2.2483626E-02;  0.0000000E+00;  5.2849539E-03;  0.0000000E+00;
  5.5076575E+00;  9.9999998E-03; -4.0218201E-01;465;  1.0783309E-01;  0.0000000E+00; -1.0874937E-03;  9.9900913E+00;  4.1504475E-01; -8.8092875E-01;3;  2.0770166E-02;  0.0000000E+00; -9.6902847E-03;  0.0000000E+00;  0.0000000E+00;  0.0000000E+00;0;  2.7074590E-02;  9.3955353E+01;  0.0000000E+00;  2.0569938E-03;  1.0000000E+02;  0.0000000E+00;  9.8661713E+01;  2.2106007E-02;  0.0000000E+00;  4.9685827E-03;  0.0000000E+00;
  5.5071979E+00;  9.9999998E-03; -2.0063139E-01;466;  1.0714399E-01;  0.0000000E+00; -2.8470182E-04;  9.9902620E+00;  4.1492173E-01; -8.6577326E-01;3;  2.8403103E-02;  0.0000000E+00; -2.2287243E-03;  0.0000000E+00;  0.0000000E+00;  0.0000000E+00;0;  2.6633937E-02;  9.4002831E+01;  0.0000000E+00;  3.1301714E-03;  1.0000000E+02;  0.0000000E+00;  9.8673752E+01;  2.1512078E-02;  0.0000000E+00;  5.1218579E-03;  0.0000000E+00;
  5.7087359E+00;  9.9999998E-03; -8.0360413E-01;473;  1.0734701E-01;  0.0000000E+00; -3.2001920E-03;  9.9902754E+00;  4.1103628E-01; -8.6455411E-01;3; -3.7523219E-03;  0.0000000E+00; -4.4456694E-02;  0.0000000E+00;  0.0000000E+00;  0.0000000E+00;0;  2.0029159E-02;  9.5446922E+01;  0.0000000E+00;  5.5143894E-03;  1.0000000E+02;  0.0000000E+00;  9.9027206E+01;  1.5454750E-02;  0.0000000E+00;  4.5744092E-03;  0.0000000E+00;
  5.7105298E+00;  9.9999998E-03; -6.0254055E-01;474;  1.0771064E-01;  0.0000000E+00; -1.3586050E-03;  9.9905615E+00;  4.1199008E-01; -8.3911824E-01;3;  1.9642426E-02;  0.0000000E+00; -1.7779130E-02;  0.0000000E+00;  0.0000000E+00;  0.0000000E+00;0;  1.8842736E-02;  9.5099358E+01;  0.0000000E+00;  2.7537749E-03;  1.0000000E+02;  0.0000000E+00;  9.8935524E+01;  1.5241535E-02;  0.0000000E+00;  3.6012006E-03;  0.0000000E+00;
  5.7096477E+00;  9.9999998E-03; -4.0093121E-01;475;  1.0764071E-01;  0.0000000E+00; -2.1654155E-04;  9.9906559E+00;  4.1160491E-01; -8.3074558E-01;3;  2.2292107E-02;  0.0000000E+00; -5.3797178E-03;  0.0000000E+00;  0.0000000E+00;  0.0000000E+00;0;  1.8690364E-02;  9.5247482E+01;  0.0000000E+00;  4.3368489E-03;  1.0000000E+02;  0.0000000E+00;  9.8968620E+01;  1.5026843E-02;  0.0000000E+00;  3.6635206E-03;  0.0000000E+00;
  5.7103648E+00;  9.9999998E-03; -2.0015596E-01;476;  1.1004856E-01;  0.0000000E+00;  2.0286364E-04;  9.9893456E+00;  4.1207284E-01; -9.4722062E-01;3;  1.7329786E-02;  0.0000000E+00;  9.0864114E-04;  0.0000000E+00;  0.0000000E+00;  0.0000000E+00;0;  2.1321977E-02;  9.5073288E+01;  0.0000000E+00;  3.1985408E-03;  1.0000000E+02;  0.0000000E+00;  9.8898781E+01;  1.7277932E-02;  0.0000000E+00;  4.0440448E-03;  0.0000000E+00;
  5.9113684E+00;  9.9999998E-03; -6.0131168E-01;482;  1.1040378E-01;  0.0000000E+00; -1.0060659E-03;  9.9869719E+00;  4.0809047E-01; -1.1582850E+00;3; -1.6111214E-02;  0.0000000E+00; -2.4446322E-02;  0.0000000E+00;  0.0000000E+00;  0.0000000E+00;0;  1.5409384E-02;  9.6523254E+01;  0.0000000E+00; -2.8906811E-02;  1.0000000E+02;  0.0000000E+00;  9.9276825E+01;  1.2514072E-02;  0.0000000E+00;  2.8953115E-03;  0.0000000E+00;
  5.9112859E+00;  9.9999998E-03; -4.0009624E-01;483;  1.0956545E-01;  0.0000000E+00;  3.4618799E-05;  9.9890156E+00;  4.0809795E-01; -9.7657764E-01;3;  1.1847726E-02;  0.0000000E+00; -2.0898967E-03;  0.0000000E+00;  0.0000000E+00;  0.0000000E+00;0;  1.3362139E-02;  9.6576157E+01;  0.0000000E+00; -2.0919507E-02;  1.0000000E+02;  0.0000000E+00;  9.9259476E+01;  1.0625641E-02;  0.0000000E+00;  2.7364988E-03;  0.0000000E+00;
  5.9125328E+00;  9.9999998E-03; -1.9981928E-01;484;  1.1152181E-01;  0.0000000E+00;  3.5243234E-04;  9.9864826E+00;  4.0904784E-01; -1.2017379E+00;3;  1.6902264E-03;  0.0000000E+00;  9.6462201E-05;  0.0000000E+00;  0.0000000E+00;  0.0000000E+00;0;  1.6245516E-02;  9.6211090E+01;  0.0000000E+00; -3.1811770E-03;  1.0000000E+02;  0.0000000E+00;  9.9124542E+01;  1.3141465E-02;  0.0000000E+00;  3.1040509E-03;  0.0000000E+00;
  6.1120229E+00;  9.9999998E-03; -3.9973426E-01;489;  1.1088935E-01;  0.0000000E+00; -1.2988831E-04;  9.9769106E+00;  4.0456039E-01; -2.0527787E+00;3; -3.4551639E-03;  0.0000000E+00; -5.2483696E-03;  0.0000000E+00;  0.0000000E+00;  0.0000000E+00;0;  9.9106114E-03;  9.7818733E+01;  0.0000000E+00; -6.9898501E-02;  1.0000000E+02;  0.0000000E+00;  9.9479729E+01;  7.6112291E-03;  0.0000000E+00;  2.2993828E-03;  0.0000000E+00;
  6.1127467E+00;  9.9999998E-03; -1.9914253E-01;490;  1.1144716E-01;  0.0000000E+00;  8.0637657E-04;  9.9760532E+00;  4.0509409E-01; -2.1289802E+00;3;  2.9037197E-03;  0.0000000E+00; -4.4501387E-05;  0.0000000E+00;  0.0000000E+00;  0.0000000E+00;0;  1.0078397E-02;  9.7641907E+01;  0.0000000E+00; -2.6556501E-02;  1.0000000E+02;  0.0000000E+00;  9.9381058E+01;  7.9817129E-03;  0.0000000E+00;  2.0966842E-03;  0.0000000E+00;
 -5.2714552E-04;  9.9999998E-03;  5.7636209E-12;170; -9.9789293E-05;  0.0000000E+00;  6.8226835E-12;  1.0000842E+01;  3.9979619E-01;  9.0552747E-02;3; -8.9389212E-02;  0.0000000E+00; -5.4094569E-09;  0.0000000E+00;  0.0000000E+00;  0.0000000E+00;0;  1.0656302E-05;  1.0012052E+02;  0.0000000E+00; -8.8462028E-18;  1.0000000E+02;  0.0000000E+00;  9.9998360E+01;  2.4658671E-05;  0.0000000E+00; -1.4002369E-05;  0.0000000E+00;
 -5.2116544E-04;  9.9999998E-03;  2.0001486E-01;171; -1.0126449E-04;  0.0000000E+00; -1.1868354E-06;  1.0000789E+01;  3.9980310E-01;  8.4909238E-02;3; -8.6824387E-02;  0.0000000E+00;  3.9578383E-04;  0.0000000E+00;  0.0000000E+00;  0.0000000E+00;0;  2.1678296E-05;  1.0011634E+02;  0.0000000E+00; -1.3878428E-06;  1.0000000E+02;  0.0000000E+00;  9.9998604E+01;  3.4938261E-05;  0.0000000E+00; -1.3259965E-05;  0.0000000E+00;
 -5.0320802E-04;  9.9999998E-03;  4.0002802E-01;172; -1.0543605E-04;  0.0000000E+00; -2.7985809E-06;  1.0000652E+01;  3.9981970E-01;  7.0159145E-02;3; -7.9439543E-02;  0.0000000E+00;  2.3309973E-03;  0.0000000E+00;  0.0000000E+00;  0.0000000E+00;0;  4.9016202E-05;  1.0010494E+02;  0.0000000E+00; -1.6027863E-05;  1.0000000E+02;  0.0000000E+00;  9.9998947E+01;  5.9859733E-05;  0.0000000E+00; -1.0843532E-05;  0.0000000E+00;
 -4.7421403E-04;  9.9999998E-03;  6.0003817E-01;173; -1.1162373E-04;  0.0000000E+00; -4.4531330E-06;  1.0000490E+01;  3.9984262E-01;  5.2715555E-02;3; -6.7953207E-02;  0.0000000E+00;  6.4936047E-03;  0.0000000E+00;  0.0000000E+00;  0.0000000E+00;0;  7.9087273E-05;  1.0008852E+02;  0.0000000E+00; -6.4106971E-05;  1.0000000E+02;  0.0000000E+00;  9.9998749E+01;  8.5558437E-05;  0.0000000E+00; -6.4711649E-06;  0.0000000E+00;
 -4.3642006E-04;  9.9999998E-03;  8.0004591E-01;174; -1.1873856E-04;  0.0000000E+00; -4.5582378E-06;  1.0000283E+01;  3.9987266E-01;  3.0526282E-02;3; -5.2984904E-02;  0.0000000E+00;  1.1775026E-02;  0.0000000E+00;  0.0000000E+00;  0.0000000E+00;0;  9.8384611E-05;  1.0006967E+02;  0.0000000E+00; -1.4113817E-04;  1.0000000E+02;  0.0000000E+00;  1.0000000E+02;  9.8904566E-05;  0.0000000E+00; -5.1995232E-07;  0.0000000E+00;
 -3.9245468E-04;  9.9999998E-03;  1.0000564E+00;175; -1.2584198E-04;  0.0000000E+00;  1.9606350E-06;  1.0000187E+01;  3.9990443E-01;  2.0137085E-02;3; -3.7574768E-02;  0.0000000E+00;  1.6479207E-02;  0.0000000E+00;  0.0000000E+00;  0.0000000E+00;0;  1.0008451E-04;  1.0005077E+02;  0.0000000E+00; -1.9843734E-04;  1.0000000E+02;  0.0000000E+00;  1.0000087E+02;  9.4292525E-05;  0.0000000E+00;  5.7919915E-06;  0.0000000E+00;
  1.9935086E-01;  9.9999998E-03; -6.0177150E-12;181; -1.2237602E-04;  0.0000000E+00; -1.6796210E-11;  9.9999180E+00;  3.9981568E-01; -8.8499328E-03;3; -7.2682217E-02;  0.0000000E+00; -8.3948315E-09;  0.0000000E+00;  0.0000000E+00;  0.0000000E+00;0;  2.6093784E-04;  1.0009244E+02;  0.0000000E+00; -2.7159863E-17;  1.0000000E+02;  0.0000000E+00;  9.9998268E+01;  2.7883053E-04;  0.0000000E+00; -1.7892695E-05;  0.0000000E+00;
  1.9935857E-01;  9.9999998E-03;  2.0000978E-01;182; -1.2426541E-04;  0.0000000E+00; -5.1359211E-06;  9.9998684E+00;  3.9982343E-01; -1.4172719E-02;3; -7.0693851E-02;  0.0000000E+00;  2.5958593E-03;  0.0000000E+00;  0.0000000E+00;  0.0000000E+00;0;  2.7612757E-04;  1.0008769E+02;  0.0000000E+00; -1.6865470E-05;  1.0000000E+02;  0.0000000E+00;  9.9998436E+01;  2.9323442E-04;  0.0000000E+00; -1.7106844E-05;  0.0000000E+00;
  1.9938126E-01;  9.9999998E-03;  4.0001565E-01;183; -1.2973986E-04;  0.0000000E+00; -1.1843027E-05;  9.9997406E+00;  3.9984244E-01; -2.7896527E-02;3; -6.4933114E-02;  0.0000000E+00;  6.8585672E-03;  0.0000000E+00;  0.0000000E+00;  0.0000000E+00;0;  3.1212679E-04;  1.0007521E+02;  0.0000000E+00; -1.1339367E-04;  1.0000000E+02;  0.0000000E+00;  9.9998802E+01;  3.2658133E-04;  0.0000000E+00; -1.4454536E-05;  0.0000000E+00;
  1.9941744E-01;  9.9999998E-03;  6.0001510E-01;184; -1.3823705E-04;  0.0000000E+00; -2.0227830E-05;  9.9995861E+00;  3.9986703E-01; -4.4506185E-02;3; -5.5859759E-02;  0.0000000E+00;  1.3605688E-02;  0.0000000E+00;  0.0000000E+00;  0.0000000E+00;0;  3.4571593E-04;  1.0005879E+02;  0.0000000E+00; -3.4381999E-04;  1.0000000E+02;  0.0000000E+00;  9.9998962E+01;  3.5506603E-04;  0.0000000E+00; -9.3501076E-06;  0.0000000E+00;
  1.9946429E-01;  9.9999998E-03;  8.0000818E-01;185; -1.4992410E-04;  0.0000000E+00; -3.0011774E-05;  9.9994841E+00;  3.9989483E-01; -5.5536535E-02;3; -4.4618297E-02;  0.0000000E+00;  2.2136871E-02;  0.0000000E+00;  0.0000000E+00;  0.0000000E+00;0;  3.5303773E-04;  1.0004258E+02;  0.0000000E+00; -6.4943079E-04;  1.0000000E+02;  0.0000000E+00;  9.9999870E+01;  3.5509584E-04;  0.0000000E+00; -2.0580992E-06;  0.0000000E+00;
  1.9952057E-01;  9.9999998E-03;  9.9999928E-01;186; -1.6412878E-04;  0.0000000E+00; -3.9322174E-05;  9.9994907E+00;  3.9992025E-01; -5.4766975E-02;3; -3.3311784E-02;  0.0000000E+00;  3.0324608E-02;  0.0000000E+00;  0.0000000E+00;  0.0000000E+00;0;  3.2003361E-04;  1.0002946E+02;  0.0000000E+00; -8.4118935E-04;  1.0000000E+02;  0.0000000E+00;  1.0000108E+02;  3.1528503E-04;  0.0000000E+00;  4.7485919E-06;  0.0000000E+00;
  3.9922687E-01;  9.9999998E-03; -4.9619163E-12;192; -1.4349603E-04;  0.0000000E+00;  5.3827633E-11;  9.9988632E+00;  3.9988911E-01; -1.2229203E-01;3; -9.4775423E-02;  0.0000000E+00;  1.7351326E-08;  0.0000000E+00;  0.0000000E+00;  0.0000000E+00;0;  6.9634337E-04;  1.0003490E+02;  0.0000000E+00;  1.3463707E-18;  1.0000000E+02;  0.0000000E+00;  9.9998360E+01;  7.1632053E-04;  0.0000000E+00; -1.9977166E-05;  0.0000000E+00;
  3.9923683E-01;  9.9999998E-03;  1.9999924E-01;193; -1.4528853E-04;  0.0000000E+00; -7.0541828E-06;  9.9988089E+00;  3.9989665E-01; -1.2812766E-01;3; -9.3398176E-02;  0.0000000E+00;  1.4772446E-02;  0.0000000E+00;  0.0000000E+00;  0.0000000E+00;0;  7.1725517E-04;  1.0002964E+02;  0.0000000E+00; -8.1780534E-05;  1.0000000E+02;  0.0000000E+00;  9.9998367E+01;  7.3657668E-04;  0.0000000E+00; -1.9321506E-05;  0.0000000E+00;
  3.9926773E-01;  9.9999998E-03;  3.9999634E-01;194; -1.4942030E-04;  0.0000000E+00; -1.5483374E-05;  9.9986820E+00;  3.9991680E-01; -1.4178692E-01;3; -8.9283802E-02;  0.0000000E+00;  3.4491044E-02;  0.0000000E+00;  0.0000000E+00;  0.0000000E+00;0;  7.6504803E-04;  1.0001646E+02;  0.0000000E+00; -4.2742895E-04;  1.0000000E+02;  0.0000000E+00;  9.9998520E+01;  7.8200491E-04;  0.0000000E+00; -1.6956859E-05;  0.0000000E+00;
  3.9931995E-01;  9.9999998E-03;  5.9998924E-01;195; -1.5480042E-04;  0.0000000E+00; -2.5921665E-05;  9.9985561E+00;  3.9994106E-01; -1.5531792E-01;3; -8.2841501E-02;  0.0000000E+00;  6.1622791E-02;  0.0000000E+00;  0.0000000E+00;  0.0000000E+00;0;  8.0313778E-04;  1.0000134E+02;  0.0000000E+00; -1.1032579E-03;  1.0000000E+02;  0.0000000E+00;  9.9999260E+01;  8.1513217E-04;  0.0000000E+00; -1.1994387E-05;  0.0000000E+00;
  3.9939249E-01;  9.9999998E-03;  7.9997975E-01;196; -1.6009787E-04;  0.0000000E+00; -3.8718161E-05;  9.9985247E+00;  3.9996171E-01; -1.5871671E-01;3; -7.5037330E-02;  0.0000000E+00;  9.3262434E-02;  0.0000000E+00;  0.0000000E+00;  0.0000000E+00;0;  7.9260295E-04;  9.9990227E+01;  0.0000000E+00; -1.8583112E-03;  1.0000000E+02;  0.0000000E+00;  9.9999763E+01;  7.9696521E-04;  0.0000000E+00; -4.3622840E-06;  0.0000000E+00;
  3.9949688E-01;  9.9999998E-03;  9.9998957E-01;197; -1.5763922E-04;  0.0000000E+00; -4.4109856E-05;  9.9986715E+00;  3.9997366E-01; -1.4294122E-01;3; -6.6729657E-02;  0.0000000E+00;  1.1971135E-01;  0.0000000E+00;  0.0000000E+00;  0.0000000E+00;0;  7.1076507E-04;  9.9986282E+01;  0.0000000E+00; -2.2185931E-03;  1.0000000E+02;  0.0000000E+00;  1.0000108E+02;  7.0703193E-04;  0.0000000E+00;  3.7331738E-06;  0.0000000E+00;
  5.9913468E-01;  9.9999998E-03; -9.3074550E-12;203; -1.5175172E-04;  0.0000000E+00; -1.3867907E-11;  9.9978247E+00;  4.0002146E-01; -2.3405097E-01;3; -5.1374435E-02;  0.0000000E+00;  2.4699474E-08;  0.0000000E+00;  0.0000000E+00;  0.0000000E+00;0;  1.3148690E-03;  9.9947945E+01;  0.0000000E+00; -4.9422917E-18;  1.0000000E+02;  0.0000000E+00;  9.9998482E+01;  1.3350041E-03;  0.0000000E+00; -2.0135029E-05;  0.0000000E+00;
  5.9914732E-01;  9.9999998E-03;  1.9999003E-01;204; -1.5209233E-04;  0.0000000E+00; -6.1128321E-06;  9.9977579E+00;  4.0003112E-01; -2.4123281E-01;3; -5.1244706E-02;  0.0000000E+00;  1.6203402E-02;  0.0000000E+00;  0.0000000E+00;  0.0000000E+00;0;  1.3448811E-03;  9.9942062E+01;  0.0000000E+00; -2.3477203E-04;  1.0000000E+02;  0.0000000E+00;  9.9998360E+01;  1.3644877E-03;  0.0000000E+00; -1.9606548E-05;  0.0000000E+00;
  5.9918946E-01;  9.9999998E-03;  3.9998052E-01;205; -1.5098469E-04;  0.0000000E+00; -1.4130588E-05;  9.9976177E+00;  4.0005308E-01; -2.5630182E-01;3; -5.1089060E-02;  0.0000000E+00;  3.7864070E-02;  0.0000000E+00;  0.0000000E+00;  0.0000000E+00;0;  1.4121926E-03;  9.9927666E+01;  0.0000000E+00; -1.0735504E-03;  1.0000000E+02;  0.0000000E+00;  9.9998360E+01;  1.4299470E-03;  0.0000000E+00; -1.7754357E-05;  0.0000000E+00;
  5.9926480E-01;  9.9999998E-03;  5.9997147E-01;206; -1.4796556E-04;  0.0000000E+00; -2.6245787E-05;  9.9975023E+00;  4.0007550E-01; -2.6867765E-01;3; -5.2488945E-02;  0.0000000E+00;  6.8549082E-02;  0.0000000E+00;  0.0000000E+00;  0.0000000E+00;0;  1.4626661E-03;  9.9913437E+01;  0.0000000E+00; -2.4466524E-03;  1.0000000E+02;  0.0000000E+00;  9.9998657E+01;  1.4764225E-03;  0.0000000E+00; -1.3756437E-05;  0.0000000E+00;
  5.9937400E-01;  9.9999998E-03;  7.9996675E-01;207; -1.4302936E-04;  0.0000000E+00; -4.3242475E-05;  9.9975119E+00;  4.0008610E-01; -2.6765168E-01;3; -5.7711333E-02;  0.0000000E+00;  1.0605986E-01;  0.0000000E+00;  0.0000000E+00;  0.0000000E+00;0;  1.4381588E-03;  9.9907974E+01;  0.0000000E+00; -3.6264537E-03;  1.0000000E+02;  0.0000000E+00;  9.9999397E+01;  1.4456487E-03;  0.0000000E+00; -7.4898871E-06;  0.0000000E+00;
  5.9955132E-01;  9.9999998E-03;  1.0000052E+00;208; -1.2054913E-04;  0.0000000E+00; -5.5818291E-05;  9.9977398E+00;  4.0008387E-01; -2.4315643E-01;3; -6.4871050E-02;  0.0000000E+00;  1.3496576E-01;  0.0000000E+00;  0.0000000E+00;  0.0000000E+00;0;  1.3021003E-03;  9.9913078E+01;  0.0000000E+00; -3.8963049E-03;  1.0000000E+02;  0.0000000E+00;  1.0000097E+02;  1.3031212E-03;  0.0000000E+00; -1.0209296E-06;  0.0000000E+00;
  7.9907340E-01;  9.9999998E-03; -3.4926638E-11;214; -1.4856053E-04;  0.0000000E+00; -7.8719808E-11;  9.9969254E+00;  4.0022269E-01; -3.3069867E-01;3; -2.2433393E-02;  0.0000000E+00; -2.1089832E-08;  0.0000000E+00;  0.0000000E+00;  0.0000000E+00;0;  2.0945445E-03;  9.9829567E+01;  0.0000000E+00; -6.5481760E-18;  1.0000000E+02;  0.0000000E+00;  9.9997849E+01;  2.1145914E-03;  0.0000000E+00; -2.0046984E-05;  0.0000000E+00;
  7.9909188E-01;  9.9999998E-03;  1.9998689E-01;215; -1.4456113E-04;  0.0000000E+00; -3.9200031E-06;  9.9968576E+00;  4.0023455E-01; -3.3800760E-01;3; -2.3303838E-02;  0.0000000E+00;  1.5462191E-02;  0.0000000E+00;  0.0000000E+00;  0.0000000E+00;0;  2.1328467E-03;  9.9822639E+01;  0.0000000E+00; -4.7130440E-04;  1.0000000E+02;  0.0000000E+00;  9.9997665E+01;  2.1519258E-03;  0.0000000E+00; -1.9079102E-05;  0.0000000E+00;
  7.9915583E-01;  9.9999998E-03;  3.9997691E-01;216; -1.2504685E-04;  0.0000000E+00; -1.0152713E-05;  9.9967041E+00;  4.0026197E-01; -3.5454893E-01;3; -2.6411435E-02;  0.0000000E+00;  3.6434740E-02;  0.0000000E+00;  0.0000000E+00;  0.0000000E+00;0;  2.2195098E-03;  9.9806686E+01;  0.0000000E+00; -1.9775333E-03;  1.0000000E+02;  0.0000000E+00;  9.9997070E+01;  2.2362785E-03;  0.0000000E+00; -1.6768674E-05;  0.0000000E+00;
  7.9929805E-01;  9.9999998E-03;  5.9998149E-01;217; -7.0695438E-05;  0.0000000E+00; -1.8666271E-05;  9.9965734E+00;  4.0028599E-01; -3.6858979E-01;3; -3.4326214E-02;  0.0000000E+00;  6.6582039E-02;  0.0000000E+00;  0.0000000E+00;  0.0000000E+00;0;  2.2885129E-03;  9.9791672E+01;  0.0000000E+00; -4.0164990E-03;  1.0000000E+02;  0.0000000E+00;  9.9996979E+01;  2.3014378E-03;  0.0000000E+00; -1.2924951E-05;  0.0000000E+00;
  7.9951012E-01;  9.9999998E-03;  8.0001241E-01;218; -5.6834127E-05;  0.0000000E+00; -4.5313438E-05;  9.9965906E+00;  4.0029550E-01; -3.6673042E-01;3; -5.3162273E-02;  0.0000000E+00;  1.0413486E-01;  0.0000000E+00;  0.0000000E+00;  0.0000000E+00;0;  2.2575171E-03;  9.9786919E+01;  0.0000000E+00; -5.1264586E-03;  1.0000000E+02;  0.0000000E+00;  9.9997322E+01;  2.2679805E-03;  0.0000000E+00; -1.0463407E-05;  0.0000000E+00;
  7.9973257E-01;  9.9999998E-03;  1.0000474E+00;219;  1.1132226E-04;  0.0000000E+00; -7.8383848E-05;  9.9968472E+00;  4.0028474E-01; -3.3916140E-01;3; -7.0850387E-02;  0.0000000E+00;  1.3459751E-01;  0.0000000E+00;  0.0000000E+00;  0.0000000E+00;0;  2.1201288E-03;  9.9796890E+01;  0.0000000E+00; -4.4045318E-03;  1.0000000E+02;  0.0000000E+00;  9.9997879E+01;  2.1338561E-03;  0.0000000E+00; -1.3727153E-05;  0.0000000E+00;
  9.9903673E-01;  9.9999998E-03; -3.9927034E-11;225; -1.3435273E-04;  0.0000000E+00; -6.5280129E-11;  9.9961720E+00;  4.0051964E-01; -4.1159856E-01;3; -7.5357133E-03;  0.0000000E+00; -7.5019813E-10;  0.0000000E+00;  0.0000000E+00;  0.0000000E+00;0;  3.0514745E-03;  9.9667336E+01;  0.0000000E+00;  1.1429732E-16;  1.0000000E+02;  0.0000000E+00;  9.9996719E+01;  3.0738071E-03;  0.0000000E+00; -2.2332739E-05;  0.0000000E+00;
  9.9906760E-01;  9.9999998E-03;  1.9998586E-01;226; -1.0249605E-04;  0.0000000E+00;  4.5458346E-06;  9.9961205E+00;  4.0053287E-01; -4.1717452E-01;3; -8.6442484E-03;  0.0000000E+00;  1.3043357E-02;  0.0000000E+00;  0.0000000E+00;  0.0000000E+00;0;  3.0880601E-03;  9.9660683E+01;  0.0000000E+00; -7.0547848E-04;  1.0000000E+02;  0.0000000E+00;  9.9996101E+01;  3.1073370E-03;  0.0000000E+00; -1.9277008E-05;  0.0000000E+00;
  9.9932629E-01;  9.9999998E-03;  4.0000859E-01;227;  7.5554452E-04;  0.0000000E+00;  8.2006685E-05;  9.9959545E+00;  4.0056449E-01; -4.3499184E-01;3; -1.0817059E-02;  0.0000000E+00;  3.0593209E-02;  0.0000000E+00;  0.0000000E+00;  0.0000000E+00;0;  3.2206764E-03;  9.9643471E+01;  0.0000000E+00; -2.8800324E-03;  1.0000000E+02;  0.0000000E+00;  9.9994545E+01;  3.2232925E-03;  0.0000000E+00; -2.6159960E-06;  0.0000000E+00;
  1.0000503E+00;  9.9999998E-03;  6.0007441E-01;228;  1.7471991E-03;  0.0000000E+00;  6.0977756E-05;  9.9956236E+00;  4.0061727E-01; -4.7056201E-01;3; -3.0493937E-02;  0.0000000E+00;  5.4713689E-02;  0.0000000E+00;  0.0000000E+00;  0.0000000E+00;0;  3.4557695E-03;  9.9614624E+01;  0.0000000E+00; -6.5066833E-03;  1.0000000E+02;  0.0000000E+00;  9.9990448E+01;  3.4454626E-03;  0.0000000E+00;  1.0306907E-05;  0.0000000E+00;
  1.0002654E+00;  9.9999998E-03;  8.0005574E-01;229;  1.5338961E-03;  0.0000000E+00; -3.8272639E-05;  9.9954672E+00;  4.0064049E-01; -4.8741788E-01;3; -6.4760230E-02;  0.0000000E+00;  9.2569567E-02;  0.0000000E+00;  0.0000000E+00;  0.0000000E+00;0;  3.5376025E-03;  9.9597542E+01;  0.0000000E+00; -7.9014031E-03;  1.0000000E+02;  0.0000000E+00;  9.9992348E+01;  3.5452044E-03;  0.0000000E+00; -7.6018205E-06;  0.0000000E+00;
  1.0001496E+00;  9.9999998E-03;  1.0000484E+00;230;  2.2122420E-03;  0.0000000E+00;  4.8695587E-05;  9.9953594E+00;  4.0058398E-01; -4.9901864E-01;3; -6.9598764E-02;  0.0000000E+00;  1.2109961E-01;  0.0000000E+00;  0.0000000E+00;  0.0000000E+00;0;  3.9412552E-03;  9.9621048E+01;  0.0000000E+00; -3.0112099E-03;  1.0000000E+02;  0.0000000E+00;  9.9996498E+01;  3.9012819E-03;  0.0000000E+00;  3.9973253E-05;  0.0000000E+00;
  1.1991198E+00;  9.9999998E-03; -2.3695233E-11;236;  5.3217507E-04;  0.0000000E+00; -2.2770884E-10;  9.9955072E+00;  4.0095070E-01; -4.8276195E-01;3;  6.0500304E-04;  0.0000000E+00;  1.4481557E-08;  0.0000000E+00;  0.0000000E+00;  0.0000000E+00;0;  4.2749126E-03;  9.9441162E+01;  0.0000000E+00;  1.2130204E-16;  1.0000000E+02;  0.0000000E+00;  9.9995560E+01;  4.3014279E-03;  0.0000000E+00; -2.6515099E-05;  0.0000000E+00;
  1.1993217E+00;  9.9999998E-03;  1.9996230E-01;237;  1.2087114E-03;  0.0000000E+00; -1.7919965E-05;  9.9954748E+00;  4.0096185E-01; -4.8621976E-01;3; -5.8100681E-04;  0.0000000E+00;  9.3156137E-03;  0.0000000E+00;  0.0000000E+00;  0.0000000E+00;0;  4.3090512E-03;  9.9436104E+01;  0.0000000E+00; -8.2570926E-04;  1.0000000E+02;  0.0000000E+00;  9.9994179E+01;  4.3308274E-03;  0.0000000E+00; -2.1776017E-05;  0.0000000E+00;
  1.2000135E+00;  9.9999998E-03;  4.0003678E-01;238;  2.4122752E-03;  0.0000000E+00;  8.1697093E-05;  9.9953222E+00;  4.0099898E-01; -5.0261307E-01;3; -7.2261682E-03;  0.0000000E+00;  2.0917049E-02;  0.0000000E+00;  0.0000000E+00;  0.0000000E+00;0;  4.4586747E-03;  9.9419525E+01;  0.0000000E+00; -3.6817926E-03;  1.0000000E+02;  0.0000000E+00;  9.9989403E+01;  4.4490793E-03;  0.0000000E+00;  9.5952628E-06;  0.0000000E+00;
  1.2007762E+00;  9.9999998E-03;  6.0009634E-01;239;  2.7172812E-03;  0.0000000E+00; -1.2124044E-05;  9.9951181E+00;  4.0106350E-01; -5.2451372E-01;3; -3.0419359E-02;  0.0000000E+00;  3.7918430E-02;  0.0000000E+00;  0.0000000E+00;  0.0000000E+00;0;  4.6235346E-03;  9.9390686E+01;  0.0000000E+00; -8.6863106E-03;  1.0000000E+02;  0.0000000E+00;  9.9983002E+01;  4.6172952E-03;  0.0000000E+00;  6.2395852E-06;  0.0000000E+00;
  1.2006123E+00;  9.9999998E-03;  8.0002868E-01;240;  1.7774509E-03;  0.0000000E+00; -9.7466378E-05;  9.9952402E+00;  4.0105593E-01; -5.1144940E-01;3; -5.1986944E-02;  0.0000000E+00;  7.7410839E-02;  0.0000000E+00;  0.0000000E+00;  0.0000000E+00;0;  4.5195324E-03;  9.9389168E+01;  0.0000000E+00; -7.3430319E-03;  1.0000000E+02;  0.0000000E+00;  9.9990143E+01;  4.5536854E-03;  0.0000000E+00; -3.4153076E-05;  0.0000000E+00;
  1.2008502E+00;  9.9999998E-03;  1.0000693E+00;241;  2.8637326E-03;  0.0000000E+00; -2.2693264E-05;  9.9946585E+00;  4.0103492E-01; -5.7395488E-01;3; -7.5068526E-02;  0.0000000E+00;  9.0925291E-02;  0.0000000E+00;  0.0000000E+00;  0.0000000E+00;0;  5.0272122E-03;  9.9388382E+01;  0.0000000E+00; -3.5035126E-03;  1.0000000E+02;  0.0000000E+00;  9.9990555E+01;  5.0227083E-03;  0.0000000E+00;  4.5038341E-06;  0.0000000E+00;
  1.3996115E+00;  9.9999998E-03;  4.5133106E-11;247;  1.8510505E-03;  0.0000000E+00;  1.7308248E-10;  9.9948425E+00;  4.0155891E-01; -5.5325258E-01;3;  1.4684293E-03;  0.0000000E+00;  1.4469231E-08;  0.0000000E+00;  0.0000000E+00;  0.0000000E+00;0;  5.9230342E-03;  9.9131409E+01;  0.0000000E+00; -3.9111545E-17;  1.0000000E+02;  0.0000000E+00;  9.9990822E+01;  5.9447018E-03;  0.0000000E+00; -2.1667762E-05;  0.0000000E+00;
  1.3998069E+00;  9.9999998E-03;  1.9994813E-01;248;  2.1989122E-03;  0.0000000E+00; -2.4809156E-05;  9.9948416E+00;  4.0156224E-01; -5.5331522E-01;3;  3.7399097E-04;  0.0000000E+00;  5.5833366E-03;  0.0000000E+00;  0.0000000E+00;  0.0000000E+00;0;  5.9273355E-03;  9.9130600E+01;  0.0000000E+00; -7.4510759E-04;  1.0000000E+02;  0.0000000E+00;  9.9989586E+01;  5.9406902E-03;  0.0000000E+00; -1.3354581E-05;  0.0000000E+00;
  1.4005218E+00;  9.9999998E-03;  3.9999580E-01;249;  2.8623668E-03;  0.0000000E+00;  4.8859976E-05;  9.9947939E+00;  4.0158311E-01; -5.5842549E-01;3; -6.0099084E-03;  0.0000000E+00;  1.3291960E-02;  0.0000000E+00;  0.0000000E+00;  0.0000000E+00;0;  5.9805401E-03;  9.9125946E+01;  0.0000000E+00; -3.4278529E-03;  1.0000000E+02;  0.0000000E+00;  9.9984299E+01;  5.9523652E-03;  0.0000000E+00;  2.8174916E-05;  0.0000000E+00;
  1.4012837E+00;  9.9999998E-03;  6.0005099E-01;250;  3.0978974E-03;  0.0000000E+00; -4.6738340E-05;  9.9947720E+00;  4.0161762E-01; -5.6078607E-01;3; -2.2277014E-02;  0.0000000E+00;  2.4508642E-02;  0.0000000E+00;  0.0000000E+00;  0.0000000E+00;0;  5.9987199E-03;  9.9114471E+01;  0.0000000E+00; -8.2267756E-03;  1.0000000E+02;  0.0000000E+00;  9.9977402E+01;  5.9782867E-03;  0.0000000E+00;  2.0433225E-05;  0.0000000E+00;
  1.4011713E+00;  9.9999998E-03;  8.0001462E-01;251;  2.6181112E-03;  0.0000000E+00; -2.4381305E-05;  9.9948702E+00;  4.0157935E-01; -5.5023730E-01;3; -3.7357822E-02;  0.0000000E+00;  5.2360695E-02;  0.0000000E+00;  0.0000000E+00;  0.0000000E+00;0;  5.9129149E-03;  9.9126701E+01;  0.0000000E+00; -6.1196070E-03;  1.0000000E+02;  0.0000000E+00;  9.9986572E+01;  5.8805593E-03;  0.0000000E+00;  3.2355627E-05;  0.0000000E+00;
  1.4015285E+00;  9.9999998E-03;  1.0000895E+00;252;  3.7251229E-03;  0.0000000E+00;  8.8757246E-05;  9.9946051E+00;  4.0155184E-01; -5.7868654E-01;3; -5.6933556E-02;  0.0000000E+00;  5.7643138E-02;  0.0000000E+00;  0.0000000E+00;  0.0000000E+00;0;  6.2854192E-03;  9.9138046E+01;  0.0000000E+00; -2.7759455E-03;  1.0000000E+02;  0.0000000E+00;  9.9983856E+01;  6.1615775E-03;  0.0000000E+00;  1.2384159E-04;  0.0000000E+00;
  1.6001904E+00;  9.9999998E-03;  1.1015695E-10;258;  2.4599456E-03;  0.0000000E+00;  8.4918844E-10;  9.9941130E+00;  4.0236172E-01; -6.2924480E-01;3; -4.0406815E-04;  0.0000000E+00;  9.9458983E-09;  0.0000000E+00;  0.0000000E+00;  0.0000000E+00;0;  8.1406254E-03;  9.8734138E+01;  0.0000000E+00;  2.2685480E-16;  1.0000000E+02;  0.0000000E+00;  9.9978157E+01;  8.1210053E-03;  0.0000000E+00;  1.9619849E-05;  0.0000000E+00;
  1.6003644E+00;  9.9999998E-03;  1.9993712E-01;259;  2.6535064E-03;  0.0000000E+00; -4.3635038E-05;  9.9941397E+00;  4.0235573E-01; -6.2637514E-01;3; -1.0970491E-03;  0.0000000E+00;  2.3623004E-03;  0.0000000E+00;  0.0000000E+00;  0.0000000E+00;0;  8.1048291E-03;  9.8739220E+01;  0.0000000E+00; -4.7581131E-04;  1.0000000E+02;  0.0000000E+00;  9.9976845E+01;  8.0745891E-03;  0.0000000E+00;  3.0239777E-05;  0.0000000E+00;
  1.6009784E+00;  9.9999998E-03;  3.9994562E-01;260;  3.0839262E-03;  0.0000000E+00; -4.9454331E-05;  9.9942093E+00;  4.0233952E-01; -6.1891162E-01;3; -4.7021243E-03;  0.0000000E+00;  6.0795071E-03;  0.0000000E+00;  0.0000000E+00;  0.0000000E+00;0;  8.0155684E-03;  9.8752396E+01;  0.0000000E+00; -2.2218376E-03;  1.0000000E+02;  0.0000000E+00;  9.9972763E+01;  7.9562748E-03;  0.0000000E+00;  5.9293365E-05;  0.0000000E+00;
  1.6017798E+00;  9.9999998E-03;  5.9999132E-01;261;  3.6731339E-03;  0.0000000E+00; -8.7052809E-05;  9.9943180E+00;  4.0231806E-01; -6.0730445E-01;3; -1.2819951E-02;  0.0000000E+00;  1.2885828E-02;  0.0000000E+00;  0.0000000E+00;  0.0000000E+00;0;  7.8630671E-03;  9.8768135E+01;  0.0000000E+00; -5.4092053E-03;  1.0000000E+02;  0.0000000E+00;  9.9969666E+01;  7.8091295E-03;  0.0000000E+00;  5.3937587E-05;  0.0000000E+00;
  1.6019213E+00;  9.9999998E-03;  8.0002910E-01;262;  3.4488684E-03;  0.0000000E+00; -1.1251563E-05;  9.9945135E+00;  4.0224457E-01; -5.8640689E-01;3; -1.8870840E-02;  0.0000000E+00;  2.6708951E-02;  0.0000000E+00;  0.0000000E+00;  0.0000000E+00;0;  7.6199095E-03;  9.8801117E+01;  0.0000000E+00; -4.1283267E-03;  1.0000000E+02;  0.0000000E+00;  9.9976952E+01;  7.5408081E-03;  0.0000000E+00;  7.9101286E-05;  0.0000000E+00;
  1.6025035E+00;  9.9999998E-03;  1.0001338E+00;263;  4.9564284E-03;  0.0000000E+00;  3.7359227E-05;  9.9944572E+00;  4.0218028E-01; -5.9238631E-01;3; -4.4367820E-02;  0.0000000E+00;  3.2459043E-02;  0.0000000E+00;  0.0000000E+00;  0.0000000E+00;0;  7.6452070E-03;  9.8834625E+01;  0.0000000E+00; -3.6460659E-03;  1.0000000E+02;  0.0000000E+00;  9.9974174E+01;  7.5855115E-03;  0.0000000E+00;  5.9695252E-05;  0.0000000E+00;
  1.8008879E+00;  9.9999998E-03;  2.1339902E-10;269;  2.9975725E-03;  0.0000000E+00;  1.1218424E-09;  9.9934082E+00;  4.0333527E-01; -6.9924659E-01;3; -4.9540336E-04;  0.0000000E+00;  2.6569161E-08;  0.0000000E+00;  0.0000000E+00;  0.0000000E+00;0;  1.0907673E-02;  9.8272736E+01;  0.0000000E+00;  9.9599015E-16;  1.0000000E+02;  0.0000000E+00;  9.9949501E+01;  1.0765596E-02;  0.0000000E+00;  1.4207661E-04;  0.0000000E+00;
  1.8010223E+00;  9.9999998E-03;  1.9991690E-01;270;  3.0990848E-03;  0.0000000E+00; -9.4306299E-05;  9.9934549E+00;  4.0331599E-01; -6.9430983E-01;3; -7.2840491E-04;  0.0000000E+00;  5.5273890E-04;  0.0000000E+00;  0.0000000E+00;  0.0000000E+00;0;  1.0823831E-02;  9.8284157E+01;  0.0000000E+00; -1.8851424E-04;  1.0000000E+02;  0.0000000E+00;  9.9948799E+01;  1.0674982E-02;  0.0000000E+00;  1.4884863E-04;  0.0000000E+00;
  1.8015810E+00;  9.9999998E-03;  3.9986572E-01;271;  3.7065428E-03;  0.0000000E+00; -1.8931180E-04;  9.9935989E+00;  4.0325412E-01; -6.7898870E-01;3; -1.8749452E-03;  0.0000000E+00;  2.1233687E-03;  0.0000000E+00;  0.0000000E+00;  0.0000000E+00;0;  1.0571898E-02;  9.8315567E+01;  0.0000000E+00; -9.2503347E-04;  1.0000000E+02;  0.0000000E+00;  9.9950531E+01;  1.0432362E-02;  0.0000000E+00;  1.3953674E-04;  0.0000000E+00;
  1.8026872E+00;  9.9999998E-03;  5.9993196E-01;272;  5.1100263E-03;  0.0000000E+00; -1.3289254E-04;  9.9937992E+00;  4.0316504E-01; -6.5770620E-01;3; -4.6397322E-03;  0.0000000E+00;  5.7801190E-03;  0.0000000E+00;  0.0000000E+00;  0.0000000E+00;0;  1.0247730E-02;  9.8357658E+01;  0.0000000E+00; -2.7211141E-03;  1.0000000E+02;  0.0000000E+00;  9.9955887E+01;  1.0122126E-02;  0.0000000E+00;  1.2560391E-04;  0.0000000E+00;
  1.8035233E+00;  9.9999998E-03;  8.0007619E-01;273;  4.8652678E-03;  0.0000000E+00; -1.1836340E-05;  9.9940720E+00;  4.0307057E-01; -6.2878561E-01;3; -1.1636169E-02;  0.0000000E+00;  1.2310127E-02;  0.0000000E+00;  0.0000000E+00;  0.0000000E+00;0;  9.7875865E-03;  9.8406128E+01;  0.0000000E+00; -5.1612523E-03;  1.0000000E+02;  0.0000000E+00;  9.9959152E+01;  9.6749691E-03;  0.0000000E+00;  1.1261745E-04;  0.0000000E+00;
  1.8035895E+00;  9.9999998E-03;  1.0002334E+00;274;  6.7229634E-03;  0.0000000E+00;  1.2899136E-04;  9.9942513E+00;  4.0292430E-01; -6.0975432E-01;3; -2.0220866E-02;  0.0000000E+00;  1.2892377E-02;  0.0000000E+00;  0.0000000E+00;  0.0000000E+00;0;  9.5464708E-03;  9.8482513E+01;  0.0000000E+00; -1.6597661E-03;  1.0000000E+02;  0.0000000E+00;  9.9957199E+01;  9.4148554E-03;  0.0000000E+00;  1.3161509E-04;  0.0000000E+00;
  2.0024583E+00;  9.9999998E-03;  5.6366203E-11;280;  4.8039425E-03;  0.0000000E+00;  1.2783223E-10;  9.9928808E+00;  4.0438682E-01; -7.4404186E-01;3;  6.4777577E-04;  0.0000000E+00;  3.4304892E-09;  0.0000000E+00;  0.0000000E+00;  0.0000000E+00;0;  1.3904323E-02;  9.7804482E+01;  0.0000000E+00; -6.7635640E-17;  1.0000000E+02;  0.0000000E+00;  9.9896194E+01;  1.3503365E-02;  0.0000000E+00;  4.0095765E-04;  0.0000000E+00;
  2.0025847E+00;  9.9999998E-03;  1.9990654E-01;281;  4.9278727E-03;  0.0000000E+00; -1.3204241E-04;  9.9929438E+00;  4.0435487E-01; -7.3742944E-01;3;  7.1273907E-04;  0.0000000E+00; -1.0309922E-04;  0.0000000E+00;  0.0000000E+00;  0.0000000E+00;0;  1.3778722E-02;  9.7820999E+01;  0.0000000E+00; -4.3505745E-05;  1.0000000E+02;  0.0000000E+00;  9.9896431E+01;  1.3377714E-02;  0.0000000E+00;  4.0100800E-04;  0.0000000E+00;
  2.0032787E+00;  9.9999998E-03;  3.9982486E-01;282;  5.6489119E-03;  0.0000000E+00; -2.7269541E-04;  9.9931402E+00;  4.0425080E-01; -7.1688586E-01;3;  6.1408785E-04;  0.0000000E+00;  2.3042921E-04;  0.0000000E+00;  0.0000000E+00;  0.0000000E+00;0;  1.3386054E-02;  9.7866379E+01;  0.0000000E+00; -3.1581754E-04;  1.0000000E+02;  0.0000000E+00;  9.9905029E+01;  1.3036614E-02;  0.0000000E+00;  3.4943951E-04;  0.0000000E+00;
  2.0046813E+00;  9.9999998E-03;  5.9992892E-01;283;  7.6745665E-03;  0.0000000E+00; -1.6269369E-04;  9.9934063E+00;  4.0409833E-01; -6.8894702E-01;3;  1.5060484E-03;  0.0000000E+00;  1.7307174E-03;  0.0000000E+00;  0.0000000E+00;  0.0000000E+00;0;  1.2853791E-02;  9.7929718E+01;  0.0000000E+00; -1.4164587E-03;  1.0000000E+02;  0.0000000E+00;  9.9922218E+01;  1.2580216E-02;  0.0000000E+00;  2.7357475E-04;  0.0000000E+00;
  2.0063486E+00;  9.9999998E-03;  8.0020607E-01;284;  9.1495272E-03;  0.0000000E+00;  8.9787281E-05;  9.9936600E+00;  4.0397283E-01; -6.6236812E-01;3; -2.7554559E-03;  0.0000000E+00;  4.2114933E-03;  0.0000000E+00;  0.0000000E+00;  0.0000000E+00;0;  1.2360282E-02;  9.7994446E+01;  0.0000000E+00; -5.5450802E-03;  1.0000000E+02;  0.0000000E+00;  9.9922249E+01;  1.2101691E-02;  0.0000000E+00;  2.5859091E-04;  0.0000000E+00;
  2.0065989E+00;  9.9999998E-03;  1.0004430E+00;285;  6.5408340E-03;  0.0000000E+00;  3.1239857E-04;  9.9940109E+00;  4.0383708E-01; -6.2567532E-01;3; -7.5979554E-03;  0.0000000E+00;  5.0553530E-03;  0.0000000E+00;  0.0000000E+00;  0.0000000E+00;0;  1.1643252E-02;  9.8068947E+01;  0.0000000E+00; -8.2890186E-03;  1.0000000E+02;  0.0000000E+00;  9.9920578E+01;  1.1377931E-02;  0.0000000E+00;  2.6532175E-04;  0.0000000E+00;
  2.2069380E+00;  9.9999998E-03; -3.3483938E-11;291;  1.0862886E-02;  0.0000000E+00; -2.6830835E-09;  9.9927015E+00;  4.0538996E-01; -7.4311835E-01;3;  5.7133636E-03;  0.0000000E+00; -3.8462208E-08;  0.0000000E+00;  0.0000000E+00;  0.0000000E+00;0;  1.6641952E-02;  9.7400650E+01;  0.0000000E+00;  1.7996983E-15;  1.0000000E+02;  0.0000000E+00;  9.9810478E+01;  1.5790366E-02;  0.0000000E+00;  8.5158570E-04;  0.0000000E+00;
  2.2069573E+00;  9.9999998E-03;  1.9993140E-01;292;  1.0810889E-02;  0.0000000E+00; -1.4469658E-04;  9.9927626E+00;  4.0535101E-01; -7.3686528E-01;3;  5.6219413E-03;  0.0000000E+00; -1.4107500E-04;  0.0000000E+00;  0.0000000E+00;  0.0000000E+00;0;  1.6494947E-02;  9.7419106E+01;  0.0000000E+00;  1.5750030E-06;  1.0000000E+02;  0.0000000E+00;  9.9811729E+01;  1.5654299E-02;  0.0000000E+00;  8.4064720E-04;  0.0000000E+00;
  2.2070580E+00;  9.9999998E-03;  3.9988050E-01;293;  1.0716051E-02;  0.0000000E+00; -2.7891272E-04;  9.9929647E+00;  4.0522471E-01; -7.1628100E-01;3;  5.2618650E-03;  0.0000000E+00; -3.1172304E-04;  0.0000000E+00;  0.0000000E+00;  0.0000000E+00;0;  1.6022466E-02;  9.7470154E+01;  0.0000000E+00; -7.4361968E-05;  1.0000000E+02;  0.0000000E+00;  9.9826241E+01;  1.5282376E-02;  0.0000000E+00;  7.4009120E-04;  0.0000000E+00;
  2.2074323E+00;  9.9999998E-03;  6.0009581E-01;294;  1.0840317E-02;  0.0000000E+00; -3.7860587E-05;  9.9932213E+00;  4.0503916E-01; -6.9014537E-01;3;  4.4994513E-03;  0.0000000E+00; -8.6922571E-04;  0.0000000E+00;  0.0000000E+00;  0.0000000E+00;0;  1.5389744E-02;  9.7542526E+01;  0.0000000E+00; -4.3018477E-04;  1.0000000E+02;  0.0000000E+00;  9.9847969E+01;  1.4769074E-02;  0.0000000E+00;  6.2067033E-04;  0.0000000E+00;
  2.2081485E+00;  9.9999998E-03;  8.0049521E-01;295;  1.1351836E-02;  0.0000000E+00;  4.0236747E-04;  9.9934778E+00;  4.0488657E-01; -6.6391641E-01;3;  3.1306343E-03;  0.0000000E+00;  1.4350873E-03;  0.0000000E+00;  0.0000000E+00;  0.0000000E+00;0;  1.4879460E-02;  9.7621803E+01;  0.0000000E+00; -1.3989025E-03;  1.0000000E+02;  0.0000000E+00;  9.9847961E+01;  1.4228591E-02;  0.0000000E+00;  6.5086910E-04;  0.0000000E+00;
  2.2091424E+00;  9.9999998E-03;  1.0008273E+00;296;  1.2192075E-02;  0.0000000E+00;  7.0431229E-04;  9.9936867E+00;  4.0474099E-01; -6.4257932E-01;3;  4.6970657E-04;  0.0000000E+00;  1.0534422E-03;  0.0000000E+00;  0.0000000E+00;  0.0000000E+00;0;  1.4362196E-02;  9.7696190E+01;  0.0000000E+00; -3.5283489E-03;  1.0000000E+02;  0.0000000E+00;  9.9847626E+01;  1.3743499E-02;  0.0000000E+00;  6.1869592E-04;  0.0000000E+00;
  2.4118516E+00;  9.9999998E-03;  3.3685221E-10;302;  1.7598288E-02;  0.0000000E+00; -1.7918592E-09;  9.9928246E+00;  4.0628961E-01; -7.0444018E-01;3;  1.1138074E-02;  0.0000000E+00; -1.2273019E-07;  0.0000000E+00;  0.0000000E+00;  0.0000000E+00;0;  1.8857939E-02;  9.7090431E+01;  0.0000000E+00; -6.0519889E-17;  1.0000000E+02;  0.0000000E+00;  9.9689171E+01;  1.7341191E-02;  0.0000000E+00;  1.5167483E-03;  0.0000000E+00;
  2.4116325E+00;  9.9999998E-03;  1.9999976E-01;303;  1.7128142E-02;  0.0000000E+00; -8.8904897E-05;  9.9928675E+00;  4.0625459E-01; -7.0025605E-01;3;  1.0492991E-02;  0.0000000E+00; -2.6246163E-04;  0.0000000E+00;  0.0000000E+00;  0.0000000E+00;0;  1.8737487E-02;  9.7104866E+01;  0.0000000E+00;  6.5355262E-06;  1.0000000E+02;  0.0000000E+00;  9.9692307E+01;  1.7244518E-02;  0.0000000E+00;  1.4929698E-03;  0.0000000E+00;
  2.4110637E+00;  9.9999998E-03;  4.0004483E-01;304;  1.5876496E-02;  0.0000000E+00; -1.1993990E-04;  9.9930105E+00;  4.0613765E-01; -6.8628544E-01;3;  8.7938746E-03;  0.0000000E+00; -4.9191684E-04;  0.0000000E+00;  0.0000000E+00;  0.0000000E+00;0;  1.8336635E-02;  9.7144470E+01;  0.0000000E+00;  2.0357853E-05;  1.0000000E+02;  0.0000000E+00;  9.9711929E+01;  1.6981503E-02;  0.0000000E+00;  1.3551319E-03;  0.0000000E+00;
  2.4103642E+00;  9.9999998E-03;  6.0052520E-01;305;  1.4278037E-02;  0.0000000E+00;  6.3428382E-04;  9.9930878E+00;  4.0600947E-01; -6.7882586E-01;3;  6.5124058E-03;  0.0000000E+00; -4.0004705E-03;  0.0000000E+00;  0.0000000E+00;  0.0000000E+00;0;  1.8092051E-02;  9.7200500E+01;  0.0000000E+00; -1.0120851E-05;  1.0000000E+02;  0.0000000E+00;  9.9719223E+01;  1.6618541E-02;  0.0000000E+00;  1.4735098E-03;  0.0000000E+00;
  2.4098980E+00;  9.9999998E-03;  8.0101281E-01;306;  1.3075839E-02;  0.0000000E+00;  7.0586684E-04;  9.9933949E+00;  4.0588927E-01; -6.4873809E-01;3;  4.4471673E-03;  0.0000000E+00;  1.8332616E-03;  0.0000000E+00;  0.0000000E+00;  0.0000000E+00;0;  1.7217681E-02;  9.7262589E+01;  0.0000000E+00; -1.0009608E-04;  1.0000000E+02;  0.0000000E+00;  9.9720566E+01;  1.6234413E-02;  0.0000000E+00;  9.8326756E-04;  0.0000000E+00;
  2.4096653E+00;  9.9999998E-03;  1.0014454E+00;307;  1.2358109E-02;  0.0000000E+00;  1.3705560E-03;  9.9934559E+00;  4.0576836E-01; -6.4273691E-01;3;  2.8690367E-03;  0.0000000E+00;  8.8480720E-04;  0.0000000E+00;  0.0000000E+00;  0.0000000E+00;0;  1.7176162E-02;  9.7320877E+01;  0.0000000E+00; -9.8248907E-05;  1.0000000E+02;  0.0000000E+00;  9.9721710E+01;  1.5890205E-02;  0.0000000E+00;  1.2859580E-03;  0.0000000E+00;
  2.6149168E+00;  9.9999998E-03; -1.1967340E-09;313;  2.0984767E-02;  0.0000000E+00; -1.0069022E-08;  9.9929886E+00;  4.0718490E-01; -6.6318721E-01;3;  1.2680749E-02;  0.0000000E+00; -1.1889707E-07;  0.0000000E+00;  0.0000000E+00;  0.0000000E+00;0;  2.0958669E-02;  9.6814957E+01;  0.0000000E+00; -5.8768422E-16;  1.0000000E+02;  0.0000000E+00;  9.9536873E+01;  1.8590016E-02;  0.0000000E+00;  2.3686527E-03;  0.0000000E+00;
  2.6146441E+00;  9.9999998E-03;  2.0010367E-01;314;  2.0433215E-02;  0.0000000E+00; -3.2140888E-05;  9.9930067E+00;  4.0716413E-01; -6.6152596E-01;3;  1.1886133E-02;  0.0000000E+00; -2.6641676E-04;  0.0000000E+00;  0.0000000E+00;  0.0000000E+00;0;  2.0893006E-02;  9.6819626E+01;  0.0000000E+00;  3.5317655E-06;  1.0000000E+02;  0.0000000E+00;  9.9542480E+01;  1.8572303E-02;  0.0000000E+00;  2.3207036E-03;  0.0000000E+00;
  2.6139307E+00;  9.9999998E-03;  4.0056106E-01;315;  1.9001296E-02;  0.0000000E+00;  3.0298752E-04;  9.9930553E+00;  4.0712473E-01; -6.5698105E-01;3;  9.8452633E-03;  0.0000000E+00; -9.2750264E-04;  0.0000000E+00;  0.0000000E+00;  0.0000000E+00;0;  2.0724753E-02;  9.6833328E+01;  0.0000000E+00;  1.5062657E-05;  1.0000000E+02;  0.0000000E+00;  9.9548737E+01;  1.8522210E-02;  0.0000000E+00;  2.2025432E-03;  0.0000000E+00;
  2.6130657E+00;  9.9999998E-03;  6.0117936E-01;316;  1.7276146E-02;  0.0000000E+00;  1.3409466E-03;  9.9930143E+00;  4.0708947E-01; -6.6096765E-01;3;  7.4066152E-03;  0.0000000E+00; -7.5284304E-04;  0.0000000E+00;  0.0000000E+00;  0.0000000E+00;0;  2.0859305E-02;  9.6853638E+01;  0.0000000E+00;  2.6023868E-05;  1.0000000E+02;  0.0000000E+00;  9.9544388E+01;  1.8449936E-02;  0.0000000E+00;  2.4093690E-03;  0.0000000E+00;
  2.6123872E+00;  9.9999998E-03;  8.0175793E-01;317;  1.5878735E-02;  0.0000000E+00;  1.5507947E-03;  9.9930897E+00;  4.0705380E-01; -6.5393621E-01;3;  5.3345980E-03;  0.0000000E+00; -5.3215581E-03;  0.0000000E+00;  0.0000000E+00;  0.0000000E+00;0;  2.0369299E-02;  9.6876678E+01;  0.0000000E+00;  1.0109017E-05;  1.0000000E+02;  0.0000000E+00;  9.9539902E+01;  1.8372282E-02;  0.0000000E+00;  1.9970161E-03;  0.0000000E+00;
  2.6116483E+00;  9.9999998E-03;  1.0022893E+00;318;  1.4689603E-02;  0.0000000E+00;  2.2821766E-03;  9.9931107E+00;  4.0700075E-01; -6.5198654E-01;3;  3.8494074E-03;  0.0000000E+00; -1.8422958E-04;  0.0000000E+00;  0.0000000E+00;  0.0000000E+00;0;  2.0530386E-02;  9.6898697E+01;  0.0000000E+00;  1.3496058E-05;  1.0000000E+02;  0.0000000E+00;  9.9543350E+01;  1.8306503E-02;  0.0000000E+00;  2.2238835E-03;  0.0000000E+00;
  2.8170629E+00;  9.9999998E-03; -1.5865583E-09;324;  2.2778735E-02;  0.0000000E+00; -9.2156123E-09;  9.9929800E+00;  4.0824667E-01; -6.4551270E-01;3;  1.2127563E-02;  0.0000000E+00; -5.1192718E-08;  0.0000000E+00;  0.0000000E+00;  0.0000000E+00;0;  2.3565942E-02;  9.6480049E+01;  0.0000000E+00;  1.6552636E-16;  1.0000000E+02;  0.0000000E+00;  9.9363663E+01;  2.0223195E-02;  0.0000000E+00;  3.3427484E-03;  0.0000000E+00;
  2.8168864E+00;  9.9999998E-03;  2.0071371E-01;325;  2.2391651E-02;  0.0000000E+00;  5.2633981E-04;  9.9929657E+00;  4.0826589E-01; -6.4684069E-01;3;  1.1472043E-02;  0.0000000E+00; -4.4150400E-04;  0.0000000E+00;  0.0000000E+00;  0.0000000E+00;0;  2.3611832E-02;  9.6474586E+01;  0.0000000E+00;  6.8305826E-06;  1.0000000E+02;  0.0000000E+00;  9.9359550E+01;  2.0282559E-02;  0.0000000E+00;  3.3292724E-03;  0.0000000E+00;
  2.8164451E+00;  9.9999998E-03;  4.0128720E-01;326;  2.1450711E-02;  0.0000000E+00;  1.3148343E-03;  9.9929094E+00;  4.0830159E-01; -6.5202457E-01;3;  9.9038081E-03;  0.0000000E+00; -8.5183761E-05;  0.0000000E+00;  0.0000000E+00;  0.0000000E+00;0;  2.3791132E-02;  9.6460571E+01;  0.0000000E+00;  2.5707372E-05;  1.0000000E+02;  0.0000000E+00;  9.9355057E+01;  2.0441718E-02;  0.0000000E+00;  3.3494141E-03;  0.0000000E+00;
  2.8159492E+00;  9.9999998E-03;  6.0191029E-01;327;  2.0403761E-02;  0.0000000E+00;  2.1220066E-03;  9.9928246E+00;  4.0834835E-01; -6.5984404E-01;3;  8.1327613E-03;  0.0000000E+00;  1.4570230E-03;  0.0000000E+00;  0.0000000E+00;  0.0000000E+00;0;  2.4098143E-02;  9.6442307E+01;  0.0000000E+00;  4.0996511E-05;  1.0000000E+02;  0.0000000E+00;  9.9350006E+01;  2.0657141E-02;  0.0000000E+00;  3.4410013E-03;  0.0000000E+00;
  2.8155432E+00;  9.9999998E-03;  8.0258882E-01;328;  1.9571418E-02;  0.0000000E+00;  2.6922370E-03;  9.9927282E+00;  4.0840238E-01; -6.6875404E-01;3;  6.6137430E-03;  0.0000000E+00; -4.4823587E-03;  0.0000000E+00;  0.0000000E+00;  0.0000000E+00;0;  2.4246024E-02;  9.6423882E+01;  0.0000000E+00;  1.6719083E-05;  1.0000000E+02;  0.0000000E+00;  9.9340790E+01;  2.0884499E-02;  0.0000000E+00;  3.3615257E-03;  0.0000000E+00;
  2.8149784E+00;  9.9999998E-03;  1.0032474E+00;329;  1.8779280E-02;  0.0000000E+00;  3.3507436E-03;  9.9927473E+00;  4.0843242E-01; -6.6704190E-01;3;  5.4683043E-03;  0.0000000E+00;  4.2271093E-03;  0.0000000E+00;  0.0000000E+00;  0.0000000E+00;0;  2.4409745E-02;  9.6408394E+01;  0.0000000E+00; -1.6456350E-05;  1.0000000E+02;  0.0000000E+00;  9.9342262E+01;  2.1089209E-02;  0.0000000E+00;  3.3205359E-03;  0.0000000E+00;
  3.0194960E+00;  9.9999998E-03; -1.2374513E-09;335;  2.5154280E-02;  0.0000000E+00; -5.1811746E-09;  9.9927673E+00;  4.0956396E-01; -6.5377301E-01;3;  1.1888102E-02;  0.0000000E+00;  4.1931759E-08;  0.0000000E+00;  0.0000000E+00;  0.0000000E+00;0;  2.6937723E-02;  9.6029823E+01;  0.0000000E+00;  1.4177882E-15;  1.0000000E+02;  0.0000000E+00;  9.9183945E+01;  2.2595441E-02;  0.0000000E+00;  4.3422817E-03;  0.0000000E+00;
  3.0194712E+00;  9.9999998E-03;  2.0116319E-01;336;  2.5022877E-02;  0.0000000E+00;  1.1991499E-03;  9.9927292E+00;  4.0960729E-01; -6.5722233E-01;3;  1.1512527E-02;  0.0000000E+00;  5.1688839E-04;  0.0000000E+00;  0.0000000E+00;  0.0000000E+00;0;  2.7077354E-02;  9.6017982E+01;  0.0000000E+00;  1.3423583E-05;  1.0000000E+02;  0.0000000E+00;  9.9174576E+01;  2.2700107E-02;  0.0000000E+00;  4.3772473E-03;  0.0000000E+00;
  3.0194082E+00;  9.9999998E-03;  4.0181318E-01;337;  2.4710804E-02;  0.0000000E+00;  2.2884342E-03;  9.9926214E+00;  4.0968004E-01; -6.6697705E-01;3;  1.0582211E-02;  0.0000000E+00;  1.8091360E-03;  0.0000000E+00;  0.0000000E+00;  0.0000000E+00;0;  2.7484549E-02;  9.5985847E+01;  0.0000000E+00;  4.7566729E-05;  1.0000000E+02;  0.0000000E+00;  9.9169693E+01;  2.2981845E-02;  0.0000000E+00;  4.5027044E-03;  0.0000000E+00;
  3.0193505E+00;  9.9999998E-03;  6.0258353E-01;338;  2.4396313E-02;  0.0000000E+00;  2.8476922E-03;  9.9925394E+00;  4.0979090E-01; -6.7441481E-01;3;  9.4869891E-03;  0.0000000E+00;  2.6598137E-03;  0.0000000E+00;  0.0000000E+00;  0.0000000E+00;0;  2.7812561E-02;  9.5942245E+01;  0.0000000E+00;  7.4752723E-05;  1.0000000E+02;  0.0000000E+00;  9.9159813E+01;  2.3367969E-02;  0.0000000E+00;  4.4445922E-03;  0.0000000E+00;
  3.0193875E+00;  9.9999998E-03;  8.0339658E-01;339;  2.4246817E-02;  0.0000000E+00;  3.6949161E-03;  9.9923735E+00;  4.0990955E-01; -6.8939185E-01;3;  8.5063092E-03;  0.0000000E+00; -2.2331018E-03;  0.0000000E+00;  0.0000000E+00;  0.0000000E+00;0;  2.8319769E-02;  9.5895935E+01;  0.0000000E+00;  5.2242805E-05;  1.0000000E+02;  0.0000000E+00;  9.9147270E+01;  2.3780812E-02;  0.0000000E+00;  4.5389580E-03;  0.0000000E+00;
  3.0192554E+00;  9.9999998E-03;  1.0042137E+00;340;  2.4051622E-02;  0.0000000E+00;  4.2617461E-03;  9.9924011E+00;  4.1000724E-01; -6.8691885E-01;3;  7.7100592E-03;  0.0000000E+00;  4.7878269E-03;  0.0000000E+00;  0.0000000E+00;  0.0000000E+00;0;  2.8288631E-02;  9.5854294E+01;  0.0000000E+00; -1.2670201E-05;  1.0000000E+02;  0.0000000E+00;  9.9143616E+01;  2.4155311E-02;  0.0000000E+00;  4.1333190E-03;  0.0000000E+00;
  3.2230616E+00;  9.9999998E-03; -1.1915375E-09;346;  2.9200636E-02;  0.0000000E+00; -8.7536212E-10;  9.9924412E+00;  4.1110033E-01; -6.7725700E-01;3;  1.2822516E-02;  0.0000000E+00;  1.3185884E-07;  0.0000000E+00;  0.0000000E+00;  0.0000000E+00;0;  3.0839644E-02;  9.5474434E+01;  0.0000000E+00;  2.1612016E-15;  1.0000000E+02;  0.0000000E+00;  9.9009720E+01;  2.5567850E-02;  0.0000000E+00;  5.2717938E-03;  0.0000000E+00;
  3.2231762E+00;  9.9999998E-03;  2.0133172E-01;347;  2.9276203E-02;  0.0000000E+00;  1.4789937E-03;  9.9924059E+00;  4.1114503E-01; -6.8040550E-01;3;  1.2657918E-02;  0.0000000E+00;  1.2795469E-03;  0.0000000E+00;  0.0000000E+00;  0.0000000E+00;0;  3.0985454E-02;  9.5461205E+01;  0.0000000E+00;  2.1453661E-05;  1.0000000E+02;  0.0000000E+00;  9.9001434E+01;  2.5675107E-02;  0.0000000E+00;  5.3103473E-03;  0.0000000E+00;
  3.2234488E+00;  9.9999998E-03;  4.0219164E-01;348;  2.9455395E-02;  0.0000000E+00;  2.8018258E-03;  9.9923010E+00;  4.1122934E-01; -6.8979883E-01;3;  1.2188853E-02;  0.0000000E+00;  3.3134283E-03;  0.0000000E+00;  0.0000000E+00;  0.0000000E+00;0;  3.1416014E-02;  9.5424942E+01;  0.0000000E+00;  7.7861172E-05;  1.0000000E+02;  0.0000000E+00;  9.8996368E+01;  2.5964651E-02;  0.0000000E+00;  5.4513626E-03;  0.0000000E+00;
  3.2237854E+00;  9.9999998E-03;  6.0315669E-01;349;  2.9712671E-02;  0.0000000E+00;  3.5383350E-03;  9.9922113E+00;  4.1135964E-01; -6.9780219E-01;3;  1.1589960E-02;  0.0000000E+00;  3.2952547E-03;  0.0000000E+00;  0.0000000E+00;  0.0000000E+00;0;  3.1783141E-02;  9.5375107E+01;  0.0000000E+00;  1.3761441E-04;  1.0000000E+02;  0.0000000E+00;  9.8983582E+01;  2.6363680E-02;  0.0000000E+00;  5.4194597E-03;  0.0000000E+00;
  3.2242064E+00;  9.9999998E-03;  8.0413210E-01;350;  3.0080954E-02;  0.0000000E+00;  4.5322697E-03;  9.9920588E+00;  4.1149682E-01; -7.1146423E-01;3;  1.0986682E-02;  0.0000000E+00; -1.5967382E-03;  0.0000000E+00;  0.0000000E+00;  0.0000000E+00;0;  3.2318782E-02;  9.5321655E+01;  0.0000000E+00;  1.5005673E-04;  1.0000000E+02;  0.0000000E+00;  9.8969757E+01;  2.6791064E-02;  0.0000000E+00;  5.5277194E-03;  0.0000000E+00;
  3.2244775E+00;  9.9999998E-03;  1.0051188E+00;351;  3.0367007E-02;  0.0000000E+00;  5.1160925E-03;  9.9920988E+00;  4.1161719E-01; -7.0788068E-01;3;  1.0431453E-02;  0.0000000E+00;  2.1495139E-03;  0.0000000E+00;  0.0000000E+00;  0.0000000E+00;0;  3.2084379E-02;  9.5273323E+01;  0.0000000E+00;  7.3857089E-05;  1.0000000E+02;  0.0000000E+00;  9.8963120E+01;  2.7179545E-02;  0.0000000E+00;  4.9048346E-03;  0.0000000E+00;
  3.4279628E+00;  9.9999998E-03; -2.1411615E-09;357;  3.4893915E-02;  0.0000000E+00;  1.7473504E-09;  9.9921150E+00;  4.1272905E-01; -7.0347267E-01;3;  1.4781211E-02;  0.0000000E+00;  1.7657942E-07;  0.0000000E+00;  0.0000000E+00;  0.0000000E+00;0;  3.4732312E-02;  9.4872543E+01;  0.0000000E+00;  2.4052701E-15;  1.0000000E+02;  0.0000000E+00;  9.8846588E+01;  2.8657673E-02;  0.0000000E+00;  6.0746386E-03;  0.0000000E+00;
  3.4281716E+00;  9.9999998E-03;  2.0136049E-01;358;  3.5097215E-02;  0.0000000E+00;  1.5607181E-03;  9.9920902E+00;  4.1276386E-01; -7.0565087E-01;3;  1.4745673E-02;  0.0000000E+00;  1.7112808E-03;  0.0000000E+00;  0.0000000E+00;  0.0000000E+00;0;  3.4839053E-02;  9.4861244E+01;  0.0000000E+00;  2.6247126E-05;  1.0000000E+02;  0.0000000E+00;  9.8841461E+01;  2.8735718E-02;  0.0000000E+00;  6.1033363E-03;  0.0000000E+00;
  3.4286728E+00;  9.9999998E-03;  4.0246943E-01;359;  3.5579864E-02;  0.0000000E+00;  2.8450994E-03;  9.9920321E+00;  4.1283974E-01; -7.1085727E-01;3;  1.4587368E-02;  0.0000000E+00;  3.9760931E-03;  0.0000000E+00;  0.0000000E+00;  0.0000000E+00;0;  3.5100207E-02;  9.4830528E+01;  0.0000000E+00;  1.0052916E-04;  1.0000000E+02;  0.0000000E+00;  9.8836243E+01;  2.8946167E-02;  0.0000000E+00;  6.1540408E-03;  0.0000000E+00;
  3.4292672E+00;  9.9999998E-03;  6.0363382E-01;360;  3.6168069E-02;  0.0000000E+00;  4.1290303E-03;  9.9919319E+00;  4.1295308E-01; -7.1978498E-01;3;  1.4334263E-02;  0.0000000E+00;  3.3528083E-03;  0.0000000E+00;  0.0000000E+00;  0.0000000E+00;0;  3.5531808E-02;  9.4788513E+01;  0.0000000E+00;  1.9766946E-04;  1.0000000E+02;  0.0000000E+00;  9.8823982E+01;  2.9233893E-02;  0.0000000E+00;  6.2979129E-03;  0.0000000E+00;
  3.4299269E+00;  9.9999998E-03;  8.0477959E-01;361;  3.6813520E-02;  0.0000000E+00;  5.2241897E-03;  9.9918346E+00;  4.1306892E-01; -7.2844613E-01;3;  1.3983162E-02;  0.0000000E+00; -4.9298181E-04;  0.0000000E+00;  0.0000000E+00;  0.0000000E+00;0;  3.5901736E-02;  9.4744102E+01;  0.0000000E+00;  2.5311869E-04;  1.0000000E+02;  0.0000000E+00;  9.8812469E+01;  2.9538473E-02;  0.0000000E+00;  6.3632624E-03;  0.0000000E+00;
  3.4304433E+00;  9.9999998E-03;  1.0059389E+00;362;  3.7348609E-02;  0.0000000E+00;  5.8800867E-03;  9.9918966E+00;  4.1317472E-01; -7.2291082E-01;3;  1.3548002E-02;  0.0000000E+00; -1.3330694E-03;  0.0000000E+00;  0.0000000E+00;  0.0000000E+00;0;  3.5423286E-02;  9.4704666E+01;  0.0000000E+00;  1.6081563E-04;  1.0000000E+02;  0.0000000E+00;  9.8804482E+01;  2.9810460E-02;  0.0000000E+00;  5.6128255E-03;  0.0000000E+00;
  3.6339891E+00;  9.9999998E-03; -2.0102340E-09;368;  4.1745484E-02;  0.0000000E+00;  3.7763481E-09;  9.9918528E+00;  4.1432530E-01; -7.2545958E-01;3;  1.7577810E-02;  0.0000000E+00;  1.6093631E-07;  0.0000000E+00;  0.0000000E+00;  0.0000000E+00;0;  3.8140349E-02;  9.4282669E+01;  0.0000000E+00;  3.0231510E-15;  1.0000000E+02;  0.0000000E+00;  9.8694710E+01;  3.1396464E-02;  0.0000000E+00;  6.7438865E-03;  0.0000000E+00;
  3.6342473E+00;  9.9999998E-03;  2.0121865E-01;369;  4.2010799E-02;  0.0000000E+00;  1.3809078E-03;  9.9918451E+00;  4.1434288E-01; -7.2614843E-01;3;  1.7622309E-02;  0.0000000E+00;  1.7801338E-03;  0.0000000E+00;  0.0000000E+00;  0.0000000E+00;0;  3.8176376E-02;  9.4273201E+01;  0.0000000E+00;  2.0422278E-05;  1.0000000E+02;  0.0000000E+00;  9.8696136E+01;  3.1437144E-02;  0.0000000E+00;  6.7392332E-03;  0.0000000E+00;
  3.6348374E+00;  9.9999998E-03;  4.0268099E-01;370;  4.2607408E-02;  0.0000000E+00;  2.5979395E-03;  9.9918394E+00;  4.1441372E-01; -7.2662342E-01;3;  1.7656229E-02;  0.0000000E+00;  3.2934111E-03;  0.0000000E+00;  0.0000000E+00;  0.0000000E+00;0;  3.8204096E-02;  9.4248360E+01;  0.0000000E+00;  8.7073604E-05;  1.0000000E+02;  0.0000000E+00;  9.8688469E+01;  3.1542018E-02;  0.0000000E+00;  6.6620773E-03;  0.0000000E+00;
  3.6354997E+00;  9.9999998E-03;  6.0403126E-01;371;  4.3273773E-02;  0.0000000E+00;  4.5706923E-03;  9.9917345E+00;  4.1449741E-01; -7.3596132E-01;3;  1.7634524E-02;  0.0000000E+00;  3.9172135E-03;  0.0000000E+00;  0.0000000E+00;  0.0000000E+00;0;  3.8697682E-02;  9.4216072E+01;  0.0000000E+00;  1.9013361E-04;  1.0000000E+02;  0.0000000E+00;  9.8680717E+01;  3.1676546E-02;  0.0000000E+00;  7.0211366E-03;  0.0000000E+00;
  3.6362162E+00;  9.9999998E-03;  8.0536073E-01;372;  4.3956328E-02;  0.0000000E+00;  5.7736137E-03;  9.9916916E+00;  4.1458651E-01; -7.3977929E-01;3;  1.7454363E-02;  0.0000000E+00;  1.1909002E-03;  0.0000000E+00;  0.0000000E+00;  0.0000000E+00;0;  3.8850971E-02;  9.4183434E+01;  0.0000000E+00;  2.6170720E-04;  1.0000000E+02;  0.0000000E+00;  9.8671562E+01;  3.1811461E-02;  0.0000000E+00;  7.0395102E-03;  0.0000000E+00;
  3.6368001E+00;  9.9999998E-03;  1.0066912E+00;373;  4.4518549E-02;  0.0000000E+00;  6.5379753E-03;  9.9917679E+00;  4.1467172E-01; -7.3298347E-01;3;  1.7082576E-02;  0.0000000E+00; -4.8982794E-03;  0.0000000E+00;  0.0000000E+00;  0.0000000E+00;0;  3.8160544E-02;  9.4155159E+01;  0.0000000E+00;  1.6664364E-04;  1.0000000E+02;  0.0000000E+00;  9.8662247E+01;  3.1926230E-02;  0.0000000E+00;  6.2343148E-03;  0.0000000E+00;
  3.8408298E+00;  9.9999998E-03; -1.3954555E-09;379;  4.9286481E-02;  0.0000000E+00;  4.7150892E-09;  9.9916296E+00;  4.1586012E-01; -7.4466300E-01;3;  2.1079447E-02;  0.0000000E+00;  1.0135797E-07;  0.0000000E+00;  0.0000000E+00;  0.0000000E+00;0;  4.0938344E-02;  9.3720528E+01;  0.0000000E+00;  4.7673195E-16;  1.0000000E+02;  0.0000000E+00;  9.8551201E+01;  3.3629544E-02;  0.0000000E+00;  7.3087984E-03;  0.0000000E+00;
  3.8410826E+00;  9.9999998E-03;  2.0093331E-01;380;  4.9524967E-02;  0.0000000E+00;  1.0010354E-03;  9.9916401E+00;  4.1585675E-01; -7.4376100E-01;3;  2.1136245E-02;  0.0000000E+00;  1.7237897E-03;  0.0000000E+00;  0.0000000E+00;  0.0000000E+00;0;  4.0886179E-02;  9.3711121E+01;  0.0000000E+00;  8.9555360E-06;  1.0000000E+02;  0.0000000E+00;  9.8562798E+01;  3.3638630E-02;  0.0000000E+00;  7.2475495E-03;  0.0000000E+00;
  3.8415875E+00;  9.9999998E-03;  4.0289807E-01;381;  5.0004229E-02;  0.0000000E+00;  2.4355678E-03;  9.9916611E+00;  4.1594186E-01; -7.4185097E-01;3;  2.1228971E-02;  0.0000000E+00;  1.3833441E-03;  0.0000000E+00;  0.0000000E+00;  0.0000000E+00;0;  4.0766437E-02;  9.3686661E+01;  0.0000000E+00;  4.9091061E-05;  1.0000000E+02;  0.0000000E+00;  9.8548752E+01;  3.3656791E-02;  0.0000000E+00;  7.1096444E-03;  0.0000000E+00;
  3.8421209E+00;  9.9999998E-03;  6.0441291E-01;382;  5.0494410E-02;  0.0000000E+00;  4.8832078E-03;  9.9915667E+00;  4.1601050E-01; -7.5028127E-01;3;  2.1310024E-02;  0.0000000E+00;  4.6738819E-03;  0.0000000E+00;  0.0000000E+00;  0.0000000E+00;0;  4.1251991E-02;  9.3655739E+01;  0.0000000E+00;  1.2859823E-04;  1.0000000E+02;  0.0000000E+00;  9.8547028E+01;  3.3670165E-02;  0.0000000E+00;  7.5818254E-03;  0.0000000E+00;
  3.8426962E+00;  9.9999998E-03;  8.0592245E-01;383;  5.0990708E-02;  0.0000000E+00;  6.1844927E-03;  9.9915714E+00;  4.1609758E-01; -7.4985588E-01;3;  2.1248527E-02;  0.0000000E+00;  3.5910669E-03;  0.0000000E+00;  0.0000000E+00;  0.0000000E+00;0;  4.1214038E-02;  9.3624985E+01;  0.0000000E+00;  1.9766792E-04;  1.0000000E+02;  0.0000000E+00;  9.8537880E+01;  3.3675972E-02;  0.0000000E+00;  7.5380639E-03;  0.0000000E+00;
  3.8431888E+00;  9.9999998E-03;  1.0074148E+00;384;  5.1404987E-02;  0.0000000E+00;  7.1258242E-03;  9.9916286E+00;  4.1619018E-01; -7.4476427E-01;3;  2.0966813E-02;  0.0000000E+00; -7.7224914E-03;  0.0000000E+00;  0.0000000E+00;  0.0000000E+00;0;  4.0496536E-02;  9.3596832E+01;  0.0000000E+00;  1.5039449E-04;  1.0000000E+02;  0.0000000E+00;  9.8524902E+01;  3.3681359E-02;  0.0000000E+00;  6.8151746E-03;  0.0000000E+00;
  4.0481887E+00;  9.9999998E-03; -5.8822630E-10;390;  5.7177041E-02;  0.0000000E+00;  4.4702251E-09;  9.9913826E+00;  4.1736433E-01; -7.6637632E-01;3;  2.4974566E-02;  0.0000000E+00;  2.4615263E-08;  0.0000000E+00;  0.0000000E+00;  0.0000000E+00;0;  4.3248158E-02;  9.3170273E+01;  0.0000000E+00;  1.1400180E-15;  1.0000000E+02;  0.0000000E+00;  9.8414848E+01;  3.5449967E-02;  0.0000000E+00;  7.7981898E-03;  0.0000000E+00;
  4.0483651E+00;  9.9999998E-03;  2.0074606E-01;391;  5.7261482E-02;  0.0000000E+00;  7.9254824E-04;  9.9914036E+00;  4.1734847E-01; -7.6446790E-01;3;  2.4933977E-02;  0.0000000E+00;  1.8749990E-03;  0.0000000E+00;  0.0000000E+00;  0.0000000E+00;0;  4.3138795E-02;  9.3158180E+01;  0.0000000E+00;  5.5434207E-06;  1.0000000E+02;  0.0000000E+00;  9.8435600E+01;  3.5444196E-02;  0.0000000E+00;  7.6945969E-03;  0.0000000E+00;
  4.0486083E+00;  9.9999998E-03;  4.0321824E-01;392;  5.7362314E-02;  0.0000000E+00;  2.6685079E-03;  9.9914179E+00;  4.1746703E-01; -7.6319546E-01;3;  2.4984911E-02;  0.0000000E+00; -2.7964832E-04;  0.0000000E+00;  0.0000000E+00;  0.0000000E+00;0;  4.3024860E-02;  9.3126671E+01;  0.0000000E+00;  3.3798857E-05;  1.0000000E+02;  0.0000000E+00;  9.8413040E+01;  3.5425328E-02;  0.0000000E+00;  7.5995312E-03;  0.0000000E+00;
  4.0488248E+00;  9.9999998E-03;  6.0486060E-01;393;  5.7407361E-02;  0.0000000E+00;  5.1770685E-03;  9.9913445E+00;  4.1755489E-01; -7.6976818E-01;3;  2.5003666E-02;  0.0000000E+00;  5.7583149E-03;  0.0000000E+00;  0.0000000E+00;  0.0000000E+00;0;  4.3435041E-02;  9.3084946E+01;  0.0000000E+00;  9.2993112E-05;  1.0000000E+02;  0.0000000E+00;  9.8414444E+01;  3.5394322E-02;  0.0000000E+00;  8.0407178E-03;  0.0000000E+00;
  4.0490847E+00;  9.9999998E-03;  8.0651093E-01;394;  5.7500083E-02;  0.0000000E+00;  6.5184413E-03;  9.9913778E+00;  4.1767925E-01; -7.6679957E-01;3;  2.4976924E-02;  0.0000000E+00;  6.4843963E-03;  0.0000000E+00;  0.0000000E+00;  0.0000000E+00;0;  4.3280058E-02;  9.3041374E+01;  0.0000000E+00;  1.3939728E-04;  1.0000000E+02;  0.0000000E+00;  9.8402344E+01;  3.5360776E-02;  0.0000000E+00;  7.9192827E-03;  0.0000000E+00;
  4.0493503E+00;  9.9999998E-03;  1.0081372E+00;395;  5.7598740E-02;  0.0000000E+00;  7.6839784E-03;  9.9913788E+00;  4.1781715E-01; -7.6669329E-01;3;  2.4810055E-02;  0.0000000E+00; -9.0630725E-03;  0.0000000E+00;  0.0000000E+00;  0.0000000E+00;0;  4.2759743E-02;  9.2998299E+01;  0.0000000E+00;  1.1470490E-04;  1.0000000E+02;  0.0000000E+00;  9.8382957E+01;  3.5345603E-02;  0.0000000E+00;  7.4141403E-03;  0.0000000E+00;
  4.2557440E+00;  9.9999998E-03; -3.1536725E-11;401;  6.4993516E-02;  0.0000000E+00;  2.8554212E-09;  9.9910660E+00;  4.1882047E-01; -7.9439014E-01;3;  2.8531786E-02;  0.0000000E+00; -5.5763941E-08;  0.0000000E+00;  0.0000000E+00;  0.0000000E+00;0;  4.5095176E-02;  9.2633293E+01;  0.0000000E+00;  8.2086259E-16;  1.0000000E+02;  0.0000000E+00;  9.8292175E+01;  3.6901813E-02;  0.0000000E+00;  8.1933606E-03;  0.0000000E+00;
  4.2557158E+00;  9.9999998E-03;  2.0101386E-01;402;  6.4783290E-02;  0.0000000E+00;  1.1760998E-03;  9.9910831E+00;  4.1881305E-01; -7.9285318E-01;3;  2.8345885E-02;  0.0000000E+00;  2.2157638E-03;  0.0000000E+00;  0.0000000E+00;  0.0000000E+00;0;  4.5009781E-02;  9.2617516E+01;  0.0000000E+00;  1.4204335E-05;  1.0000000E+02;  0.0000000E+00;  9.8312553E+01;  3.6899008E-02;  0.0000000E+00;  8.1107737E-03;  0.0000000E+00;
  4.2556958E+00;  9.9999998E-03;  4.0370950E-01;403;  6.4431056E-02;  0.0000000E+00;  3.3504034E-03;  9.9910727E+00;  4.1897064E-01; -7.9380715E-01;3;  2.8342951E-02;  0.0000000E+00; -3.1842981E-04;  0.0000000E+00;  0.0000000E+00;  0.0000000E+00;0;  4.5019671E-02;  9.2573769E+01;  0.0000000E+00;  2.4101995E-05;  1.0000000E+02;  0.0000000E+00;  9.8284775E+01;  3.6897939E-02;  0.0000000E+00;  8.1217336E-03;  0.0000000E+00;
  4.2555776E+00;  9.9999998E-03;  6.0540503E-01;404;  6.3968450E-02;  0.0000000E+00;  5.5010277E-03;  9.9910212E+00;  4.1910827E-01; -7.9836500E-01;3;  2.8251786E-02;  0.0000000E+00;  7.4410960E-03;  0.0000000E+00;  0.0000000E+00;  0.0000000E+00;0;  4.5323640E-02;  9.2513039E+01;  0.0000000E+00;  1.2784956E-05;  1.0000000E+02;  0.0000000E+00;  9.8283615E+01;  3.6904518E-02;  0.0000000E+00;  8.4191244E-03;  0.0000000E+00;
  4.2554665E+00;  9.9999998E-03;  8.0711997E-01;405;  6.3575558E-02;  0.0000000E+00;  6.7963707E-03;  9.9910622E+00;  4.1929743E-01; -7.9470819E-01;3;  2.8230084E-02;  0.0000000E+00;  9.3285264E-03;  0.0000000E+00;  0.0000000E+00;  0.0000000E+00;0;  4.5135412E-02;  9.2446938E+01;  0.0000000E+00; -1.4811495E-05;  1.0000000E+02;  0.0000000E+00;  9.8265961E+01;  3.6920637E-02;  0.0000000E+00;  8.2147764E-03;  0.0000000E+00;
  4.2555022E+00;  9.9999998E-03;  1.0088282E+00;406;  6.3305475E-02;  0.0000000E+00;  8.1999516E-03;  9.9909887E+00;  4.1949746E-01; -8.0122697E-01;3;  2.8175527E-02;  0.0000000E+00; -7.9163499E-03;  0.0000000E+00;  0.0000000E+00;  0.0000000E+00;0;  4.4979688E-02;  9.2381927E+01;  0.0000000E+00; -1.5141588E-04;  1.0000000E+02;  0.0000000E+00;  9.8240463E+01;  3.6952306E-02;  0.0000000E+00;  8.0273822E-03;  0.0000000E+00;
  4.4630299E+00;  9.9999998E-03; -1.2758455E-09;412;  7.2140127E-02;  0.0000000E+00; -1.0769131E-09;  9.9907150E+00;  4.2004517E-01; -8.2554573E-01;3;  3.0965976E-02;  0.0000000E+00; -1.3834472E-07;  0.0000000E+00;  0.0000000E+00;  0.0000000E+00;0;  4.6121813E-02;  9.2173401E+01;  0.0000000E+00;  1.6806276E-15;  1.0000000E+02;  0.0000000E+00;  9.8200058E+01;  3.7714962E-02;  0.0000000E+00;  8.4068533E-03;  0.0000000E+00;
  4.4630060E+00;  9.9999998E-03;  2.0192330E-01;413;  7.1891576E-02;  0.0000000E+00;  2.2286300E-03;  9.9907064E+00;  4.2007780E-01; -8.2628769E-01;3;  3.0826839E-02;  0.0000000E+00;  2.3048944E-03;  0.0000000E+00;  0.0000000E+00;  0.0000000E+00;0;  4.6160739E-02;  9.2154518E+01;  0.0000000E+00; -5.5844903E-05;  1.0000000E+02;  0.0000000E+00;  9.8204865E+01;  3.7730336E-02;  0.0000000E+00;  8.4304037E-03;  0.0000000E+00;
  4.4629364E+00;  9.9999998E-03;  4.0427217E-01;414;  7.1402550E-02;  0.0000000E+00;  4.2225765E-03;  9.9906673E+00;  4.2024550E-01; -8.2978529E-01;3;  3.0875441E-02;  0.0000000E+00;  2.1106524E-03;  0.0000000E+00;  0.0000000E+00;  0.0000000E+00;0;  4.6320133E-02;  9.2101654E+01;  0.0000000E+00; -2.4177769E-04;  1.0000000E+02;  0.0000000E+00;  9.8182190E+01;  3.7778433E-02;  0.0000000E+00;  8.5417014E-03;  0.0000000E+00;
  4.4628696E+00;  9.9999998E-03;  6.0594386E-01;415;  7.0878334E-02;  0.0000000E+00;  5.7017012E-03;  9.9906530E+00;  4.2043772E-01; -8.3105725E-01;3;  3.0847451E-02;  0.0000000E+00;  1.0279939E-02;  0.0000000E+00;  0.0000000E+00;  0.0000000E+00;0;  4.6461657E-02;  9.2025040E+01;  0.0000000E+00; -2.8604869E-04;  1.0000000E+02;  0.0000000E+00;  9.8173782E+01;  3.7859716E-02;  0.0000000E+00;  8.6019402E-03;  0.0000000E+00;
  4.4629374E+00;  9.9999998E-03;  8.0764407E-01;416;  7.0510201E-02;  0.0000000E+00;  6.9852737E-03;  9.9906654E+00;  4.2068487E-01; -8.2994431E-01;3;  3.0965898E-02;  0.0000000E+00;  1.1914792E-02;  0.0000000E+00;  0.0000000E+00;  0.0000000E+00;0;  4.6379682E-02;  9.1939781E+01;  0.0000000E+00; -9.2286064E-05;  1.0000000E+02;  0.0000000E+00;  9.8150169E+01;  3.7958782E-02;  0.0000000E+00;  8.4209004E-03;  0.0000000E+00;
  4.4632554E+00;  9.9999998E-03;  1.0093733E+00;417;  7.0308976E-02;  0.0000000E+00;  8.5710501E-03;  9.9905357E+00;  4.2091975E-01; -8.4144408E-01;3;  3.1129802E-02;  0.0000000E+00; -3.4674616E-03;  0.0000000E+00;  0.0000000E+00;  0.0000000E+00;0;  4.6574242E-02;  9.1861069E+01;  0.0000000E+00; -4.4620753E-04;  1.0000000E+02;  0.0000000E+00;  9.8122444E+01;  3.8039193E-02;  0.0000000E+00;  8.5350489E-03;  0.0000000E+00;
  4.6699505E+00;  9.9999998E-03; -3.0535188E-09;423;  7.8711115E-02;  0.0000000E+00; -5.8229097E-09;  9.9904242E+00;  4.2069077E-01; -8.5137993E-01;3;  3.2581601E-02;  0.0000000E+00; -2.1758387E-07;  0.0000000E+00;  0.0000000E+00;  0.0000000E+00;0;  4.5639284E-02;  9.1921318E+01;  0.0000000E+00;  1.7964478E-15;  1.0000000E+02;  0.0000000E+00;  9.8161934E+01;  3.7314642E-02;  0.0000000E+00;  8.3246399E-03;  0.0000000E+00;
  4.6702690E+00;  9.9999998E-03;  2.0317289E-01;424;  7.8851603E-02;  0.0000000E+00;  3.3478751E-03;  9.9903812E+00;  4.2078221E-01; -8.5519534E-01;3;  3.2720007E-02;  0.0000000E+00;  1.4487156E-03;  0.0000000E+00;  0.0000000E+00;  0.0000000E+00;0;  4.5840498E-02;  9.1902664E+01;  0.0000000E+00; -2.9058338E-04;  1.0000000E+02;  0.0000000E+00;  9.8138290E+01;  3.7349738E-02;  0.0000000E+00;  8.4907589E-03;  0.0000000E+00;
  4.6711249E+00;  9.9999998E-03;  4.0469030E-01;425;  7.9245403E-02;  0.0000000E+00;  4.7235079E-03;  9.9903297E+00;  4.2091891E-01; -8.5975271E-01;3;  3.2891110E-02;  0.0000000E+00;  4.3713218E-03;  0.0000000E+00;  0.0000000E+00;  0.0000000E+00;0;  4.6071324E-02;  9.1849876E+01;  0.0000000E+00; -7.9554832E-04;  1.0000000E+02;  0.0000000E+00;  9.8130234E+01;  3.7439018E-02;  0.0000000E+00;  8.6323069E-03;  0.0000000E+00;
  4.6722326E+00;  9.9999998E-03;  6.0625201E-01;426;  7.9799667E-02;  0.0000000E+00;  5.5390652E-03;  9.9903564E+00;  4.2112494E-01; -8.5736793E-01;3;  3.3060759E-02;  0.0000000E+00;  1.3010175E-02;  0.0000000E+00;  0.0000000E+00;  0.0000000E+00;0;  4.5992184E-02;  9.1772072E+01;  0.0000000E+00; -8.7368023E-04;  1.0000000E+02;  0.0000000E+00;  9.8117828E+01;  3.7563644E-02;  0.0000000E+00;  8.4285410E-03;  0.0000000E+00;
  4.6739235E+00;  9.9999998E-03;  8.0789530E-01;427;  8.0861002E-02;  0.0000000E+00;  6.9803586E-03;  9.9903202E+00;  4.2139018E-01; -8.6060029E-01;3;  3.3631466E-02;  0.0000000E+00;  1.6095676E-02;  0.0000000E+00;  0.0000000E+00;  0.0000000E+00;0;  4.6171941E-02;  9.1680138E+01;  0.0000000E+00; -6.7540182E-04;  1.0000000E+02;  0.0000000E+00;  9.8092560E+01;  3.7715875E-02;  0.0000000E+00;  8.4560672E-03;  0.0000000E+00;
  4.6755843E+00;  9.9999998E-03;  1.0096128E+00;428;  8.1833951E-02;  0.0000000E+00;  8.7403739E-03;  9.9901333E+00;  4.2163292E-01; -8.7723994E-01;3;  3.4384049E-02;  0.0000000E+00;  4.6005980E-03;  0.0000000E+00;  0.0000000E+00;  0.0000000E+00;0;  4.6746101E-02;  9.1595970E+01;  0.0000000E+00;  9.6789375E-04;  1.0000000E+02;  0.0000000E+00;  9.8065498E+01;  3.7829686E-02;  0.0000000E+00;  8.9164162E-03;  0.0000000E+00;
  4.8781662E+00;  9.9999998E-03; -5.0455773E-09;434;  8.6641014E-02;  0.0000000E+00; -1.1012919E-08;  9.9902983E+00;  4.2040789E-01; -8.6254936E-01;3;  3.4561325E-02;  0.0000000E+00; -3.0513911E-07;  0.0000000E+00;  0.0000000E+00;  0.0000000E+00;0;  4.3059681E-02;  9.2012482E+01;  0.0000000E+00;  7.9387051E-16;  1.0000000E+02;  0.0000000E+00;  9.8193985E+01;  3.5169639E-02;  0.0000000E+00;  7.8900419E-03;  0.0000000E+00;
  4.8791070E+00;  9.9999998E-03;  2.0362024E-01;435;  8.7635279E-02;  0.0000000E+00;  3.0128104E-03;  9.9902487E+00;  4.2052579E-01; -8.6694759E-01;3;  3.5363365E-02;  0.0000000E+00;  1.9466093E-04;  0.0000000E+00;  0.0000000E+00;  0.0000000E+00;0;  4.3265320E-02;  9.1998062E+01;  0.0000000E+00; -1.3509496E-04;  1.0000000E+02;  0.0000000E+00;  9.8153633E+01;  3.5214201E-02;  0.0000000E+00;  8.0511188E-03;  0.0000000E+00;
  4.8816280E+00;  9.9999998E-03;  4.0460810E-01;436;  8.9593515E-02;  0.0000000E+00;  3.9415197E-03;  9.9902134E+00;  4.2062315E-01; -8.7007403E-01;3;  3.5246320E-02;  0.0000000E+00;  5.3558615E-03;  0.0000000E+00;  0.0000000E+00;  0.0000000E+00;0;  4.3382283E-02;  9.1951096E+01;  0.0000000E+00; -1.2432931E-03;  1.0000000E+02;  0.0000000E+00;  9.8157646E+01;  3.5335205E-02;  0.0000000E+00;  8.0470787E-03;  0.0000000E+00;
  4.8851080E+00;  9.9999998E-03;  6.0614181E-01;437;  9.2039816E-02;  0.0000000E+00;  5.0663888E-03;  9.9901886E+00;  4.2085138E-01; -8.7229955E-01;3;  3.4924798E-02;  0.0000000E+00;  1.3089499E-02;  0.0000000E+00;  0.0000000E+00;  0.0000000E+00;0;  4.3494146E-02;  9.1867241E+01;  0.0000000E+00; -5.5069677E-03;  1.0000000E+02;  0.0000000E+00;  9.8140465E+01;  3.5533488E-02;  0.0000000E+00;  7.9606576E-03;  0.0000000E+00;
  4.8902750E+00;  9.9999998E-03;  8.0778086E-01;438;  9.6454829E-02;  0.0000000E+00;  6.7231101E-03;  9.9900265E+00;  4.2123860E-01; -8.8671321E-01;3;  3.5809636E-02;  0.0000000E+00;  2.0453250E-02;  0.0000000E+00;  0.0000000E+00;  0.0000000E+00;0;  4.4254191E-02;  9.1726646E+01;  0.0000000E+00; -9.5077250E-03;  1.0000000E+02;  0.0000000E+00;  9.8107399E+01;  3.5970028E-02;  0.0000000E+00;  8.2841646E-03;  0.0000000E+00;
  4.8940225E+00;  9.9999998E-03;  1.0095208E+00;439;  9.8091483E-02;  0.0000000E+00;  8.6498987E-03;  9.9897079E+00;  4.2167878E-01; -9.1501069E-01;3;  3.1781364E-02;  0.0000000E+00;  1.3316273E-02;  0.0000000E+00;  0.0000000E+00;  0.0000000E+00;0;  4.5464858E-02;  9.1569588E+01;  0.0000000E+00;  1.9431161E-02;  1.0000000E+02;  0.0000000E+00;  9.8065147E+01;  3.6337186E-02;  0.0000000E+00;  9.1276746E-03;  0.0000000E+00;
  5.0899997E+00;  9.9999998E-03; -1.6637924E-09;445;  9.8156229E-02;  0.0000000E+00; -1.0618209E-08;  9.9903088E+00;  4.1913924E-01; -8.6159015E-01;3;  3.7505127E-02;  0.0000000E+00; -4.0838495E-07;  0.0000000E+00;  0.0000000E+00;  0.0000000E+00;0;  3.8563482E-02;  9.2473007E+01;  0.0000000E+00; -4.2707464E-17;  1.0000000E+02;  0.0000000E+00;  9.8297569E+01;  3.1417642E-02;  0.0000000E+00;  7.1458397E-03;  0.0000000E+00;
  5.0918994E+00;  9.9999998E-03;  2.0310946E-01;446;  1.0082465E-01;  0.0000000E+00;  1.7285501E-03;  9.9902258E+00;  4.1929543E-01; -8.6895597E-01;3;  3.9913833E-02;  0.0000000E+00; -1.3010940E-03;  0.0000000E+00;  0.0000000E+00;  0.0000000E+00;0;  3.8842052E-02;  9.2440781E+01;  0.0000000E+00; -1.5601960E-04;  1.0000000E+02;  0.0000000E+00;  9.8257515E+01;  3.1659119E-02;  0.0000000E+00;  7.1829329E-03;  0.0000000E+00;
  5.0954785E+00;  9.9999998E-03;  4.0412080E-01;447;  1.0274252E-01;  0.0000000E+00;  3.3886884E-03;  9.9900665E+00;  4.1949365E-01; -8.8315767E-01;3;  3.7121631E-02;  0.0000000E+00;  5.1611131E-03;  0.0000000E+00;  0.0000000E+00;  0.0000000E+00;0;  3.9399665E-02;  9.2350388E+01;  0.0000000E+00; -5.6694252E-03;  1.0000000E+02;  0.0000000E+00;  9.8257729E+01;  3.2037597E-02;  0.0000000E+00;  7.3620663E-03;  0.0000000E+00;
  5.0984316E+00;  9.9999998E-03;  6.0569066E-01;448;  1.0094274E-01;  0.0000000E+00;  4.4988622E-03;  9.9900637E+00;  4.1983753E-01; -8.8336962E-01;3;  3.2901295E-02;  0.0000000E+00;  1.2033659E-02;  0.0000000E+00;  0.0000000E+00;  0.0000000E+00;0;  3.9381050E-02;  9.2227043E+01;  0.0000000E+00; -1.9087909E-02;  1.0000000E+02;  0.0000000E+00;  9.8228317E+01;  3.2020219E-02;  0.0000000E+00;  7.3608295E-03;  0.0000000E+00;
  5.0987244E+00;  9.9999998E-03;  8.0723643E-01;449;  9.9187277E-02;  0.0000000E+00;  5.9965118E-03;  9.9900694E+00;  4.2001590E-01; -8.8289267E-01;3;  3.3787869E-02;  0.0000000E+00;  1.6458623E-02;  0.0000000E+00;  0.0000000E+00;  0.0000000E+00;0;  3.9423484E-02;  9.2164696E+01;  0.0000000E+00; -1.0533305E-02;  1.0000000E+02;  0.0000000E+00;  9.8211685E+01;  3.1840313E-02;  0.0000000E+00;  7.5831716E-03;  0.0000000E+00;
  5.0986161E+00;  9.9999998E-03;  1.0088975E+00;450;  9.7963110E-02;  0.0000000E+00;  7.9463776E-03;  9.9899540E+00;  4.2021298E-01; -8.9312005E-01;3;  3.2338087E-02;  0.0000000E+00;  2.1358110E-02;  0.0000000E+00;  0.0000000E+00;  0.0000000E+00;0;  4.0188484E-02;  9.2095856E+01;  0.0000000E+00;  4.1878946E-02;  1.0000000E+02;  0.0000000E+00;  9.8190865E+01;  3.1702828E-02;  0.0000000E+00;  8.4856562E-03;  0.0000000E+00;
  5.3040028E+00;  9.9999998E-03;  8.3230249E-09;456;  1.0749521E-01;  0.0000000E+00; -8.5349200E-10;  9.9901218E+00;  4.1752157E-01; -8.7822717E-01;3;  3.0196371E-02;  0.0000000E+00; -4.9697701E-07;  0.0000000E+00;  0.0000000E+00;  0.0000000E+00;0;  3.3481743E-02;  9.3035164E+01;  0.0000000E+00; -1.0495592E-16;  1.0000000E+02;  0.0000000E+00;  9.8459488E+01;  2.7278820E-02;  0.0000000E+00;  6.2029245E-03;  0.0000000E+00;
  5.3039961E+00;  9.9999998E-03;  2.0203429E-01;457;  1.0694543E-01;  0.0000000E+00;  2.1128627E-03;  9.9900532E+00;  4.1760162E-01; -8.8432121E-01;3;  2.9620780E-02;  0.0000000E+00; -1.1985078E-03;  0.0000000E+00;  0.0000000E+00;  0.0000000E+00;0;  3.3719353E-02;  9.3020569E+01;  0.0000000E+00; -1.2255650E-03;  1.0000000E+02;  0.0000000E+00;  9.8435844E+01;  2.7291441E-02;  0.0000000E+00;  6.4279130E-03;  0.0000000E+00;
  5.3044043E+00;  9.9999998E-03;  4.0344241E-01;458;  1.0740815E-01;  0.0000000E+00;  2.2161149E-03;  9.9899673E+00;  4.1777992E-01; -8.9195198E-01;3;  3.3781409E-02;  0.0000000E+00;  2.0353054E-03;  0.0000000E+00;  0.0000000E+00;  0.0000000E+00;0;  3.4034446E-02;  9.2964058E+01;  0.0000000E+00; -7.6066111E-03;  1.0000000E+02;  0.0000000E+00;  9.8410065E+01;  2.7787143E-02;  0.0000000E+00;  6.2473025E-03;  0.0000000E+00;
  5.3043771E+00;  9.9999998E-03;  6.0482860E-01;459;  1.0585418E-01;  0.0000000E+00;  3.4512882E-03;  9.9899788E+00;  4.1788277E-01; -8.9094514E-01;3;  3.3097792E-02;  0.0000000E+00;  1.0428553E-02;  0.0000000E+00;  0.0000000E+00;  0.0000000E+00;0;  3.4021150E-02;  9.2928688E+01;  0.0000000E+00; -1.5666964E-02;  1.0000000E+02;  0.0000000E+00;  9.8399261E+01;  2.7752198E-02;  0.0000000E+00;  6.2689530E-03;  0.0000000E+00;
  5.3043876E+00;  9.9999998E-03;  8.0632776E-01;460;  1.0556553E-01;  0.0000000E+00;  5.3051640E-03;  9.9898014E+00;  4.1797405E-01; -9.0668356E-01;3;  2.7008072E-02;  0.0000000E+00;  2.6917093E-02;  0.0000000E+00;  0.0000000E+00;  0.0000000E+00;0;  3.5066076E-02;  9.2884682E+01;  0.0000000E+00;  2.6773373E-03;  1.0000000E+02;  0.0000000E+00;  9.8399536E+01;  2.8126881E-02;  0.0000000E+00;  6.9391956E-03;  0.0000000E+00;
  5.3001752E+00;  9.9999998E-03;  1.0077409E+00;461;  9.8658830E-02;  0.0000000E+00;  6.1154850E-03;  9.9909201E+00;  4.1714734E-01; -8.0727166E-01;3;  2.9209472E-02;  0.0000000E+00;  2.1970648E-02;  0.0000000E+00;  0.0000000E+00;  0.0000000E+00;0;  3.1045094E-02;  9.3225868E+01;  0.0000000E+00;  3.4877021E-02;  1.0000000E+02;  0.0000000E+00;  9.8450043E+01;  2.4960274E-02;  0.0000000E+00;  6.0848207E-03;  0.0000000E+00;
  5.5075278E+00;  9.9999998E-03;  4.1998538E-09;467;  1.0848153E-01;  0.0000000E+00;  3.1952943E-08;  9.9900064E+00;  4.1502035E-01; -8.8845354E-01;3;  2.9211026E-02;  0.0000000E+00; -5.0920062E-07;  0.0000000E+00;  0.0000000E+00;  0.0000000E+00;0;  2.7319871E-02;  9.3973778E+01;  0.0000000E+00; -6.1362739E-15;  1.0000000E+02;  0.0000000E+00;  9.8652420E+01;  2.2101181E-02;  0.0000000E+00;  5.2186907E-03;  0.0000000E+00;
  5.5071979E+00;  9.9999998E-03;  2.0063141E-01;468;  1.0714402E-01;  0.0000000E+00;  2.8467091E-04;  9.9902620E+00;  4.1492137E-01; -8.6577326E-01;3;  2.8403265E-02;  0.0000000E+00;  2.2278395E-03;  0.0000000E+00;  0.0000000E+00;  0.0000000E+00;0;  2.6633887E-02;  9.4002831E+01;  0.0000000E+00;  3.1301384E-03;  1.0000000E+02;  0.0000000E+00;  9.8673752E+01;  2.1512063E-02;  0.0000000E+00;  5.1218229E-03;  0.0000000E+00;
  5.5076575E+00;  9.9999998E-03;  4.0218198E-01;469;  1.0783317E-01;  0.0000000E+00;  1.0877622E-03;  9.9900923E+00;  4.1504475E-01; -8.8082278E-01;3;  2.0773247E-02;  0.0000000E+00;  9.6935956E-03;  0.0000000E+00;  0.0000000E+00;  0.0000000E+00;0;  2.7074710E-02;  9.3955353E+01;  0.0000000E+00;  2.0572522E-03;  1.0000000E+02;  0.0000000E+00;  9.8661720E+01;  2.2106014E-02;  0.0000000E+00;  4.9686944E-03;  0.0000000E+00;
  5.5083947E+00;  9.9999998E-03;  6.0378742E-01;470;  1.0789032E-01;  0.0000000E+00;  2.6580610E-03;  9.9898643E+00;  4.1530070E-01; -9.0111852E-01;3;  2.5785131E-02;  0.0000000E+00;  1.0521350E-02;  0.0000000E+00;  0.0000000E+00;  0.0000000E+00;0;  2.7768521E-02;  9.3866875E+01;  0.0000000E+00; -4.4073733E-03;  1.0000000E+02;  0.0000000E+00;  9.8628624E+01;  2.2483625E-02;  0.0000000E+00;  5.2848966E-03;  0.0000000E+00;
  5.5088315E+00;  9.9999998E-03;  8.0532026E-01;471;  1.0686856E-01;  0.0000000E+00;  3.7466809E-03;  9.9901209E+00;  4.1562629E-01; -8.7827921E-01;3;  1.6299512E-02;  0.0000000E+00;  3.1685170E-02;  0.0000000E+00;  0.0000000E+00;  0.0000000E+00;0;  2.7294261E-02;  9.3744019E+01;  0.0000000E+00;  3.4629878E-02;  1.0000000E+02;  0.0000000E+00;  9.8608810E+01;  2.2239223E-02;  0.0000000E+00;  5.0550378E-03;  0.0000000E+00;
  5.5036364E+00;  9.9999998E-03;  1.0062717E+00;472;  1.0444602E-01;  0.0000000E+00;  5.5278176E-03;  9.9904156E+00;  4.1362450E-01; -8.5210145E-01;3;  1.7898083E-02;  0.0000000E+00;  3.5416700E-02;  0.0000000E+00;  0.0000000E+00;  0.0000000E+00;0;  2.6982700E-02;  9.4501213E+01;  0.0000000E+00;  1.8218247E-02;  1.0000000E+02;  0.0000000E+00;  9.8772728E+01;  2.1079024E-02;  0.0000000E+00;  5.9036757E-03;  0.0000000E+00;
  5.7107377E+00;  9.9999998E-03; -3.8777714E-09;477;  1.1122218E-01;  0.0000000E+00;  2.3164951E-08;  9.9887819E+00;  4.1229922E-01; -9.9735045E-01;3;  1.0545614E-02;  0.0000000E+00; -7.5902790E-08;  0.0000000E+00;  0.0000000E+00;  0.0000000E+00;0;  2.2545442E-02;  9.4995796E+01;  0.0000000E+00; -3.6688165E-15;  1.0000000E+02;  0.0000000E+00;  9.8859879E+01;  1.8298501E-02;  0.0000000E+00;  4.2469404E-03;  0.0000000E+00;
  5.7103648E+00;  9.9999998E-03;  2.0015596E-01;478;  1.1004861E-01;  0.0000000E+00; -2.0282366E-04;  9.9893456E+00;  4.1207284E-01; -9.4722062E-01;3;  1.7329834E-02;  0.0000000E+00; -9.0868725E-04;  0.0000000E+00;  0.0000000E+00;  0.0000000E+00;0;  2.1321980E-02;  9.5073288E+01;  0.0000000E+00;  3.1985845E-03;  1.0000000E+02;  0.0000000E+00;  9.8898788E+01;  1.7277956E-02;  0.0000000E+00;  4.0440247E-03;  0.0000000E+00;
  5.7096477E+00;  9.9999998E-03;  4.0093121E-01;479;  1.0764080E-01;  0.0000000E+00;  2.1656168E-04;  9.9906559E+00;  4.1160479E-01; -8.3074558E-01;3;  2.2293082E-02;  0.0000000E+00;  5.3791702E-03;  0.0000000E+00;  0.0000000E+00;  0.0000000E+00;0;  1.8690364E-02;  9.5247505E+01;  0.0000000E+00;  4.3368200E-03;  1.0000000E+02;  0.0000000E+00;  9.8968620E+01;  1.5026887E-02;  0.0000000E+00;  3.6634773E-03;  0.0000000E+00;
  5.7105298E+00;  9.9999998E-03;  6.0254049E-01;480;  1.0771069E-01;  0.0000000E+00;  1.3585372E-03;  9.9905615E+00;  4.1199011E-01; -8.3911824E-01;3;  1.9645341E-02;  0.0000000E+00;  1.7778682E-02;  0.0000000E+00;  0.0000000E+00;  0.0000000E+00;0;  1.8842587E-02;  9.5099365E+01;  0.0000000E+00;  2.7532750E-03;  1.0000000E+02;  0.0000000E+00;  9.8935524E+01;  1.5241517E-02;  0.0000000E+00;  3.6010712E-03;  0.0000000E+00;
  5.7087359E+00;  9.9999998E-03;  8.0360413E-01;481;  1.0734709E-01;  0.0000000E+00;  3.2002006E-03;  9.9902754E+00;  4.1103631E-01; -8.6455411E-01;3; -3.7530288E-03;  0.0000000E+00;  4.4457749E-02;  0.0000000E+00;  0.0000000E+00;  0.0000000E+00;0;  2.0029187E-02;  9.5446922E+01;  0.0000000E+00;  5.5142916E-03;  1.0000000E+02;  0.0000000E+00;  9.9027199E+01;  1.5454788E-02;  0.0000000E+00;  4.5744004E-03;  0.0000000E+00;
  5.9128008E+00;  9.9999998E-03;  3.0784805E-10;485;  1.1214988E-01;  0.0000000E+00;  2.1777405E-08;  9.9857273E+00;  4.0931633E-01; -1.2689309E+00;3;  2.0943573E-03;  0.0000000E+00; -2.0395964E-07;  0.0000000E+00;  0.0000000E+00;  0.0000000E+00;0;  1.7278090E-02;  9.6127098E+01;  0.0000000E+00;  9.3162672E-15;  1.0000000E+02;  0.0000000E+00;  9.9065964E+01;  1.3921081E-02;  0.0000000E+00;  3.3570093E-03;  0.0000000E+00;
  5.9125328E+00;  9.9999998E-03;  1.9981930E-01;486;  1.1152183E-01;  0.0000000E+00; -3.5238703E-04;  9.9864826E+00;  4.0904784E-01; -1.2017379E+00;3;  1.6894706E-03;  0.0000000E+00; -9.7058713E-05;  0.0000000E+00;  0.0000000E+00;  0.0000000E+00;0;  1.6245496E-02;  9.6211075E+01;  0.0000000E+00; -3.1811988E-03;  1.0000000E+02;  0.0000000E+00;  9.9124542E+01;  1.3141467E-02;  0.0000000E+00;  3.1040278E-03;  0.0000000E+00;
  5.9112859E+00;  9.9999998E-03;  4.0009621E-01;487;  1.0956548E-01;  0.0000000E+00; -3.4572222E-05;  9.9890156E+00;  4.0809795E-01; -9.7657764E-01;3;  1.1847408E-02;  0.0000000E+00;  2.0899959E-03;  0.0000000E+00;  0.0000000E+00;  0.0000000E+00;0;  1.3362116E-02;  9.6576172E+01;  0.0000000E+00; -2.0919727E-02;  1.0000000E+02;  0.0000000E+00;  9.9259476E+01;  1.0625647E-02;  0.0000000E+00;  2.7364688E-03;  0.0000000E+00;
  5.9113684E+00;  9.9999998E-03;  6.0131168E-01;488;  1.1040318E-01;  0.0000000E+00;  1.0056031E-03;  9.9869709E+00;  4.0809053E-01; -1.1583380E+00;3; -1.6129915E-02;  0.0000000E+00;  2.4436366E-02;  0.0000000E+00;  0.0000000E+00;  0.0000000E+00;0;  1.5407796E-02;  9.6523262E+01;  0.0000000E+00; -2.8907232E-02;  1.0000000E+02;  0.0000000E+00;  9.9276840E+01;  1.2513136E-02;  0.0000000E+00;  2.8946598E-03;  0.0000000E+00;
  6.1134443E+00;  9.9999998E-03;  2.7342499E-09;491;  1.1264487E-01;  0.0000000E+00;  1.3862640E-08;  9.9712391E+00;  4.0559718E-01; -2.5569913E+00;3; -6.4369207E-03;  0.0000000E+00;  1.1175871E-07;  0.0000000E+00;  0.0000000E+00;  0.0000000E+00;0;  1.2417709E-02;  9.7428040E+01;  0.0000000E+00; -5.6628314E-16;  1.0000000E+02;  0.0000000E+00;  9.9257828E+01;  9.8348362E-03;  0.0000000E+00;  2.5828737E-03;  0.0000000E+00;
  6.1127467E+00;  9.9999998E-03;  1.9914255E-01;492;  1.1144716E-01;  0.0000000E+00; -8.0634537E-04;  9.9760532E+00;  4.0509409E-01; -2.1289802E+00;3;  2.9033422E-03;  0.0000000E+00;  4.4886023E-05;  0.0000000E+00;  0.0000000E+00;  0.0000000E+00;0;  1.0078371E-02;  9.7641899E+01;  0.0000000E+00; -2.6556518E-02;  1.0000000E+02;  0.0000000E+00;  9.9381050E+01;  7.9817176E-03;  0.0000000E+00;  2.0966525E-03;  0.0000000E+00;
  6.1120229E+00;  9.9999998E-03;  3.9973426E-01;493;  1.1088938E-01;  0.0000000E+00;  1.2992186E-04;  9.9769106E+00;  4.0456039E-01; -2.0527787E+00;3; -3.4566037E-03;  0.0000000E+00;  5.2493885E-03;  0.0000000E+00;  0.0000000E+00;  0.0000000E+00;0;  9.9105965E-03;  9.7818733E+01;  0.0000000E+00; -6.9898412E-02;  1.0000000E+02;  0.0000000E+00;  9.9479721E+01;  7.6112570E-03;  0.0000000E+00;  2.2993395E-03;  0.0000000E+00;
