TimeStep;Np;Nbound;Nfixed;Nmoving;Nfloat;Nfluid
3.50149;494;165;165;0;0;329

Pos.x;Pos.y;Pos.z;Idp;Vel.x;Vel.y;Vel.z;Rhop;Mass;Press;Type;Acec.x;Acec.y;Acec.z;AceVisc.x;AceVisc.y;AceVisc.z;CellOffSpring;GradVel;Qfxx;Qfxy;Qfxz;Qfyy;Qfyz;Qfzz;StrainDot.x;StrainDot.y;StrainDot.z;VonMises3D;
 -1.0000000E+00;  9.9999998E-03; -2.0000000E+00;0;  0.0000000E+00;  0.0000000E+00;  0.0000000E+00;  1.0000000E+01;  4.0000001E-01;  0.0000000E+00;0;  0.0000000E+00;  0.0000000E+00;  0.0000000E+00;  0.0000000E+00;  0.0000000E+00;  0.0000000E+00;0; -1.9051197E-07;  1.0000000E+02;  0.0000000E+00;  0.0000000E+00;  1.0000000E+02;  0.0000000E+00;  1.0000000E+02; -5.5338766E-08;  0.0000000E+00; -1.3517320E-07;  0.0000000E+00;
 -8.0000001E-01;  9.9999998E-03; -2.0000000E+00;21;  0.0000000E+00;  0.0000000E+00;  0.0000000E+00;  1.0000000E+01;  4.0000001E-01;  0.0000000E+00;0;  0.0000000E+00;  0.0000000E+00;  0.0000000E+00;  0.0000000E+00;  0.0000000E+00;  0.0000000E+00;0; -3.5822967E-07;  1.0000000E+02;  0.0000000E+00;  0.0000000E+00;  1.0000000E+02;  0.0000000E+00;  1.0000000E+02; -1.2081944E-07;  0.0000000E+00; -2.3741022E-07;  0.0000000E+00;
 -6.0000002E-01;  9.9999998E-03; -2.0000000E+00;42;  0.0000000E+00;  0.0000000E+00;  0.0000000E+00;  1.0000000E+01;  4.0000001E-01;  0.0000000E+00;0;  0.0000000E+00;  0.0000000E+00;  0.0000000E+00;  0.0000000E+00;  0.0000000E+00;  0.0000000E+00;0; -1.6815653E-07;  1.0000000E+02;  0.0000000E+00;  0.0000000E+00;  1.0000000E+02;  0.0000000E+00;  1.0000000E+02; -9.3394810E-08;  0.0000000E+00; -7.4761729E-08;  0.0000000E+00;
 -4.0000001E-01;  9.9999998E-03; -2.0000000E+00;63;  0.0000000E+00;  0.0000000E+00;  0.0000000E+00;  1.0000092E+01;  4.0000001E-01;  9.8762540E-03;0;  0.0000000E+00;  0.0000000E+00;  0.0000000E+00;  0.0000000E+00;  0.0000000E+00;  0.0000000E+00;0;  1.0375406E-06;  1.0000000E+02;  0.0000000E+00;  0.0000000E+00;  1.0000000E+02;  0.0000000E+00;  1.0000000E+02;  2.4883917E-07;  0.0000000E+00;  7.8870153E-07;  0.0000000E+00;
 -2.0000000E-01;  9.9999998E-03; -2.0000000E+00;84;  0.0000000E+00;  0.0000000E+00;  0.0000000E+00;  1.0000140E+01;  4.0000001E-01;  1.5135024E-02;0;  0.0000000E+00;  0.0000000E+00;  0.0000000E+00;  0.0000000E+00;  0.0000000E+00;  0.0000000E+00;0;  4.9889613E-06;  1.0000000E+02;  0.0000000E+00;  0.0000000E+00;  1.0000000E+02;  0.0000000E+00;  1.0000000E+02;  2.3433556E-06;  0.0000000E+00;  2.6456059E-06;  0.0000000E+00;
  0.0000000E+00;  9.9999998E-03; -2.0000000E+00;105;  0.0000000E+00;  0.0000000E+00;  0.0000000E+00;  1.0000150E+01;  4.0000001E-01;  1.6161093E-02;0;  0.0000000E+00;  0.0000000E+00;  0.0000000E+00;  0.0000000E+00;  0.0000000E+00;  0.0000000E+00;0;  1.6029264E-05;  1.0000000E+02;  0.0000000E+00;  0.0000000E+00;  1.0000000E+02;  0.0000000E+00;  1.0000000E+02;  1.0957772E-05;  0.0000000E+00;  5.0714921E-06;  0.0000000E+00;
  2.0000000E-01;  9.9999998E-03; -2.0000000E+00;115;  0.0000000E+00;  0.0000000E+00;  0.0000000E+00;  1.0000000E+01;  4.0000001E-01;  0.0000000E+00;0;  0.0000000E+00;  0.0000000E+00;  0.0000000E+00;  0.0000000E+00;  0.0000000E+00;  0.0000000E+00;0;  4.0677227E-05;  1.0000000E+02;  0.0000000E+00;  0.0000000E+00;  1.0000000E+02;  0.0000000E+00;  1.0000000E+02;  3.3989774E-05;  0.0000000E+00;  6.6874541E-06;  0.0000000E+00;
  4.0000001E-01;  9.9999998E-03; -2.0000000E+00;125;  0.0000000E+00;  0.0000000E+00;  0.0000000E+00;  1.0000000E+01;  4.0000001E-01;  0.0000000E+00;0;  0.0000000E+00;  0.0000000E+00;  0.0000000E+00;  0.0000000E+00;  0.0000000E+00;  0.0000000E+00;0;  8.9633562E-05;  1.0000000E+02;  0.0000000E+00;  0.0000000E+00;  1.0000000E+02;  0.0000000E+00;  1.0000000E+02;  8.3777333E-05;  0.0000000E+00;  5.8562300E-06;  0.0000000E+00;
  6.0000002E-01;  9.9999998E-03; -2.0000000E+00;135;  0.0000000E+00;  0.0000000E+00;  0.0000000E+00;  1.0000000E+01;  4.0000001E-01;  0.0000000E+00;0;  0.0000000E+00;  0.0000000E+00;  0.0000000E+00;  0.0000000E+00;  0.0000000E+00;  0.0000000E+00;0;  1.7607975E-04;  1.0000000E+02;  0.0000000E+00;  0.0000000E+00;  1.0000000E+02;  0.0000000E+00;  1.0000000E+02;  1.7474472E-04;  0.0000000E+00;  1.3350198E-06;  0.0000000E+00;
  8.0000001E-01;  9.9999998E-03; -2.0000000E+00;145;  0.0000000E+00;  0.0000000E+00;  0.0000000E+00;  1.0000000E+01;  4.0000001E-01;  0.0000000E+00;0;  0.0000000E+00;  0.0000000E+00;  0.0000000E+00;  0.0000000E+00;  0.0000000E+00;  0.0000000E+00;0;  3.0359734E-04;  1.0000000E+02;  0.0000000E+00;  0.0000000E+00;  1.0000000E+02;  0.0000000E+00;  1.0000000E+02;  3.1159716E-04;  0.0000000E+00; -7.9998372E-06;  0.0000000E+00;
  1.0000000E+00;  9.9999998E-03; -2.0000000E+00;155;  0.0000000E+00;  0.0000000E+00;  0.0000000E+00;  1.0000000E+01;  4.0000001E-01;  0.0000000E+00;0;  0.0000000E+00;  0.0000000E+00;  0.0000000E+00;  0.0000000E+00;  0.0000000E+00;  0.0000000E+00;0;  4.4221224E-04;  1.0000000E+02;  0.0000000E+00;  0.0000000E+00;  1.0000000E+02;  0.0000000E+00;  1.0000000E+02;  4.6586365E-04;  0.0000000E+00; -2.3651415E-05;  0.0000000E+00;
 -1.0000000E+00;  9.9999998E-03; -1.8000000E+00;1;  0.0000000E+00;  0.0000000E+00;  0.0000000E+00;  1.0000000E+01;  4.0000001E-01;  0.0000000E+00;0;  0.0000000E+00;  0.0000000E+00;  0.0000000E+00;  0.0000000E+00;  0.0000000E+00;  0.0000000E+00;0; -3.9515263E-07;  1.0000000E+02;  0.0000000E+00;  0.0000000E+00;  1.0000000E+02;  0.0000000E+00;  1.0000000E+02; -7.0773240E-08;  0.0000000E+00; -3.2437939E-07;  0.0000000E+00;
 -1.0000000E+00;  9.9999998E-03; -1.6000000E+00;2;  0.0000000E+00;  0.0000000E+00;  0.0000000E+00;  1.0000038E+01;  4.0000001E-01;  4.1044201E-03;0;  0.0000000E+00;  0.0000000E+00;  0.0000000E+00;  0.0000000E+00;  0.0000000E+00;  0.0000000E+00;0; -3.3501451E-07;  1.0000000E+02;  0.0000000E+00;  0.0000000E+00;  1.0000000E+02;  0.0000000E+00;  1.0000000E+02;  1.3044928E-07;  0.0000000E+00; -4.6546378E-07;  0.0000000E+00;
 -1.0000000E+00;  9.9999998E-03; -1.4000000E+00;3;  0.0000000E+00;  0.0000000E+00;  0.0000000E+00;  1.0000267E+01;  4.0000001E-01;  2.8730940E-02;0;  0.0000000E+00;  0.0000000E+00;  0.0000000E+00;  0.0000000E+00;  0.0000000E+00;  0.0000000E+00;0;  4.2327690E-07;  1.0000000E+02;  0.0000000E+00;  0.0000000E+00;  1.0000000E+02;  0.0000000E+00;  1.0000000E+02;  9.0422799E-07;  0.0000000E+00; -4.8095109E-07;  0.0000000E+00;
 -1.0000000E+00;  9.9999998E-03; -1.2000000E+00;4;  0.0000000E+00;  0.0000000E+00;  0.0000000E+00;  1.0000500E+01;  4.0000001E-01;  5.3742249E-02;0;  0.0000000E+00;  0.0000000E+00;  0.0000000E+00;  0.0000000E+00;  0.0000000E+00;  0.0000000E+00;0;  2.4506105E-06;  1.0000000E+02;  0.0000000E+00;  0.0000000E+00;  1.0000000E+02;  0.0000000E+00;  1.0000000E+02;  2.8173449E-06;  0.0000000E+00; -3.6673433E-07;  0.0000000E+00;
 -1.0000000E+00;  9.9999998E-03; -1.0000000E+00;5;  0.0000000E+00;  0.0000000E+00;  0.0000000E+00;  1.0000754E+01;  4.0000001E-01;  8.1190556E-02;0;  0.0000000E+00;  0.0000000E+00;  0.0000000E+00;  0.0000000E+00;  0.0000000E+00;  0.0000000E+00;0;  6.2948438E-06;  1.0000000E+02;  0.0000000E+00;  0.0000000E+00;  1.0000000E+02;  0.0000000E+00;  1.0000000E+02;  6.4530072E-06;  0.0000000E+00; -1.5816345E-07;  0.0000000E+00;
 -1.0000000E+00;  9.9999998E-03; -8.0000001E-01;6;  0.0000000E+00;  0.0000000E+00;  0.0000000E+00;  1.0001022E+01;  4.0000001E-01;  1.1004976E-01;0;  0.0000000E+00;  0.0000000E+00;  0.0000000E+00;  0.0000000E+00;  0.0000000E+00;  0.0000000E+00;0;  1.2119219E-05;  1.0000000E+02;  0.0000000E+00;  0.0000000E+00;  1.0000000E+02;  0.0000000E+00;  1.0000000E+02;  1.2034115E-05;  0.0000000E+00;  8.5103935E-08;  0.0000000E+00;
 -1.0000000E+00;  9.9999998E-03; -6.0000002E-01;7;  0.0000000E+00;  0.0000000E+00;  0.0000000E+00;  1.0001233E+01;  4.0000001E-01;  1.3262407E-01;0;  0.0000000E+00;  0.0000000E+00;  0.0000000E+00;  0.0000000E+00;  0.0000000E+00;  0.0000000E+00;0;  1.9322018E-05;  1.0000000E+02;  0.0000000E+00;  0.0000000E+00;  1.0000000E+02;  0.0000000E+00;  1.0000000E+02;  1.9042167E-05;  0.0000000E+00;  2.7985220E-07;  0.0000000E+00;
 -1.0000000E+00;  9.9999998E-03; -4.0000001E-01;8;  0.0000000E+00;  0.0000000E+00;  0.0000000E+00;  1.0001134E+01;  4.0000001E-01;  1.2197823E-01;0;  0.0000000E+00;  0.0000000E+00;  0.0000000E+00;  0.0000000E+00;  0.0000000E+00;  0.0000000E+00;0;  2.6495578E-05;  1.0000000E+02;  0.0000000E+00;  0.0000000E+00;  1.0000000E+02;  0.0000000E+00;  1.0000000E+02;  2.6125907E-05;  0.0000000E+00;  3.6967148E-07;  0.0000000E+00;
 -1.0000000E+00;  9.9999998E-03; -2.0000000E-01;9;  0.0000000E+00;  0.0000000E+00;  0.0000000E+00;  1.0001162E+01;  4.0000001E-01;  1.2492829E-01;0;  0.0000000E+00;  0.0000000E+00;  0.0000000E+00;  0.0000000E+00;  0.0000000E+00;  0.0000000E+00;0;  3.1842210E-05;  1.0000000E+02;  0.0000000E+00;  0.0000000E+00;  1.0000000E+02;  0.0000000E+00;  1.0000000E+02;  3.1463969E-05;  0.0000000E+00;  3.7824194E-07;  0.0000000E+00;
 -8.0000001E-01;  9.9999998E-03; -1.8000000E+00;22;  0.0000000E+00;  0.0000000E+00;  0.0000000E+00;  1.0000087E+01;  4.0000001E-01;  9.3632080E-03;0;  0.0000000E+00;  0.0000000E+00;  0.0000000E+00;  0.0000000E+00;  0.0000000E+00;  0.0000000E+00;0; -4.1614356E-07;  1.0000000E+02;  0.0000000E+00;  0.0000000E+00;  1.0000000E+02;  0.0000000E+00;  1.0000000E+02; -2.4178247E-08;  0.0000000E+00; -3.9196533E-07;  0.0000000E+00;
 -8.0000001E-01;  9.9999998E-03; -1.6000000E+00;23;  0.0000000E+00;  0.0000000E+00;  0.0000000E+00;  1.0000361E+01;  4.0000001E-01;  3.8863726E-02;0;  0.0000000E+00;  0.0000000E+00;  0.0000000E+00;  0.0000000E+00;  0.0000000E+00;  0.0000000E+00;0;  1.9616999E-07;  1.0000000E+02;  0.0000000E+00;  0.0000000E+00;  1.0000000E+02;  0.0000000E+00;  1.0000000E+02;  5.9418568E-07;  0.0000000E+00; -3.9801569E-07;  0.0000000E+00;
 -8.0000001E-01;  9.9999998E-03; -1.4000000E+00;24;  0.0000000E+00;  0.0000000E+00;  0.0000000E+00;  1.0000714E+01;  4.0000001E-01;  7.6829612E-02;0;  0.0000000E+00;  0.0000000E+00;  0.0000000E+00;  0.0000000E+00;  0.0000000E+00;  0.0000000E+00;0;  2.0945652E-06;  1.0000000E+02;  0.0000000E+00;  0.0000000E+00;  1.0000000E+02;  0.0000000E+00;  1.0000000E+02;  2.3740781E-06;  0.0000000E+00; -2.7951305E-07;  0.0000000E+00;
 -8.0000001E-01;  9.9999998E-03; -1.2000000E+00;25;  0.0000000E+00;  0.0000000E+00;  0.0000000E+00;  1.0001216E+01;  4.0000001E-01;  1.3082840E-01;0;  0.0000000E+00;  0.0000000E+00;  0.0000000E+00;  0.0000000E+00;  0.0000000E+00;  0.0000000E+00;0;  6.1791029E-06;  1.0000000E+02;  0.0000000E+00;  0.0000000E+00;  1.0000000E+02;  0.0000000E+00;  1.0000000E+02;  6.2997838E-06;  0.0000000E+00; -1.2068067E-07;  0.0000000E+00;
 -8.0000001E-01;  9.9999998E-03; -1.0000000E+00;26;  0.0000000E+00;  0.0000000E+00;  0.0000000E+00;  1.0001770E+01;  4.0000001E-01;  1.9047074E-01;0;  0.0000000E+00;  0.0000000E+00;  0.0000000E+00;  0.0000000E+00;  0.0000000E+00;  0.0000000E+00;0;  1.3340289E-05;  1.0000000E+02;  0.0000000E+00;  0.0000000E+00;  1.0000000E+02;  0.0000000E+00;  1.0000000E+02;  1.3309274E-05;  0.0000000E+00;  3.1015336E-08;  0.0000000E+00;
 -8.0000001E-01;  9.9999998E-03; -8.0000001E-01;27;  0.0000000E+00;  0.0000000E+00;  0.0000000E+00;  1.0002122E+01;  4.0000001E-01;  2.2830836E-01;0;  0.0000000E+00;  0.0000000E+00;  0.0000000E+00;  0.0000000E+00;  0.0000000E+00;  0.0000000E+00;0;  2.3869905E-05;  1.0000000E+02;  0.0000000E+00;  0.0000000E+00;  1.0000000E+02;  0.0000000E+00;  1.0000000E+02;  2.3728509E-05;  0.0000000E+00;  1.4139491E-07;  0.0000000E+00;
 -8.0000001E-01;  9.9999998E-03; -6.0000002E-01;28;  0.0000000E+00;  0.0000000E+00;  0.0000000E+00;  1.0002459E+01;  4.0000001E-01;  2.6447856E-01;0;  0.0000000E+00;  0.0000000E+00;  0.0000000E+00;  0.0000000E+00;  0.0000000E+00;  0.0000000E+00;0;  3.6810481E-05;  1.0000000E+02;  0.0000000E+00;  0.0000000E+00;  1.0000000E+02;  0.0000000E+00;  1.0000000E+02;  3.6622252E-05;  0.0000000E+00;  1.8822867E-07;  0.0000000E+00;
 -8.0000001E-01;  9.9999998E-03; -4.0000001E-01;29;  0.0000000E+00;  0.0000000E+00;  0.0000000E+00;  1.0002686E+01;  4.0000001E-01;  2.8897682E-01;0;  0.0000000E+00;  0.0000000E+00;  0.0000000E+00;  0.0000000E+00;  0.0000000E+00;  0.0000000E+00;0;  4.9761635E-05;  1.0000000E+02;  0.0000000E+00;  0.0000000E+00;  1.0000000E+02;  0.0000000E+00;  1.0000000E+02;  4.9566115E-05;  0.0000000E+00;  1.9551972E-07;  0.0000000E+00;
 -8.0000001E-01;  9.9999998E-03; -2.0000000E-01;30;  0.0000000E+00;  0.0000000E+00;  0.0000000E+00;  1.0002735E+01;  4.0000001E-01;  2.9423562E-01;0;  0.0000000E+00;  0.0000000E+00;  0.0000000E+00;  0.0000000E+00;  0.0000000E+00;  0.0000000E+00;0;  5.9467562E-05;  1.0000000E+02;  0.0000000E+00;  0.0000000E+00;  1.0000000E+02;  0.0000000E+00;  1.0000000E+02;  5.9256854E-05;  0.0000000E+00;  2.1070923E-07;  0.0000000E+00;
 -6.0000002E-01;  9.9999998E-03; -1.8000000E+00;43;  0.0000000E+00;  0.0000000E+00;  0.0000000E+00;  1.0000278E+01;  4.0000001E-01;  3.0013565E-02;0;  0.0000000E+00;  0.0000000E+00;  0.0000000E+00;  0.0000000E+00;  0.0000000E+00;  0.0000000E+00;0;  4.5426020E-07;  1.0000000E+02;  0.0000000E+00;  0.0000000E+00;  1.0000000E+02;  0.0000000E+00;  1.0000000E+02;  2.5113084E-07;  0.0000000E+00;  2.0312937E-07;  0.0000000E+00;
 -6.0000002E-01;  9.9999998E-03; -1.6000000E+00;44;  0.0000000E+00;  0.0000000E+00;  0.0000000E+00;  1.0000634E+01;  4.0000001E-01;  6.8235971E-02;0;  0.0000000E+00;  0.0000000E+00;  0.0000000E+00;  0.0000000E+00;  0.0000000E+00;  0.0000000E+00;0;  2.2050406E-06;  1.0000000E+02;  0.0000000E+00;  0.0000000E+00;  1.0000000E+02;  0.0000000E+00;  1.0000000E+02;  1.5899213E-06;  0.0000000E+00;  6.1511923E-07;  0.0000000E+00;
 -6.0000002E-01;  9.9999998E-03; -1.4000000E+00;45;  0.0000000E+00;  0.0000000E+00;  0.0000000E+00;  1.0001203E+01;  4.0000001E-01;  1.2941746E-01;0;  0.0000000E+00;  0.0000000E+00;  0.0000000E+00;  0.0000000E+00;  0.0000000E+00;  0.0000000E+00;0;  5.5614050E-06;  1.0000000E+02;  0.0000000E+00;  0.0000000E+00;  1.0000000E+02;  0.0000000E+00;  1.0000000E+02;  4.6818377E-06;  0.0000000E+00;  8.7956732E-07;  0.0000000E+00;
 -6.0000002E-01;  9.9999998E-03; -1.2000000E+00;46;  0.0000000E+00;  0.0000000E+00;  0.0000000E+00;  1.0001933E+01;  4.0000001E-01;  2.0804274E-01;0;  0.0000000E+00;  0.0000000E+00;  0.0000000E+00;  0.0000000E+00;  0.0000000E+00;  0.0000000E+00;0;  1.1505141E-05;  1.0000000E+02;  0.0000000E+00;  0.0000000E+00;  1.0000000E+02;  0.0000000E+00;  1.0000000E+02;  1.0628660E-05;  0.0000000E+00;  8.7648124E-07;  0.0000000E+00;
 -6.0000002E-01;  9.9999998E-03; -1.0000000E+00;47;  0.0000000E+00;  0.0000000E+00;  0.0000000E+00;  1.0002632E+01;  4.0000001E-01;  2.8320491E-01;0;  0.0000000E+00;  0.0000000E+00;  0.0000000E+00;  0.0000000E+00;  0.0000000E+00;  0.0000000E+00;0;  2.0994155E-05;  1.0000000E+02;  0.0000000E+00;  0.0000000E+00;  1.0000000E+02;  0.0000000E+00;  1.0000000E+02;  2.0362619E-05;  0.0000000E+00;  6.3153743E-07;  0.0000000E+00;
 -6.0000002E-01;  9.9999998E-03; -8.0000001E-01;48;  0.0000000E+00;  0.0000000E+00;  0.0000000E+00;  1.0003346E+01;  4.0000001E-01;  3.6003453E-01;0;  0.0000000E+00;  0.0000000E+00;  0.0000000E+00;  0.0000000E+00;  0.0000000E+00;  0.0000000E+00;0;  3.4367149E-05;  1.0000000E+02;  0.0000000E+00;  0.0000000E+00;  1.0000000E+02;  0.0000000E+00;  1.0000000E+02;  3.4162484E-05;  0.0000000E+00;  2.0466715E-07;  0.0000000E+00;
 -6.0000002E-01;  9.9999998E-03; -6.0000002E-01;49;  0.0000000E+00;  0.0000000E+00;  0.0000000E+00;  1.0003973E+01;  4.0000001E-01;  4.2750090E-01;0;  0.0000000E+00;  0.0000000E+00;  0.0000000E+00;  0.0000000E+00;  0.0000000E+00;  0.0000000E+00;0;  5.0722614E-05;  1.0000000E+02;  0.0000000E+00;  0.0000000E+00;  1.0000000E+02;  0.0000000E+00;  1.0000000E+02;  5.1035298E-05;  0.0000000E+00; -3.1268587E-07;  0.0000000E+00;
 -6.0000002E-01;  9.9999998E-03; -4.0000001E-01;50;  0.0000000E+00;  0.0000000E+00;  0.0000000E+00;  1.0004209E+01;  4.0000001E-01;  4.5276874E-01;0;  0.0000000E+00;  0.0000000E+00;  0.0000000E+00;  0.0000000E+00;  0.0000000E+00;  0.0000000E+00;0;  6.7374785E-05;  1.0000000E+02;  0.0000000E+00;  0.0000000E+00;  1.0000000E+02;  0.0000000E+00;  1.0000000E+02;  6.8134817E-05;  0.0000000E+00; -7.6002982E-07;  0.0000000E+00;
 -6.0000002E-01;  9.9999998E-03; -2.0000000E-01;51;  0.0000000E+00;  0.0000000E+00;  0.0000000E+00;  1.0004408E+01;  4.0000001E-01;  4.7431692E-01;0;  0.0000000E+00;  0.0000000E+00;  0.0000000E+00;  0.0000000E+00;  0.0000000E+00;  0.0000000E+00;0;  8.0127938E-05;  1.0000000E+02;  0.0000000E+00;  0.0000000E+00;  1.0000000E+02;  0.0000000E+00;  1.0000000E+02;  8.1129896E-05;  0.0000000E+00; -1.0019559E-06;  0.0000000E+00;
 -4.0000001E-01;  9.9999998E-03; -1.8000000E+00;64;  0.0000000E+00;  0.0000000E+00;  0.0000000E+00;  1.0000381E+01;  4.0000001E-01;  4.0915910E-02;0;  0.0000000E+00;  0.0000000E+00;  0.0000000E+00;  0.0000000E+00;  0.0000000E+00;  0.0000000E+00;0;  3.7304189E-06;  1.0000000E+02;  0.0000000E+00;  0.0000000E+00;  1.0000000E+02;  0.0000000E+00;  1.0000000E+02;  1.6639177E-06;  0.0000000E+00;  2.0665013E-06;  0.0000000E+00;
 -4.0000001E-01;  9.9999998E-03; -1.6000000E+00;65;  0.0000000E+00;  0.0000000E+00;  0.0000000E+00;  1.0000803E+01;  4.0000001E-01;  8.6449288E-02;0;  0.0000000E+00;  0.0000000E+00;  0.0000000E+00;  0.0000000E+00;  0.0000000E+00;  0.0000000E+00;0;  8.6870623E-06;  1.0000000E+02;  0.0000000E+00;  0.0000000E+00;  1.0000000E+02;  0.0000000E+00;  1.0000000E+02;  5.5060427E-06;  0.0000000E+00;  3.1810196E-06;  0.0000000E+00;
 -4.0000001E-01;  9.9999998E-03; -1.4000000E+00;66;  0.0000000E+00;  0.0000000E+00;  0.0000000E+00;  1.0001434E+01;  4.0000001E-01;  1.5430044E-01;0;  0.0000000E+00;  0.0000000E+00;  0.0000000E+00;  0.0000000E+00;  0.0000000E+00;  0.0000000E+00;0;  1.5780943E-05;  1.0000000E+02;  0.0000000E+00;  0.0000000E+00;  1.0000000E+02;  0.0000000E+00;  1.0000000E+02;  1.2309765E-05;  0.0000000E+00;  3.4711775E-06;  0.0000000E+00;
 -4.0000001E-01;  9.9999998E-03; -1.2000000E+00;67;  0.0000000E+00;  0.0000000E+00;  0.0000000E+00;  1.0002102E+01;  4.0000001E-01;  2.2612774E-01;0;  0.0000000E+00;  0.0000000E+00;  0.0000000E+00;  0.0000000E+00;  0.0000000E+00;  0.0000000E+00;0;  2.4805762E-05;  1.0000000E+02;  0.0000000E+00;  0.0000000E+00;  1.0000000E+02;  0.0000000E+00;  1.0000000E+02;  2.1880702E-05;  0.0000000E+00;  2.9250609E-06;  0.0000000E+00;
 -4.0000001E-01;  9.9999998E-03; -1.0000000E+00;68;  0.0000000E+00;  0.0000000E+00;  0.0000000E+00;  1.0003046E+01;  4.0000001E-01;  3.2771206E-01;0;  0.0000000E+00;  0.0000000E+00;  0.0000000E+00;  0.0000000E+00;  0.0000000E+00;  0.0000000E+00;0;  3.5551180E-05;  1.0000000E+02;  0.0000000E+00;  0.0000000E+00;  1.0000000E+02;  0.0000000E+00;  1.0000000E+02;  3.3766602E-05;  0.0000000E+00;  1.7845783E-06;  0.0000000E+00;
 -4.0000001E-01;  9.9999998E-03; -8.0000001E-01;69;  0.0000000E+00;  0.0000000E+00;  0.0000000E+00;  1.0004043E+01;  4.0000001E-01;  4.3493998E-01;0;  0.0000000E+00;  0.0000000E+00;  0.0000000E+00;  0.0000000E+00;  0.0000000E+00;  0.0000000E+00;0;  4.7868820E-05;  1.0000000E+02;  0.0000000E+00;  0.0000000E+00;  1.0000000E+02;  0.0000000E+00;  1.0000000E+02;  4.7592803E-05;  0.0000000E+00;  2.7601590E-07;  0.0000000E+00;
 -4.0000001E-01;  9.9999998E-03; -6.0000002E-01;70;  0.0000000E+00;  0.0000000E+00;  0.0000000E+00;  1.0004739E+01;  4.0000001E-01;  5.0984555E-01;0;  0.0000000E+00;  0.0000000E+00;  0.0000000E+00;  0.0000000E+00;  0.0000000E+00;  0.0000000E+00;0;  6.1626037E-05;  1.0000000E+02;  0.0000000E+00;  0.0000000E+00;  1.0000000E+02;  0.0000000E+00;  1.0000000E+02;  6.3018015E-05;  0.0000000E+00; -1.3919782E-06;  0.0000000E+00;
 -4.0000001E-01;  9.9999998E-03; -4.0000001E-01;71;  0.0000000E+00;  0.0000000E+00;  0.0000000E+00;  1.0005293E+01;  4.0000001E-01;  5.6948787E-01;0;  0.0000000E+00;  0.0000000E+00;  0.0000000E+00;  0.0000000E+00;  0.0000000E+00;  0.0000000E+00;0;  7.5748547E-05;  1.0000000E+02;  0.0000000E+00;  0.0000000E+00;  1.0000000E+02;  0.0000000E+00;  1.0000000E+02;  7.8676872E-05;  0.0000000E+00; -2.9283228E-06;  0.0000000E+00;
 -4.0000001E-01;  9.9999998E-03; -2.0000000E-01;72;  0.0000000E+00;  0.0000000E+00;  0.0000000E+00;  1.0005652E+01;  4.0000001E-01;  6.0822332E-01;0;  0.0000000E+00;  0.0000000E+00;  0.0000000E+00;  0.0000000E+00;  0.0000000E+00;  0.0000000E+00;0;  8.7168199E-05;  1.0000000E+02;  0.0000000E+00;  0.0000000E+00;  1.0000000E+02;  0.0000000E+00;  1.0000000E+02;  9.1185160E-05;  0.0000000E+00; -4.0169621E-06;  0.0000000E+00;
 -2.0000000E-01;  9.9999998E-03; -1.8000000E+00;85;  0.0000000E+00;  0.0000000E+00;  0.0000000E+00;  1.0000424E+01;  4.0000001E-01;  4.5661595E-02;0;  0.0000000E+00;  0.0000000E+00;  0.0000000E+00;  0.0000000E+00;  0.0000000E+00;  0.0000000E+00;0;  1.4080733E-05;  1.0000000E+02;  0.0000000E+00;  0.0000000E+00;  1.0000000E+02;  0.0000000E+00;  1.0000000E+02;  8.7059952E-06;  0.0000000E+00;  5.3747381E-06;  0.0000000E+00;
 -2.0000000E-01;  9.9999998E-03; -1.6000000E+00;86;  0.0000000E+00;  0.0000000E+00;  0.0000000E+00;  1.0000431E+01;  4.0000001E-01;  4.6431173E-02;0;  0.0000000E+00;  0.0000000E+00;  0.0000000E+00;  0.0000000E+00;  0.0000000E+00;  0.0000000E+00;0;  2.7917245E-05;  1.0000000E+02;  0.0000000E+00;  0.0000000E+00;  1.0000000E+02;  0.0000000E+00;  1.0000000E+02;  2.0636991E-05;  0.0000000E+00;  7.2802532E-06;  0.0000000E+00;
 -2.0000000E-01;  9.9999998E-03; -1.4000000E+00;87;  0.0000000E+00;  0.0000000E+00;  0.0000000E+00;  1.0000875E+01;  4.0000001E-01;  9.4144978E-02;0;  0.0000000E+00;  0.0000000E+00;  0.0000000E+00;  0.0000000E+00;  0.0000000E+00;  0.0000000E+00;0;  4.4748769E-05;  1.0000000E+02;  0.0000000E+00;  0.0000000E+00;  1.0000000E+02;  0.0000000E+00;  1.0000000E+02;  3.7284874E-05;  0.0000000E+00;  7.4638942E-06;  0.0000000E+00;
 -2.0000000E-01;  9.9999998E-03; -1.2000000E+00;88;  0.0000000E+00;  0.0000000E+00;  0.0000000E+00;  1.0001451E+01;  4.0000001E-01;  1.5609597E-01;0;  0.0000000E+00;  0.0000000E+00;  0.0000000E+00;  0.0000000E+00;  0.0000000E+00;  0.0000000E+00;0;  6.1428800E-05;  1.0000000E+02;  0.0000000E+00;  0.0000000E+00;  1.0000000E+02;  0.0000000E+00;  1.0000000E+02;  5.5368571E-05;  0.0000000E+00;  6.0602297E-06;  0.0000000E+00;
 -2.0000000E-01;  9.9999998E-03; -1.0000000E+00;89;  0.0000000E+00;  0.0000000E+00;  0.0000000E+00;  1.0002348E+01;  4.0000001E-01;  2.5267792E-01;0;  0.0000000E+00;  0.0000000E+00;  0.0000000E+00;  0.0000000E+00;  0.0000000E+00;  0.0000000E+00;0;  7.4505886E-05;  1.0000000E+02;  0.0000000E+00;  0.0000000E+00;  1.0000000E+02;  0.0000000E+00;  1.0000000E+02;  7.0976072E-05;  0.0000000E+00;  3.5298169E-06;  0.0000000E+00;
 -2.0000000E-01;  9.9999998E-03; -8.0000001E-01;90;  0.0000000E+00;  0.0000000E+00;  0.0000000E+00;  1.0003343E+01;  4.0000001E-01;  3.5964921E-01;0;  0.0000000E+00;  0.0000000E+00;  0.0000000E+00;  0.0000000E+00;  0.0000000E+00;  0.0000000E+00;0;  8.3319115E-05;  1.0000000E+02;  0.0000000E+00;  0.0000000E+00;  1.0000000E+02;  0.0000000E+00;  1.0000000E+02;  8.2956241E-05;  0.0000000E+00;  3.6287170E-07;  0.0000000E+00;
 -2.0000000E-01;  9.9999998E-03; -6.0000002E-01;91;  0.0000000E+00;  0.0000000E+00;  0.0000000E+00;  1.0004303E+01;  4.0000001E-01;  4.6302912E-01;0;  0.0000000E+00;  0.0000000E+00;  0.0000000E+00;  0.0000000E+00;  0.0000000E+00;  0.0000000E+00;0;  9.0115820E-05;  1.0000000E+02;  0.0000000E+00;  0.0000000E+00;  1.0000000E+02;  0.0000000E+00;  1.0000000E+02;  9.3182047E-05;  0.0000000E+00; -3.0662293E-06;  0.0000000E+00;
 -2.0000000E-01;  9.9999998E-03; -4.0000001E-01;92;  0.0000000E+00;  0.0000000E+00;  0.0000000E+00;  1.0004907E+01;  4.0000001E-01;  5.2793014E-01;0;  0.0000000E+00;  0.0000000E+00;  0.0000000E+00;  0.0000000E+00;  0.0000000E+00;  0.0000000E+00;0;  9.7000950E-05;  1.0000000E+02;  0.0000000E+00;  0.0000000E+00;  1.0000000E+02;  0.0000000E+00;  1.0000000E+02;  1.0340570E-04;  0.0000000E+00; -6.4047467E-06;  0.0000000E+00;
 -2.0000000E-01;  9.9999998E-03; -2.0000000E-01;93;  0.0000000E+00;  0.0000000E+00;  0.0000000E+00;  1.0005370E+01;  4.0000001E-01;  5.7782441E-01;0;  0.0000000E+00;  0.0000000E+00;  0.0000000E+00;  0.0000000E+00;  0.0000000E+00;  0.0000000E+00;0;  1.0279593E-04;  1.0000000E+02;  0.0000000E+00;  0.0000000E+00;  1.0000000E+02;  0.0000000E+00;  1.0000000E+02;  1.1183985E-04;  0.0000000E+00; -9.0439198E-06;  0.0000000E+00;
  0.0000000E+00;  9.9999998E-03; -1.8000000E+00;106;  0.0000000E+00;  0.0000000E+00;  0.0000000E+00;  1.0000000E+01;  4.0000001E-01;  0.0000000E+00;0;  0.0000000E+00;  0.0000000E+00;  0.0000000E+00;  0.0000000E+00;  0.0000000E+00;  0.0000000E+00;0;  3.9282389E-05;  1.0000000E+02;  0.0000000E+00;  0.0000000E+00;  1.0000000E+02;  0.0000000E+00;  1.0000000E+02;  3.0158075E-05;  0.0000000E+00;  9.1243146E-06;  0.0000000E+00;
  0.0000000E+00;  9.9999998E-03; -1.6000000E+00;107;  0.0000000E+00;  0.0000000E+00;  0.0000000E+00;  1.0000000E+01;  4.0000001E-01;  0.0000000E+00;0;  0.0000000E+00;  0.0000000E+00;  0.0000000E+00;  0.0000000E+00;  0.0000000E+00;  0.0000000E+00;0;  7.2782212E-05;  1.0000000E+02;  0.0000000E+00;  0.0000000E+00;  1.0000000E+02;  0.0000000E+00;  1.0000000E+02;  6.0960079E-05;  0.0000000E+00;  1.1822135E-05;  0.0000000E+00;
  0.0000000E+00;  9.9999998E-03; -1.4000000E+00;108;  0.0000000E+00;  0.0000000E+00;  0.0000000E+00;  1.0000000E+01;  4.0000001E-01;  0.0000000E+00;0;  0.0000000E+00;  0.0000000E+00;  0.0000000E+00;  0.0000000E+00;  0.0000000E+00;  0.0000000E+00;0;  1.1172814E-04;  1.0000000E+02;  0.0000000E+00;  0.0000000E+00;  1.0000000E+02;  0.0000000E+00;  1.0000000E+02;  9.9546734E-05;  0.0000000E+00;  1.2181407E-05;  0.0000000E+00;
  0.0000000E+00;  9.9999998E-03; -1.2000000E+00;109;  0.0000000E+00;  0.0000000E+00;  0.0000000E+00;  1.0000000E+01;  4.0000001E-01;  0.0000000E+00;0;  0.0000000E+00;  0.0000000E+00;  0.0000000E+00;  0.0000000E+00;  0.0000000E+00;  0.0000000E+00;0;  1.4770030E-04;  1.0000000E+02;  0.0000000E+00;  0.0000000E+00;  1.0000000E+02;  0.0000000E+00;  1.0000000E+02;  1.3757730E-04;  0.0000000E+00;  1.0122997E-05;  0.0000000E+00;
  2.0000000E-01;  9.9999998E-03; -1.8000000E+00;116;  0.0000000E+00;  0.0000000E+00;  0.0000000E+00;  1.0000000E+01;  4.0000001E-01;  0.0000000E+00;0;  0.0000000E+00;  0.0000000E+00;  0.0000000E+00;  0.0000000E+00;  0.0000000E+00;  0.0000000E+00;0;  9.1824695E-05;  1.0000000E+02;  0.0000000E+00;  0.0000000E+00;  1.0000000E+02;  0.0000000E+00;  1.0000000E+02;  8.0577920E-05;  0.0000000E+00;  1.1246775E-05;  0.0000000E+00;
  2.0000000E-01;  9.9999998E-03; -1.6000000E+00;117;  0.0000000E+00;  0.0000000E+00;  0.0000000E+00;  1.0000000E+01;  4.0000001E-01;  0.0000000E+00;0;  0.0000000E+00;  0.0000000E+00;  0.0000000E+00;  0.0000000E+00;  0.0000000E+00;  0.0000000E+00;0;  1.6461918E-04;  1.0000000E+02;  0.0000000E+00;  0.0000000E+00;  1.0000000E+02;  0.0000000E+00;  1.0000000E+02;  1.5004202E-04;  0.0000000E+00;  1.4577160E-05;  0.0000000E+00;
  2.0000000E-01;  9.9999998E-03; -1.4000000E+00;118;  0.0000000E+00;  0.0000000E+00;  0.0000000E+00;  1.0000000E+01;  4.0000001E-01;  0.0000000E+00;0;  0.0000000E+00;  0.0000000E+00;  0.0000000E+00;  0.0000000E+00;  0.0000000E+00;  0.0000000E+00;0;  2.5093684E-04;  1.0000000E+02;  0.0000000E+00;  0.0000000E+00;  1.0000000E+02;  0.0000000E+00;  1.0000000E+02;  2.3522215E-04;  0.0000000E+00;  1.5714693E-05;  0.0000000E+00;
  2.0000000E-01;  9.9999998E-03; -1.2000000E+00;119;  0.0000000E+00;  0.0000000E+00;  0.0000000E+00;  1.0000000E+01;  4.0000001E-01;  0.0000000E+00;0;  0.0000000E+00;  0.0000000E+00;  0.0000000E+00;  0.0000000E+00;  0.0000000E+00;  0.0000000E+00;0;  3.3599499E-04;  1.0000000E+02;  0.0000000E+00;  0.0000000E+00;  1.0000000E+02;  0.0000000E+00;  1.0000000E+02;  3.2203144E-04;  0.0000000E+00;  1.3963554E-05;  0.0000000E+00;
  4.0000001E-01;  9.9999998E-03; -1.8000000E+00;126;  0.0000000E+00;  0.0000000E+00;  0.0000000E+00;  1.0000000E+01;  4.0000001E-01;  0.0000000E+00;0;  0.0000000E+00;  0.0000000E+00;  0.0000000E+00;  0.0000000E+00;  0.0000000E+00;  0.0000000E+00;0;  1.9166482E-04;  1.0000000E+02;  0.0000000E+00;  0.0000000E+00;  1.0000000E+02;  0.0000000E+00;  1.0000000E+02;  1.8233943E-04;  0.0000000E+00;  9.3253984E-06;  0.0000000E+00;
  4.0000001E-01;  9.9999998E-03; -1.6000000E+00;127;  0.0000000E+00;  0.0000000E+00;  0.0000000E+00;  1.0000000E+01;  4.0000001E-01;  0.0000000E+00;0;  0.0000000E+00;  0.0000000E+00;  0.0000000E+00;  0.0000000E+00;  0.0000000E+00;  0.0000000E+00;0;  3.3844708E-04;  1.0000000E+02;  0.0000000E+00;  0.0000000E+00;  1.0000000E+02;  0.0000000E+00;  1.0000000E+02;  3.2605632E-04;  0.0000000E+00;  1.2390765E-05;  0.0000000E+00;
  4.0000001E-01;  9.9999998E-03; -1.4000000E+00;128;  0.0000000E+00;  0.0000000E+00;  0.0000000E+00;  1.0000000E+01;  4.0000001E-01;  0.0000000E+00;0;  0.0000000E+00;  0.0000000E+00;  0.0000000E+00;  0.0000000E+00;  0.0000000E+00;  0.0000000E+00;0;  5.2046921E-04;  1.0000000E+02;  0.0000000E+00;  0.0000000E+00;  1.0000000E+02;  0.0000000E+00;  1.0000000E+02;  5.0607737E-04;  0.0000000E+00;  1.4391823E-05;  0.0000000E+00;
  4.0000001E-01;  9.9999998E-03; -1.2000000E+00;129;  0.0000000E+00;  0.0000000E+00;  0.0000000E+00;  1.0000000E+01;  4.0000001E-01;  0.0000000E+00;0;  0.0000000E+00;  0.0000000E+00;  0.0000000E+00;  0.0000000E+00;  0.0000000E+00;  0.0000000E+00;0;  7.0884870E-04;  1.0000000E+02;  0.0000000E+00;  0.0000000E+00;  1.0000000E+02;  0.0000000E+00;  1.0000000E+02;  6.9480913E-04;  0.0000000E+00;  1.4039544E-05;  0.0000000E+00;
  6.0000002E-01;  9.9999998E-03; -1.8000000E+00;136;  0.0000000E+00;  0.0000000E+00;  0.0000000E+00;  1.0000000E+01;  4.0000001E-01;  0.0000000E+00;0;  0.0000000E+00;  0.0000000E+00;  0.0000000E+00;  0.0000000E+00;  0.0000000E+00;  0.0000000E+00;0;  3.6090496E-04;  1.0000000E+02;  0.0000000E+00;  0.0000000E+00;  1.0000000E+02;  0.0000000E+00;  1.0000000E+02;  3.5936950E-04;  0.0000000E+00;  1.5354532E-06;  0.0000000E+00;
  6.0000002E-01;  9.9999998E-03; -1.6000000E+00;137;  0.0000000E+00;  0.0000000E+00;  0.0000000E+00;  1.0000000E+01;  4.0000001E-01;  0.0000000E+00;0;  0.0000000E+00;  0.0000000E+00;  0.0000000E+00;  0.0000000E+00;  0.0000000E+00;  0.0000000E+00;0;  6.3196797E-04;  1.0000000E+02;  0.0000000E+00;  0.0000000E+00;  1.0000000E+02;  0.0000000E+00;  1.0000000E+02;  6.2941608E-04;  0.0000000E+00;  2.5519030E-06;  0.0000000E+00;
  6.0000002E-01;  9.9999998E-03; -1.4000000E+00;138;  0.0000000E+00;  0.0000000E+00;  0.0000000E+00;  1.0000000E+01;  4.0000001E-01;  0.0000000E+00;0;  0.0000000E+00;  0.0000000E+00;  0.0000000E+00;  0.0000000E+00;  0.0000000E+00;  0.0000000E+00;0;  9.7909232E-04;  1.0000000E+02;  0.0000000E+00;  0.0000000E+00;  1.0000000E+02;  0.0000000E+00;  1.0000000E+02;  9.7480579E-04;  0.0000000E+00;  4.2865208E-06;  0.0000000E+00;
  6.0000002E-01;  9.9999998E-03; -1.2000000E+00;139;  0.0000000E+00;  0.0000000E+00;  0.0000000E+00;  1.0000000E+01;  4.0000001E-01;  0.0000000E+00;0;  0.0000000E+00;  0.0000000E+00;  0.0000000E+00;  0.0000000E+00;  0.0000000E+00;  0.0000000E+00;0;  1.3436707E-03;  1.0000000E+02;  0.0000000E+00;  0.0000000E+00;  1.0000000E+02;  0.0000000E+00;  1.0000000E+02;  1.3378737E-03;  0.0000000E+00;  5.7969010E-06;  0.0000000E+00;
  8.0000001E-01;  9.9999998E-03; -1.8000000E+00;146;  0.0000000E+00;  0.0000000E+00;  0.0000000E+00;  1.0000000E+01;  4.0000001E-01;  0.0000000E+00;0;  0.0000000E+00;  0.0000000E+00;  0.0000000E+00;  0.0000000E+00;  0.0000000E+00;  0.0000000E+00;0;  5.9516716E-04;  1.0000000E+02;  0.0000000E+00;  0.0000000E+00;  1.0000000E+02;  0.0000000E+00;  1.0000000E+02;  6.0783199E-04;  0.0000000E+00; -1.2664847E-05;  0.0000000E+00;
  8.0000001E-01;  9.9999998E-03; -1.6000000E+00;147;  0.0000000E+00;  0.0000000E+00;  0.0000000E+00;  1.0000000E+01;  4.0000001E-01;  0.0000000E+00;0;  0.0000000E+00;  0.0000000E+00;  0.0000000E+00;  0.0000000E+00;  0.0000000E+00;  0.0000000E+00;0;  1.0347374E-03;  1.0000000E+02;  0.0000000E+00;  0.0000000E+00;  1.0000000E+02;  0.0000000E+00;  1.0000000E+02;  1.0500264E-03;  0.0000000E+00; -1.5288966E-05;  0.0000000E+00;
  8.0000001E-01;  9.9999998E-03; -1.4000000E+00;148;  0.0000000E+00;  0.0000000E+00;  0.0000000E+00;  1.0000000E+01;  4.0000001E-01;  0.0000000E+00;0;  0.0000000E+00;  0.0000000E+00;  0.0000000E+00;  0.0000000E+00;  0.0000000E+00;  0.0000000E+00;0;  1.6161657E-03;  1.0000000E+02;  0.0000000E+00;  0.0000000E+00;  1.0000000E+02;  0.0000000E+00;  1.0000000E+02;  1.6317744E-03;  0.0000000E+00; -1.5608626E-05;  0.0000000E+00;
  8.0000001E-01;  9.9999998E-03; -1.2000000E+00;149;  0.0000000E+00;  0.0000000E+00;  0.0000000E+00;  1.0000000E+01;  4.0000001E-01;  0.0000000E+00;0;  0.0000000E+00;  0.0000000E+00;  0.0000000E+00;  0.0000000E+00;  0.0000000E+00;  0.0000000E+00;0;  2.2312305E-03;  1.0000000E+02;  0.0000000E+00;  0.0000000E+00;  1.0000000E+02;  0.0000000E+00;  1.0000000E+02;  2.2439288E-03;  0.0000000E+00; -1.2698272E-05;  0.0000000E+00;
  1.0000000E+00;  9.9999998E-03; -1.8000000E+00;156;  0.0000000E+00;  0.0000000E+00;  0.0000000E+00;  1.0000000E+01;  4.0000001E-01;  0.0000000E+00;0;  0.0000000E+00;  0.0000000E+00;  0.0000000E+00;  0.0000000E+00;  0.0000000E+00;  0.0000000E+00;0;  8.3382608E-04;  1.0000000E+02;  0.0000000E+00;  0.0000000E+00;  1.0000000E+02;  0.0000000E+00;  1.0000000E+02;  8.6637220E-04;  0.0000000E+00; -3.2546104E-05;  0.0000000E+00;
  1.0000000E+00;  9.9999998E-03; -1.6000000E+00;157;  0.0000000E+00;  0.0000000E+00;  0.0000000E+00;  1.0000000E+01;  4.0000001E-01;  0.0000000E+00;0;  0.0000000E+00;  0.0000000E+00;  0.0000000E+00;  0.0000000E+00;  0.0000000E+00;  0.0000000E+00;0;  1.4542907E-03;  1.0000000E+02;  0.0000000E+00;  0.0000000E+00;  1.0000000E+02;  0.0000000E+00;  1.0000000E+02;  1.4929917E-03;  0.0000000E+00; -3.8700997E-05;  0.0000000E+00;
  1.0000000E+00;  9.9999998E-03; -1.4000000E+00;158;  0.0000000E+00;  0.0000000E+00;  0.0000000E+00;  1.0000000E+01;  4.0000001E-01;  0.0000000E+00;0;  0.0000000E+00;  0.0000000E+00;  0.0000000E+00;  0.0000000E+00;  0.0000000E+00;  0.0000000E+00;0;  2.3036858E-03;  1.0000000E+02;  0.0000000E+00;  0.0000000E+00;  1.0000000E+02;  0.0000000E+00;  1.0000000E+02;  2.3451501E-03;  0.0000000E+00; -4.1464424E-05;  0.0000000E+00;
  1.0000000E+00;  9.9999998E-03; -1.2000000E+00;159;  0.0000000E+00;  0.0000000E+00;  0.0000000E+00;  1.0000000E+01;  4.0000001E-01;  0.0000000E+00;0;  0.0000000E+00;  0.0000000E+00;  0.0000000E+00;  0.0000000E+00;  0.0000000E+00;  0.0000000E+00;0;  3.2137367E-03;  1.0000000E+02;  0.0000000E+00;  0.0000000E+00;  1.0000000E+02;  0.0000000E+00;  1.0000000E+02;  3.2505156E-03;  0.0000000E+00; -3.6778820E-05;  0.0000000E+00;
 -1.0000000E+00;  9.9999998E-03;  0.0000000E+00;10;  0.0000000E+00;  0.0000000E+00;  0.0000000E+00;  1.0001173E+01;  4.0000001E-01;  1.2621091E-01;0;  0.0000000E+00;  0.0000000E+00;  0.0000000E+00;  0.0000000E+00;  0.0000000E+00;  0.0000000E+00;0;  3.3831311E-05;  1.0000000E+02;  0.0000000E+00;  0.0000000E+00;  1.0000000E+02;  0.0000000E+00;  1.0000000E+02;  3.3459750E-05;  0.0000000E+00;  3.7155988E-07;  0.0000000E+00;
 -1.0000000E+00;  9.9999998E-03;  2.0000000E-01;11;  0.0000000E+00;  0.0000000E+00;  0.0000000E+00;  1.0001162E+01;  4.0000001E-01;  1.2492829E-01;0;  0.0000000E+00;  0.0000000E+00;  0.0000000E+00;  0.0000000E+00;  0.0000000E+00;  0.0000000E+00;0;  3.1842326E-05;  1.0000000E+02;  0.0000000E+00;  0.0000000E+00;  1.0000000E+02;  0.0000000E+00;  1.0000000E+02;  3.1463973E-05;  0.0000000E+00;  3.7835380E-07;  0.0000000E+00;
 -1.0000000E+00;  9.9999998E-03;  4.0000001E-01;12;  0.0000000E+00;  0.0000000E+00;  0.0000000E+00;  1.0001134E+01;  4.0000001E-01;  1.2197823E-01;0;  0.0000000E+00;  0.0000000E+00;  0.0000000E+00;  0.0000000E+00;  0.0000000E+00;  0.0000000E+00;0;  2.6495783E-05;  1.0000000E+02;  0.0000000E+00;  0.0000000E+00;  1.0000000E+02;  0.0000000E+00;  1.0000000E+02;  2.6125919E-05;  0.0000000E+00;  3.6986415E-07;  0.0000000E+00;
 -1.0000000E+00;  9.9999998E-03;  6.0000002E-01;13;  0.0000000E+00;  0.0000000E+00;  0.0000000E+00;  1.0001233E+01;  4.0000001E-01;  1.3262407E-01;0;  0.0000000E+00;  0.0000000E+00;  0.0000000E+00;  0.0000000E+00;  0.0000000E+00;  0.0000000E+00;0;  1.9322253E-05;  1.0000000E+02;  0.0000000E+00;  0.0000000E+00;  1.0000000E+02;  0.0000000E+00;  1.0000000E+02;  1.9042176E-05;  0.0000000E+00;  2.8007736E-07;  0.0000000E+00;
 -1.0000000E+00;  9.9999998E-03;  8.0000001E-01;14;  0.0000000E+00;  0.0000000E+00;  0.0000000E+00;  1.0001022E+01;  4.0000001E-01;  1.1004976E-01;0;  0.0000000E+00;  0.0000000E+00;  0.0000000E+00;  0.0000000E+00;  0.0000000E+00;  0.0000000E+00;0;  1.2119428E-05;  1.0000000E+02;  0.0000000E+00;  0.0000000E+00;  1.0000000E+02;  0.0000000E+00;  1.0000000E+02;  1.2034111E-05;  0.0000000E+00;  8.5317211E-08;  0.0000000E+00;
 -1.0000000E+00;  9.9999998E-03;  1.0000000E+00;15;  0.0000000E+00;  0.0000000E+00;  0.0000000E+00;  1.0000754E+01;  4.0000001E-01;  8.1190556E-02;0;  0.0000000E+00;  0.0000000E+00;  0.0000000E+00;  0.0000000E+00;  0.0000000E+00;  0.0000000E+00;0;  6.2949989E-06;  1.0000000E+02;  0.0000000E+00;  0.0000000E+00;  1.0000000E+02;  0.0000000E+00;  1.0000000E+02;  6.4529886E-06;  0.0000000E+00; -1.5798979E-07;  0.0000000E+00;
 -1.0000000E+00;  9.9999998E-03;  1.2000000E+00;16;  0.0000000E+00;  0.0000000E+00;  0.0000000E+00;  1.0000500E+01;  4.0000001E-01;  5.3742249E-02;0;  0.0000000E+00;  0.0000000E+00;  0.0000000E+00;  0.0000000E+00;  0.0000000E+00;  0.0000000E+00;0;  2.4507065E-06;  1.0000000E+02;  0.0000000E+00;  0.0000000E+00;  1.0000000E+02;  0.0000000E+00;  1.0000000E+02;  2.8173183E-06;  0.0000000E+00; -3.6661191E-07;  0.0000000E+00;
 -1.0000000E+00;  9.9999998E-03;  1.4000000E+00;17;  0.0000000E+00;  0.0000000E+00;  0.0000000E+00;  1.0000267E+01;  4.0000001E-01;  2.8730940E-02;0;  0.0000000E+00;  0.0000000E+00;  0.0000000E+00;  0.0000000E+00;  0.0000000E+00;  0.0000000E+00;0;  4.2332425E-07;  1.0000000E+02;  0.0000000E+00;  0.0000000E+00;  1.0000000E+02;  0.0000000E+00;  1.0000000E+02;  9.0420224E-07;  0.0000000E+00; -4.8087799E-07;  0.0000000E+00;
 -8.0000001E-01;  9.9999998E-03;  0.0000000E+00;31;  0.0000000E+00;  0.0000000E+00;  0.0000000E+00;  1.0002690E+01;  4.0000001E-01;  2.8948987E-01;0;  0.0000000E+00;  0.0000000E+00;  0.0000000E+00;  0.0000000E+00;  0.0000000E+00;  0.0000000E+00;0;  6.3084713E-05;  1.0000000E+02;  0.0000000E+00;  0.0000000E+00;  1.0000000E+02;  0.0000000E+00;  1.0000000E+02;  6.2860359E-05;  0.0000000E+00;  2.2435486E-07;  0.0000000E+00;
 -8.0000001E-01;  9.9999998E-03;  2.0000000E-01;32;  0.0000000E+00;  0.0000000E+00;  0.0000000E+00;  1.0002735E+01;  4.0000001E-01;  2.9423562E-01;0;  0.0000000E+00;  0.0000000E+00;  0.0000000E+00;  0.0000000E+00;  0.0000000E+00;  0.0000000E+00;0;  5.9467828E-05;  1.0000000E+02;  0.0000000E+00;  0.0000000E+00;  1.0000000E+02;  0.0000000E+00;  1.0000000E+02;  5.9256894E-05;  0.0000000E+00;  2.1093246E-07;  0.0000000E+00;
 -8.0000001E-01;  9.9999998E-03;  4.0000001E-01;33;  0.0000000E+00;  0.0000000E+00;  0.0000000E+00;  1.0002686E+01;  4.0000001E-01;  2.8897682E-01;0;  0.0000000E+00;  0.0000000E+00;  0.0000000E+00;  0.0000000E+00;  0.0000000E+00;  0.0000000E+00;0;  4.9762133E-05;  1.0000000E+02;  0.0000000E+00;  0.0000000E+00;  1.0000000E+02;  0.0000000E+00;  1.0000000E+02;  4.9566217E-05;  0.0000000E+00;  1.9591714E-07;  0.0000000E+00;
 -8.0000001E-01;  9.9999998E-03;  6.0000002E-01;34;  0.0000000E+00;  0.0000000E+00;  0.0000000E+00;  1.0002459E+01;  4.0000001E-01;  2.6447856E-01;0;  0.0000000E+00;  0.0000000E+00;  0.0000000E+00;  0.0000000E+00;  0.0000000E+00;  0.0000000E+00;0;  3.6811081E-05;  1.0000000E+02;  0.0000000E+00;  0.0000000E+00;  1.0000000E+02;  0.0000000E+00;  1.0000000E+02;  3.6622365E-05;  0.0000000E+00;  1.8871560E-07;  0.0000000E+00;
 -8.0000001E-01;  9.9999998E-03;  8.0000001E-01;35;  0.0000000E+00;  0.0000000E+00;  0.0000000E+00;  1.0002122E+01;  4.0000001E-01;  2.2830836E-01;0;  0.0000000E+00;  0.0000000E+00;  0.0000000E+00;  0.0000000E+00;  0.0000000E+00;  0.0000000E+00;0;  2.3870487E-05;  1.0000000E+02;  0.0000000E+00;  0.0000000E+00;  1.0000000E+02;  0.0000000E+00;  1.0000000E+02;  2.3728604E-05;  0.0000000E+00;  1.4188386E-07;  0.0000000E+00;
 -8.0000001E-01;  9.9999998E-03;  1.0000000E+00;36;  0.0000000E+00;  0.0000000E+00;  0.0000000E+00;  1.0001770E+01;  4.0000001E-01;  1.9047074E-01;0;  0.0000000E+00;  0.0000000E+00;  0.0000000E+00;  0.0000000E+00;  0.0000000E+00;  0.0000000E+00;0;  1.3340773E-05;  1.0000000E+02;  0.0000000E+00;  0.0000000E+00;  1.0000000E+02;  0.0000000E+00;  1.0000000E+02;  1.3309327E-05;  0.0000000E+00;  3.1445694E-08;  0.0000000E+00;
 -8.0000001E-01;  9.9999998E-03;  1.2000000E+00;37;  0.0000000E+00;  0.0000000E+00;  0.0000000E+00;  1.0001216E+01;  4.0000001E-01;  1.3082840E-01;0;  0.0000000E+00;  0.0000000E+00;  0.0000000E+00;  0.0000000E+00;  0.0000000E+00;  0.0000000E+00;0;  6.1794649E-06;  1.0000000E+02;  0.0000000E+00;  0.0000000E+00;  1.0000000E+02;  0.0000000E+00;  1.0000000E+02;  6.2998056E-06;  0.0000000E+00; -1.2034057E-07;  0.0000000E+00;
 -8.0000001E-01;  9.9999998E-03;  1.4000000E+00;38;  0.0000000E+00;  0.0000000E+00;  0.0000000E+00;  1.0000714E+01;  4.0000001E-01;  7.6829612E-02;0;  0.0000000E+00;  0.0000000E+00;  0.0000000E+00;  0.0000000E+00;  0.0000000E+00;  0.0000000E+00;0;  2.0948021E-06;  1.0000000E+02;  0.0000000E+00;  0.0000000E+00;  1.0000000E+02;  0.0000000E+00;  1.0000000E+02;  2.3740772E-06;  0.0000000E+00; -2.7927510E-07;  0.0000000E+00;
 -6.0000002E-01;  9.9999998E-03;  0.0000000E+00;52;  0.0000000E+00;  0.0000000E+00;  0.0000000E+00;  1.0004473E+01;  4.0000001E-01;  4.8124313E-01;0;  0.0000000E+00;  0.0000000E+00;  0.0000000E+00;  0.0000000E+00;  0.0000000E+00;  0.0000000E+00;0;  8.4975669E-05;  1.0000000E+02;  0.0000000E+00;  0.0000000E+00;  1.0000000E+02;  0.0000000E+00;  1.0000000E+02;  8.6039072E-05;  0.0000000E+00; -1.0634022E-06;  0.0000000E+00;
 -6.0000002E-01;  9.9999998E-03;  2.0000000E-01;53;  0.0000000E+00;  0.0000000E+00;  0.0000000E+00;  1.0004408E+01;  4.0000001E-01;  4.7431692E-01;0;  0.0000000E+00;  0.0000000E+00;  0.0000000E+00;  0.0000000E+00;  0.0000000E+00;  0.0000000E+00;0;  8.0128499E-05;  1.0000000E+02;  0.0000000E+00;  0.0000000E+00;  1.0000000E+02;  0.0000000E+00;  1.0000000E+02;  8.1130049E-05;  0.0000000E+00; -1.0015532E-06;  0.0000000E+00;
 -6.0000002E-01;  9.9999998E-03;  4.0000001E-01;54;  0.0000000E+00;  0.0000000E+00;  0.0000000E+00;  1.0004209E+01;  4.0000001E-01;  4.5276874E-01;0;  0.0000000E+00;  0.0000000E+00;  0.0000000E+00;  0.0000000E+00;  0.0000000E+00;  0.0000000E+00;0;  6.7375775E-05;  1.0000000E+02;  0.0000000E+00;  0.0000000E+00;  1.0000000E+02;  0.0000000E+00;  1.0000000E+02;  6.8135072E-05;  0.0000000E+00; -7.5929717E-07;  0.0000000E+00;
 -6.0000002E-01;  9.9999998E-03;  6.0000002E-01;55;  0.0000000E+00;  0.0000000E+00;  0.0000000E+00;  1.0003973E+01;  4.0000001E-01;  4.2750090E-01;0;  0.0000000E+00;  0.0000000E+00;  0.0000000E+00;  0.0000000E+00;  0.0000000E+00;  0.0000000E+00;0;  5.0723836E-05;  1.0000000E+02;  0.0000000E+00;  0.0000000E+00;  1.0000000E+02;  0.0000000E+00;  1.0000000E+02;  5.1035597E-05;  0.0000000E+00; -3.1175890E-07;  0.0000000E+00;
 -6.0000002E-01;  9.9999998E-03;  8.0000001E-01;56;  0.0000000E+00;  0.0000000E+00;  0.0000000E+00;  1.0003346E+01;  4.0000001E-01;  3.6003453E-01;0;  0.0000000E+00;  0.0000000E+00;  0.0000000E+00;  0.0000000E+00;  0.0000000E+00;  0.0000000E+00;0;  3.4368357E-05;  1.0000000E+02;  0.0000000E+00;  0.0000000E+00;  1.0000000E+02;  0.0000000E+00;  1.0000000E+02;  3.4162724E-05;  0.0000000E+00;  2.0563462E-07;  0.0000000E+00;
 -6.0000002E-01;  9.9999998E-03;  1.0000000E+00;57;  0.0000000E+00;  0.0000000E+00;  0.0000000E+00;  1.0002632E+01;  4.0000001E-01;  2.8320491E-01;0;  0.0000000E+00;  0.0000000E+00;  0.0000000E+00;  0.0000000E+00;  0.0000000E+00;  0.0000000E+00;0;  2.0995243E-05;  1.0000000E+02;  0.0000000E+00;  0.0000000E+00;  1.0000000E+02;  0.0000000E+00;  1.0000000E+02;  2.0362813E-05;  0.0000000E+00;  6.3243027E-07;  0.0000000E+00;
 -6.0000002E-01;  9.9999998E-03;  1.2000000E+00;58;  0.0000000E+00;  0.0000000E+00;  0.0000000E+00;  1.0001933E+01;  4.0000001E-01;  2.0804274E-01;0;  0.0000000E+00;  0.0000000E+00;  0.0000000E+00;  0.0000000E+00;  0.0000000E+00;  0.0000000E+00;0;  1.1506013E-05;  1.0000000E+02;  0.0000000E+00;  0.0000000E+00;  1.0000000E+02;  0.0000000E+00;  1.0000000E+02;  1.0628782E-05;  0.0000000E+00;  8.7723151E-07;  0.0000000E+00;
 -6.0000002E-01;  9.9999998E-03;  1.4000000E+00;59;  0.0000000E+00;  0.0000000E+00;  0.0000000E+00;  1.0001203E+01;  4.0000001E-01;  1.2941746E-01;0;  0.0000000E+00;  0.0000000E+00;  0.0000000E+00;  0.0000000E+00;  0.0000000E+00;  0.0000000E+00;0;  5.5620476E-06;  1.0000000E+02;  0.0000000E+00;  0.0000000E+00;  1.0000000E+02;  0.0000000E+00;  1.0000000E+02;  4.6819096E-06;  0.0000000E+00;  8.8013809E-07;  0.0000000E+00;
 -4.0000001E-01;  9.9999998E-03;  0.0000000E+00;73;  0.0000000E+00;  0.0000000E+00;  0.0000000E+00;  1.0005765E+01;  4.0000001E-01;  6.2028009E-01;0;  0.0000000E+00;  0.0000000E+00;  0.0000000E+00;  0.0000000E+00;  0.0000000E+00;  0.0000000E+00;0;  9.1713606E-05;  1.0000000E+02;  0.0000000E+00;  0.0000000E+00;  1.0000000E+02;  0.0000000E+00;  1.0000000E+02;  9.6136246E-05;  0.0000000E+00; -4.4226363E-06;  0.0000000E+00;
 -4.0000001E-01;  9.9999998E-03;  2.0000000E-01;74;  0.0000000E+00;  0.0000000E+00;  0.0000000E+00;  1.0005652E+01;  4.0000001E-01;  6.0822332E-01;0;  0.0000000E+00;  0.0000000E+00;  0.0000000E+00;  0.0000000E+00;  0.0000000E+00;  0.0000000E+00;0;  8.7169072E-05;  1.0000000E+02;  0.0000000E+00;  0.0000000E+00;  1.0000000E+02;  0.0000000E+00;  1.0000000E+02;  9.1185364E-05;  0.0000000E+00; -4.0162904E-06;  0.0000000E+00;
 -4.0000001E-01;  9.9999998E-03;  4.0000001E-01;75;  0.0000000E+00;  0.0000000E+00;  0.0000000E+00;  1.0005293E+01;  4.0000001E-01;  5.6948787E-01;0;  0.0000000E+00;  0.0000000E+00;  0.0000000E+00;  0.0000000E+00;  0.0000000E+00;  0.0000000E+00;0;  7.5750126E-05;  1.0000000E+02;  0.0000000E+00;  0.0000000E+00;  1.0000000E+02;  0.0000000E+00;  1.0000000E+02;  7.8677200E-05;  0.0000000E+00; -2.9270768E-06;  0.0000000E+00;
 -4.0000001E-01;  9.9999998E-03;  6.0000002E-01;76;  0.0000000E+00;  0.0000000E+00;  0.0000000E+00;  1.0004739E+01;  4.0000001E-01;  5.0984555E-01;0;  0.0000000E+00;  0.0000000E+00;  0.0000000E+00;  0.0000000E+00;  0.0000000E+00;  0.0000000E+00;0;  6.1627929E-05;  1.0000000E+02;  0.0000000E+00;  0.0000000E+00;  1.0000000E+02;  0.0000000E+00;  1.0000000E+02;  6.3018299E-05;  0.0000000E+00; -1.3903689E-06;  0.0000000E+00;
 -4.0000001E-01;  9.9999998E-03;  8.0000001E-01;77;  0.0000000E+00;  0.0000000E+00;  0.0000000E+00;  1.0004043E+01;  4.0000001E-01;  4.3493998E-01;0;  0.0000000E+00;  0.0000000E+00;  0.0000000E+00;  0.0000000E+00;  0.0000000E+00;  0.0000000E+00;0;  4.7870759E-05;  1.0000000E+02;  0.0000000E+00;  0.0000000E+00;  1.0000000E+02;  0.0000000E+00;  1.0000000E+02;  4.7593021E-05;  0.0000000E+00;  2.7773712E-07;  0.0000000E+00;
 -4.0000001E-01;  9.9999998E-03;  1.0000000E+00;78;  0.0000000E+00;  0.0000000E+00;  0.0000000E+00;  1.0003046E+01;  4.0000001E-01;  3.2771206E-01;0;  0.0000000E+00;  0.0000000E+00;  0.0000000E+00;  0.0000000E+00;  0.0000000E+00;  0.0000000E+00;0;  3.5552941E-05;  1.0000000E+02;  0.0000000E+00;  0.0000000E+00;  1.0000000E+02;  0.0000000E+00;  1.0000000E+02;  3.3766726E-05;  0.0000000E+00;  1.7862154E-06;  0.0000000E+00;
 -4.0000001E-01;  9.9999998E-03;  1.2000000E+00;79;  0.0000000E+00;  0.0000000E+00;  0.0000000E+00;  1.0002102E+01;  4.0000001E-01;  2.2612774E-01;0;  0.0000000E+00;  0.0000000E+00;  0.0000000E+00;  0.0000000E+00;  0.0000000E+00;  0.0000000E+00;0;  2.4807250E-05;  1.0000000E+02;  0.0000000E+00;  0.0000000E+00;  1.0000000E+02;  0.0000000E+00;  1.0000000E+02;  2.1880762E-05;  0.0000000E+00;  2.9264879E-06;  0.0000000E+00;
 -4.0000001E-01;  9.9999998E-03;  1.4000000E+00;80;  0.0000000E+00;  0.0000000E+00;  0.0000000E+00;  1.0001434E+01;  4.0000001E-01;  1.5430044E-01;0;  0.0000000E+00;  0.0000000E+00;  0.0000000E+00;  0.0000000E+00;  0.0000000E+00;  0.0000000E+00;0;  1.5782131E-05;  1.0000000E+02;  0.0000000E+00;  0.0000000E+00;  1.0000000E+02;  0.0000000E+00;  1.0000000E+02;  1.2309817E-05;  0.0000000E+00;  3.4723130E-06;  0.0000000E+00;
 -2.0000000E-01;  9.9999998E-03;  0.0000000E+00;94;  0.0000000E+00;  0.0000000E+00;  0.0000000E+00;  1.0005539E+01;  4.0000001E-01;  5.9590948E-01;0;  0.0000000E+00;  0.0000000E+00;  0.0000000E+00;  0.0000000E+00;  0.0000000E+00;  0.0000000E+00;0;  1.0501387E-04;  1.0000000E+02;  0.0000000E+00;  0.0000000E+00;  1.0000000E+02;  0.0000000E+00;  1.0000000E+02;  1.1508464E-04;  0.0000000E+00; -1.0070771E-05;  0.0000000E+00;
 -2.0000000E-01;  9.9999998E-03;  2.0000000E-01;95;  0.0000000E+00;  0.0000000E+00;  0.0000000E+00;  1.0005370E+01;  4.0000001E-01;  5.7782441E-01;0;  0.0000000E+00;  0.0000000E+00;  0.0000000E+00;  0.0000000E+00;  0.0000000E+00;  0.0000000E+00;0;  1.0279702E-04;  1.0000000E+02;  0.0000000E+00;  0.0000000E+00;  1.0000000E+02;  0.0000000E+00;  1.0000000E+02;  1.1183990E-04;  0.0000000E+00; -9.0428784E-06;  0.0000000E+00;
 -2.0000000E-01;  9.9999998E-03;  4.0000001E-01;96;  0.0000000E+00;  0.0000000E+00;  0.0000000E+00;  1.0004907E+01;  4.0000001E-01;  5.2793014E-01;0;  0.0000000E+00;  0.0000000E+00;  0.0000000E+00;  0.0000000E+00;  0.0000000E+00;  0.0000000E+00;0;  9.7002885E-05;  1.0000000E+02;  0.0000000E+00;  0.0000000E+00;  1.0000000E+02;  0.0000000E+00;  1.0000000E+02;  1.0340568E-04;  0.0000000E+00; -6.4027981E-06;  0.0000000E+00;
 -2.0000000E-01;  9.9999998E-03;  6.0000002E-01;97;  0.0000000E+00;  0.0000000E+00;  0.0000000E+00;  1.0004303E+01;  4.0000001E-01;  4.6302912E-01;0;  0.0000000E+00;  0.0000000E+00;  0.0000000E+00;  0.0000000E+00;  0.0000000E+00;  0.0000000E+00;0;  9.0118265E-05;  1.0000000E+02;  0.0000000E+00;  0.0000000E+00;  1.0000000E+02;  0.0000000E+00;  1.0000000E+02;  9.3181938E-05;  0.0000000E+00; -3.0636756E-06;  0.0000000E+00;
 -2.0000000E-01;  9.9999998E-03;  8.0000001E-01;98;  0.0000000E+00;  0.0000000E+00;  0.0000000E+00;  1.0003343E+01;  4.0000001E-01;  3.5964921E-01;0;  0.0000000E+00;  0.0000000E+00;  0.0000000E+00;  0.0000000E+00;  0.0000000E+00;  0.0000000E+00;0;  8.3321633E-05;  1.0000000E+02;  0.0000000E+00;  0.0000000E+00;  1.0000000E+02;  0.0000000E+00;  1.0000000E+02;  8.2955987E-05;  0.0000000E+00;  3.6564828E-07;  0.0000000E+00;
 -2.0000000E-01;  9.9999998E-03;  1.0000000E+00;99;  0.0000000E+00;  0.0000000E+00;  0.0000000E+00;  1.0002348E+01;  4.0000001E-01;  2.5267792E-01;0;  0.0000000E+00;  0.0000000E+00;  0.0000000E+00;  0.0000000E+00;  0.0000000E+00;  0.0000000E+00;0;  7.4508294E-05;  1.0000000E+02;  0.0000000E+00;  0.0000000E+00;  1.0000000E+02;  0.0000000E+00;  1.0000000E+02;  7.0975781E-05;  0.0000000E+00;  3.5325136E-06;  0.0000000E+00;
 -2.0000000E-01;  9.9999998E-03;  1.2000000E+00;100;  0.0000000E+00;  0.0000000E+00;  0.0000000E+00;  1.0001451E+01;  4.0000001E-01;  1.5609597E-01;0;  0.0000000E+00;  0.0000000E+00;  0.0000000E+00;  0.0000000E+00;  0.0000000E+00;  0.0000000E+00;0;  6.1430954E-05;  1.0000000E+02;  0.0000000E+00;  0.0000000E+00;  1.0000000E+02;  0.0000000E+00;  1.0000000E+02;  5.5368313E-05;  0.0000000E+00;  6.0626376E-06;  0.0000000E+00;
 -2.0000000E-01;  9.9999998E-03;  1.4000000E+00;101;  0.0000000E+00;  0.0000000E+00;  0.0000000E+00;  1.0000875E+01;  4.0000001E-01;  9.4144978E-02;0;  0.0000000E+00;  0.0000000E+00;  0.0000000E+00;  0.0000000E+00;  0.0000000E+00;  0.0000000E+00;0;  4.4750534E-05;  1.0000000E+02;  0.0000000E+00;  0.0000000E+00;  1.0000000E+02;  0.0000000E+00;  1.0000000E+02;  3.7284673E-05;  0.0000000E+00;  7.4658606E-06;  0.0000000E+00;
  0.0000000E+00;  9.9999998E-03;  1.2000000E+00;110;  0.0000000E+00;  0.0000000E+00;  0.0000000E+00;  1.0000000E+01;  4.0000001E-01;  0.0000000E+00;0;  0.0000000E+00;  0.0000000E+00;  0.0000000E+00;  0.0000000E+00;  0.0000000E+00;  0.0000000E+00;0;  1.4770300E-04;  1.0000000E+02;  0.0000000E+00;  0.0000000E+00;  1.0000000E+02;  0.0000000E+00;  1.0000000E+02;  1.3757637E-04;  0.0000000E+00;  1.0126635E-05;  0.0000000E+00;
  0.0000000E+00;  9.9999998E-03;  1.4000000E+00;111;  0.0000000E+00;  0.0000000E+00;  0.0000000E+00;  1.0000000E+01;  4.0000001E-01;  0.0000000E+00;0;  0.0000000E+00;  0.0000000E+00;  0.0000000E+00;  0.0000000E+00;  0.0000000E+00;  0.0000000E+00;0;  1.1173045E-04;  1.0000000E+02;  0.0000000E+00;  0.0000000E+00;  1.0000000E+02;  0.0000000E+00;  1.0000000E+02;  9.9546036E-05;  0.0000000E+00;  1.2184415E-05;  0.0000000E+00;
  2.0000000E-01;  9.9999998E-03;  1.2000000E+00;120;  0.0000000E+00;  0.0000000E+00;  0.0000000E+00;  1.0000000E+01;  4.0000001E-01;  0.0000000E+00;0;  0.0000000E+00;  0.0000000E+00;  0.0000000E+00;  0.0000000E+00;  0.0000000E+00;  0.0000000E+00;0;  3.3599796E-04;  1.0000000E+02;  0.0000000E+00;  0.0000000E+00;  1.0000000E+02;  0.0000000E+00;  1.0000000E+02;  3.2202946E-04;  0.0000000E+00;  1.3968495E-05;  0.0000000E+00;
  2.0000000E-01;  9.9999998E-03;  1.4000000E+00;121;  0.0000000E+00;  0.0000000E+00;  0.0000000E+00;  1.0000000E+01;  4.0000001E-01;  0.0000000E+00;0;  0.0000000E+00;  0.0000000E+00;  0.0000000E+00;  0.0000000E+00;  0.0000000E+00;  0.0000000E+00;0;  2.5093954E-04;  1.0000000E+02;  0.0000000E+00;  0.0000000E+00;  1.0000000E+02;  0.0000000E+00;  1.0000000E+02;  2.3522075E-04;  0.0000000E+00;  1.5718777E-05;  0.0000000E+00;
  4.0000001E-01;  9.9999998E-03;  1.2000000E+00;130;  0.0000000E+00;  0.0000000E+00;  0.0000000E+00;  1.0000000E+01;  4.0000001E-01;  0.0000000E+00;0;  0.0000000E+00;  0.0000000E+00;  0.0000000E+00;  0.0000000E+00;  0.0000000E+00;  0.0000000E+00;0;  7.0885144E-04;  1.0000000E+02;  0.0000000E+00;  0.0000000E+00;  1.0000000E+02;  0.0000000E+00;  1.0000000E+02;  6.9480593E-04;  0.0000000E+00;  1.4045509E-05;  0.0000000E+00;
  4.0000001E-01;  9.9999998E-03;  1.4000000E+00;131;  0.0000000E+00;  0.0000000E+00;  0.0000000E+00;  1.0000000E+01;  4.0000001E-01;  0.0000000E+00;0;  0.0000000E+00;  0.0000000E+00;  0.0000000E+00;  0.0000000E+00;  0.0000000E+00;  0.0000000E+00;0;  5.2047160E-04;  1.0000000E+02;  0.0000000E+00;  0.0000000E+00;  1.0000000E+02;  0.0000000E+00;  1.0000000E+02;  5.0607487E-04;  0.0000000E+00;  1.4396732E-05;  0.0000000E+00;
  6.0000002E-01;  9.9999998E-03;  1.2000000E+00;140;  0.0000000E+00;  0.0000000E+00;  0.0000000E+00;  1.0000000E+01;  4.0000001E-01;  0.0000000E+00;0;  0.0000000E+00;  0.0000000E+00;  0.0000000E+00;  0.0000000E+00;  0.0000000E+00;  0.0000000E+00;0;  1.3436726E-03;  1.0000000E+02;  0.0000000E+00;  0.0000000E+00;  1.0000000E+02;  0.0000000E+00;  1.0000000E+02;  1.3378693E-03;  0.0000000E+00;  5.8032510E-06;  0.0000000E+00;
  6.0000002E-01;  9.9999998E-03;  1.4000000E+00;141;  0.0000000E+00;  0.0000000E+00;  0.0000000E+00;  1.0000000E+01;  4.0000001E-01;  0.0000000E+00;0;  0.0000000E+00;  0.0000000E+00;  0.0000000E+00;  0.0000000E+00;  0.0000000E+00;  0.0000000E+00;0;  9.7909442E-04;  1.0000000E+02;  0.0000000E+00;  0.0000000E+00;  1.0000000E+02;  0.0000000E+00;  1.0000000E+02;  9.7480271E-04;  0.0000000E+00;  4.2916918E-06;  0.0000000E+00;
  8.0000001E-01;  9.9999998E-03;  1.2000000E+00;150;  0.0000000E+00;  0.0000000E+00;  0.0000000E+00;  1.0000000E+01;  4.0000001E-01;  0.0000000E+00;0;  0.0000000E+00;  0.0000000E+00;  0.0000000E+00;  0.0000000E+00;  0.0000000E+00;  0.0000000E+00;0;  2.2312331E-03;  1.0000000E+02;  0.0000000E+00;  0.0000000E+00;  1.0000000E+02;  0.0000000E+00;  1.0000000E+02;  2.2439256E-03;  0.0000000E+00; -1.2692423E-05;  0.0000000E+00;
  8.0000001E-01;  9.9999998E-03;  1.4000000E+00;151;  0.0000000E+00;  0.0000000E+00;  0.0000000E+00;  1.0000000E+01;  4.0000001E-01;  0.0000000E+00;0;  0.0000000E+00;  0.0000000E+00;  0.0000000E+00;  0.0000000E+00;  0.0000000E+00;  0.0000000E+00;0;  1.6161683E-03;  1.0000000E+02;  0.0000000E+00;  0.0000000E+00;  1.0000000E+02;  0.0000000E+00;  1.0000000E+02;  1.6317723E-03;  0.0000000E+00; -1.5603924E-05;  0.0000000E+00;
  1.0000000E+00;  9.9999998E-03;  1.2000000E+00;160;  0.0000000E+00;  0.0000000E+00;  0.0000000E+00;  1.0000000E+01;  4.0000001E-01;  0.0000000E+00;0;  0.0000000E+00;  0.0000000E+00;  0.0000000E+00;  0.0000000E+00;  0.0000000E+00;  0.0000000E+00;0;  3.2137418E-03;  1.0000000E+02;  0.0000000E+00;  0.0000000E+00;  1.0000000E+02;  0.0000000E+00;  1.0000000E+02;  3.2505163E-03;  0.0000000E+00; -3.6774505E-05;  0.0000000E+00;
  1.0000000E+00;  9.9999998E-03;  1.4000000E+00;161;  0.0000000E+00;  0.0000000E+00;  0.0000000E+00;  1.0000000E+01;  4.0000001E-01;  0.0000000E+00;0;  0.0000000E+00;  0.0000000E+00;  0.0000000E+00;  0.0000000E+00;  0.0000000E+00;  0.0000000E+00;0;  2.3036886E-03;  1.0000000E+02;  0.0000000E+00;  0.0000000E+00;  1.0000000E+02;  0.0000000E+00;  1.0000000E+02;  2.3451496E-03;  0.0000000E+00; -4.1461008E-05;  0.0000000E+00;
 -1.0000000E+00;  9.9999998E-03;  1.6000000E+00;18;  0.0000000E+00;  0.0000000E+00;  0.0000000E+00;  1.0000038E+01;  4.0000001E-01;  4.1044201E-03;0;  0.0000000E+00;  0.0000000E+00;  0.0000000E+00;  0.0000000E+00;  0.0000000E+00;  0.0000000E+00;0; -3.3499953E-07;  1.0000000E+02;  0.0000000E+00;  0.0000000E+00;  1.0000000E+02;  0.0000000E+00;  1.0000000E+02;  1.3042988E-07;  0.0000000E+00; -4.6542942E-07;  0.0000000E+00;
 -1.0000000E+00;  9.9999998E-03;  1.8000000E+00;19;  0.0000000E+00;  0.0000000E+00;  0.0000000E+00;  1.0000000E+01;  4.0000001E-01;  0.0000000E+00;0;  0.0000000E+00;  0.0000000E+00;  0.0000000E+00;  0.0000000E+00;  0.0000000E+00;  0.0000000E+00;0; -3.9515322E-07;  1.0000000E+02;  0.0000000E+00;  0.0000000E+00;  1.0000000E+02;  0.0000000E+00;  1.0000000E+02; -7.0784822E-08;  0.0000000E+00; -3.2436841E-07;  0.0000000E+00;
 -1.0000000E+00;  9.9999998E-03;  2.0000000E+00;20;  0.0000000E+00;  0.0000000E+00;  0.0000000E+00;  1.0000000E+01;  4.0000001E-01;  0.0000000E+00;0;  0.0000000E+00;  0.0000000E+00;  0.0000000E+00;  0.0000000E+00;  0.0000000E+00;  0.0000000E+00;0; -1.9051527E-07;  1.0000000E+02;  0.0000000E+00;  0.0000000E+00;  1.0000000E+02;  0.0000000E+00;  1.0000000E+02; -5.5343548E-08;  0.0000000E+00; -1.3517172E-07;  0.0000000E+00;
 -8.0000001E-01;  9.9999998E-03;  1.6000000E+00;39;  0.0000000E+00;  0.0000000E+00;  0.0000000E+00;  1.0000361E+01;  4.0000001E-01;  3.8863726E-02;0;  0.0000000E+00;  0.0000000E+00;  0.0000000E+00;  0.0000000E+00;  0.0000000E+00;  0.0000000E+00;0;  1.9629621E-07;  1.0000000E+02;  0.0000000E+00;  0.0000000E+00;  1.0000000E+02;  0.0000000E+00;  1.0000000E+02;  5.9417260E-07;  0.0000000E+00; -3.9787639E-07;  0.0000000E+00;
 -8.0000001E-01;  9.9999998E-03;  1.8000000E+00;40;  0.0000000E+00;  0.0000000E+00;  0.0000000E+00;  1.0000087E+01;  4.0000001E-01;  9.3632080E-03;0;  0.0000000E+00;  0.0000000E+00;  0.0000000E+00;  0.0000000E+00;  0.0000000E+00;  0.0000000E+00;0; -4.1609704E-07;  1.0000000E+02;  0.0000000E+00;  0.0000000E+00;  1.0000000E+02;  0.0000000E+00;  1.0000000E+02; -2.4192278E-08;  0.0000000E+00; -3.9190476E-07;  0.0000000E+00;
 -8.0000001E-01;  9.9999998E-03;  2.0000000E+00;41;  0.0000000E+00;  0.0000000E+00;  0.0000000E+00;  1.0000000E+01;  4.0000001E-01;  0.0000000E+00;0;  0.0000000E+00;  0.0000000E+00;  0.0000000E+00;  0.0000000E+00;  0.0000000E+00;  0.0000000E+00;0; -3.5822373E-07;  1.0000000E+02;  0.0000000E+00;  0.0000000E+00;  1.0000000E+02;  0.0000000E+00;  1.0000000E+02; -1.2082882E-07;  0.0000000E+00; -2.3739491E-07;  0.0000000E+00;
 -6.0000002E-01;  9.9999998E-03;  1.6000000E+00;60;  0.0000000E+00;  0.0000000E+00;  0.0000000E+00;  1.0000634E+01;  4.0000001E-01;  6.8235971E-02;0;  0.0000000E+00;  0.0000000E+00;  0.0000000E+00;  0.0000000E+00;  0.0000000E+00;  0.0000000E+00;0;  2.2054469E-06;  1.0000000E+02;  0.0000000E+00;  0.0000000E+00;  1.0000000E+02;  0.0000000E+00;  1.0000000E+02;  1.5899531E-06;  0.0000000E+00;  6.1549395E-07;  0.0000000E+00;
 -6.0000002E-01;  9.9999998E-03;  1.8000000E+00;61;  0.0000000E+00;  0.0000000E+00;  0.0000000E+00;  1.0000278E+01;  4.0000001E-01;  3.0013565E-02;0;  0.0000000E+00;  0.0000000E+00;  0.0000000E+00;  0.0000000E+00;  0.0000000E+00;  0.0000000E+00;0;  4.5445915E-07;  1.0000000E+02;  0.0000000E+00;  0.0000000E+00;  1.0000000E+02;  0.0000000E+00;  1.0000000E+02;  2.5113883E-07;  0.0000000E+00;  2.0332033E-07;  0.0000000E+00;
 -6.0000002E-01;  9.9999998E-03;  2.0000000E+00;62;  0.0000000E+00;  0.0000000E+00;  0.0000000E+00;  1.0000000E+01;  4.0000001E-01;  0.0000000E+00;0;  0.0000000E+00;  0.0000000E+00;  0.0000000E+00;  0.0000000E+00;  0.0000000E+00;  0.0000000E+00;0; -1.6809669E-07;  1.0000000E+02;  0.0000000E+00;  0.0000000E+00;  1.0000000E+02;  0.0000000E+00;  1.0000000E+02; -9.3397972E-08;  0.0000000E+00; -7.4698718E-08;  0.0000000E+00;
 -4.0000001E-01;  9.9999998E-03;  1.6000000E+00;81;  0.0000000E+00;  0.0000000E+00;  0.0000000E+00;  1.0000803E+01;  4.0000001E-01;  8.6449288E-02;0;  0.0000000E+00;  0.0000000E+00;  0.0000000E+00;  0.0000000E+00;  0.0000000E+00;  0.0000000E+00;0;  8.6878990E-06;  1.0000000E+02;  0.0000000E+00;  0.0000000E+00;  1.0000000E+02;  0.0000000E+00;  1.0000000E+02;  5.5060882E-06;  0.0000000E+00;  3.1818106E-06;  0.0000000E+00;
 -4.0000001E-01;  9.9999998E-03;  1.8000000E+00;82;  0.0000000E+00;  0.0000000E+00;  0.0000000E+00;  1.0000381E+01;  4.0000001E-01;  4.0915910E-02;0;  0.0000000E+00;  0.0000000E+00;  0.0000000E+00;  0.0000000E+00;  0.0000000E+00;  0.0000000E+00;0;  3.7308932E-06;  1.0000000E+02;  0.0000000E+00;  0.0000000E+00;  1.0000000E+02;  0.0000000E+00;  1.0000000E+02;  1.6639514E-06;  0.0000000E+00;  2.0669418E-06;  0.0000000E+00;
 -4.0000001E-01;  9.9999998E-03;  2.0000000E+00;83;  0.0000000E+00;  0.0000000E+00;  0.0000000E+00;  1.0000092E+01;  4.0000001E-01;  9.8762540E-03;0;  0.0000000E+00;  0.0000000E+00;  0.0000000E+00;  0.0000000E+00;  0.0000000E+00;  0.0000000E+00;0;  1.0377266E-06;  1.0000000E+02;  0.0000000E+00;  0.0000000E+00;  1.0000000E+02;  0.0000000E+00;  1.0000000E+02;  2.4885361E-07;  0.0000000E+00;  7.8887297E-07;  0.0000000E+00;
 -2.0000000E-01;  9.9999998E-03;  1.6000000E+00;102;  0.0000000E+00;  0.0000000E+00;  0.0000000E+00;  1.0000431E+01;  4.0000001E-01;  4.6431173E-02;0;  0.0000000E+00;  0.0000000E+00;  0.0000000E+00;  0.0000000E+00;  0.0000000E+00;  0.0000000E+00;0;  2.7918553E-05;  1.0000000E+02;  0.0000000E+00;  0.0000000E+00;  1.0000000E+02;  0.0000000E+00;  1.0000000E+02;  2.0636884E-05;  0.0000000E+00;  7.2816692E-06;  0.0000000E+00;
 -2.0000000E-01;  9.9999998E-03;  1.8000000E+00;103;  0.0000000E+00;  0.0000000E+00;  0.0000000E+00;  1.0000424E+01;  4.0000001E-01;  4.5661595E-02;0;  0.0000000E+00;  0.0000000E+00;  0.0000000E+00;  0.0000000E+00;  0.0000000E+00;  0.0000000E+00;0;  1.4081516E-05;  1.0000000E+02;  0.0000000E+00;  0.0000000E+00;  1.0000000E+02;  0.0000000E+00;  1.0000000E+02;  8.7059543E-06;  0.0000000E+00;  5.3755621E-06;  0.0000000E+00;
 -2.0000000E-01;  9.9999998E-03;  2.0000000E+00;104;  0.0000000E+00;  0.0000000E+00;  0.0000000E+00;  1.0000140E+01;  4.0000001E-01;  1.5135024E-02;0;  0.0000000E+00;  0.0000000E+00;  0.0000000E+00;  0.0000000E+00;  0.0000000E+00;  0.0000000E+00;0;  4.9893174E-06;  1.0000000E+02;  0.0000000E+00;  0.0000000E+00;  1.0000000E+02;  0.0000000E+00;  1.0000000E+02;  2.3433636E-06;  0.0000000E+00;  2.6459538E-06;  0.0000000E+00;
  0.0000000E+00;  9.9999998E-03;  1.6000000E+00;112;  0.0000000E+00;  0.0000000E+00;  0.0000000E+00;  1.0000000E+01;  4.0000001E-01;  0.0000000E+00;0;  0.0000000E+00;  0.0000000E+00;  0.0000000E+00;  0.0000000E+00;  0.0000000E+00;  0.0000000E+00;0;  7.2784016E-05;  1.0000000E+02;  0.0000000E+00;  0.0000000E+00;  1.0000000E+02;  0.0000000E+00;  1.0000000E+02;  6.0959683E-05;  0.0000000E+00;  1.1824333E-05;  0.0000000E+00;
  0.0000000E+00;  9.9999998E-03;  1.8000000E+00;113;  0.0000000E+00;  0.0000000E+00;  0.0000000E+00;  1.0000000E+01;  4.0000001E-01;  0.0000000E+00;0;  0.0000000E+00;  0.0000000E+00;  0.0000000E+00;  0.0000000E+00;  0.0000000E+00;  0.0000000E+00;0;  3.9283481E-05;  1.0000000E+02;  0.0000000E+00;  0.0000000E+00;  1.0000000E+02;  0.0000000E+00;  1.0000000E+02;  3.0157862E-05;  0.0000000E+00;  9.1256188E-06;  0.0000000E+00;
  0.0000000E+00;  9.9999998E-03;  2.0000000E+00;114;  0.0000000E+00;  0.0000000E+00;  0.0000000E+00;  1.0000150E+01;  4.0000001E-01;  1.6161093E-02;0;  0.0000000E+00;  0.0000000E+00;  0.0000000E+00;  0.0000000E+00;  0.0000000E+00;  0.0000000E+00;0;  1.6029742E-05;  1.0000000E+02;  0.0000000E+00;  0.0000000E+00;  1.0000000E+02;  0.0000000E+00;  1.0000000E+02;  1.0957679E-05;  0.0000000E+00;  5.0720637E-06;  0.0000000E+00;
  2.0000000E-01;  9.9999998E-03;  1.6000000E+00;122;  0.0000000E+00;  0.0000000E+00;  0.0000000E+00;  1.0000000E+01;  4.0000001E-01;  0.0000000E+00;0;  0.0000000E+00;  0.0000000E+00;  0.0000000E+00;  0.0000000E+00;  0.0000000E+00;  0.0000000E+00;0;  1.6462129E-04;  1.0000000E+02;  0.0000000E+00;  0.0000000E+00;  1.0000000E+02;  0.0000000E+00;  1.0000000E+02;  1.5004115E-04;  0.0000000E+00;  1.4580147E-05;  0.0000000E+00;
  2.0000000E-01;  9.9999998E-03;  1.8000000E+00;123;  0.0000000E+00;  0.0000000E+00;  0.0000000E+00;  1.0000000E+01;  4.0000001E-01;  0.0000000E+00;0;  0.0000000E+00;  0.0000000E+00;  0.0000000E+00;  0.0000000E+00;  0.0000000E+00;  0.0000000E+00;0;  9.1826034E-05;  1.0000000E+02;  0.0000000E+00;  0.0000000E+00;  1.0000000E+02;  0.0000000E+00;  1.0000000E+02;  8.0577469E-05;  0.0000000E+00;  1.1248562E-05;  0.0000000E+00;
  2.0000000E-01;  9.9999998E-03;  2.0000000E+00;124;  0.0000000E+00;  0.0000000E+00;  0.0000000E+00;  1.0000000E+01;  4.0000001E-01;  0.0000000E+00;0;  0.0000000E+00;  0.0000000E+00;  0.0000000E+00;  0.0000000E+00;  0.0000000E+00;  0.0000000E+00;0;  4.0677798E-05;  1.0000000E+02;  0.0000000E+00;  0.0000000E+00;  1.0000000E+02;  0.0000000E+00;  1.0000000E+02;  3.3989556E-05;  0.0000000E+00;  6.6882440E-06;  0.0000000E+00;
  4.0000001E-01;  9.9999998E-03;  1.6000000E+00;132;  0.0000000E+00;  0.0000000E+00;  0.0000000E+00;  1.0000000E+01;  4.0000001E-01;  0.0000000E+00;0;  0.0000000E+00;  0.0000000E+00;  0.0000000E+00;  0.0000000E+00;  0.0000000E+00;  0.0000000E+00;0;  3.3844932E-04;  1.0000000E+02;  0.0000000E+00;  0.0000000E+00;  1.0000000E+02;  0.0000000E+00;  1.0000000E+02;  3.2605499E-04;  0.0000000E+00;  1.2394343E-05;  0.0000000E+00;
  4.0000001E-01;  9.9999998E-03;  1.8000000E+00;133;  0.0000000E+00;  0.0000000E+00;  0.0000000E+00;  1.0000000E+01;  4.0000001E-01;  0.0000000E+00;0;  0.0000000E+00;  0.0000000E+00;  0.0000000E+00;  0.0000000E+00;  0.0000000E+00;  0.0000000E+00;0;  1.9166627E-04;  1.0000000E+02;  0.0000000E+00;  0.0000000E+00;  1.0000000E+02;  0.0000000E+00;  1.0000000E+02;  1.8233871E-04;  0.0000000E+00;  9.3275557E-06;  0.0000000E+00;
  4.0000001E-01;  9.9999998E-03;  2.0000000E+00;134;  0.0000000E+00;  0.0000000E+00;  0.0000000E+00;  1.0000000E+01;  4.0000001E-01;  0.0000000E+00;0;  0.0000000E+00;  0.0000000E+00;  0.0000000E+00;  0.0000000E+00;  0.0000000E+00;  0.0000000E+00;0;  8.9634195E-05;  1.0000000E+02;  0.0000000E+00;  0.0000000E+00;  1.0000000E+02;  0.0000000E+00;  1.0000000E+02;  8.3777006E-05;  0.0000000E+00;  5.8571904E-06;  0.0000000E+00;
  6.0000002E-01;  9.9999998E-03;  1.6000000E+00;142;  0.0000000E+00;  0.0000000E+00;  0.0000000E+00;  1.0000000E+01;  4.0000001E-01;  0.0000000E+00;0;  0.0000000E+00;  0.0000000E+00;  0.0000000E+00;  0.0000000E+00;  0.0000000E+00;  0.0000000E+00;0;  6.3197024E-04;  1.0000000E+02;  0.0000000E+00;  0.0000000E+00;  1.0000000E+02;  0.0000000E+00;  1.0000000E+02;  6.2941457E-04;  0.0000000E+00;  2.5556603E-06;  0.0000000E+00;
  6.0000002E-01;  9.9999998E-03;  1.8000000E+00;143;  0.0000000E+00;  0.0000000E+00;  0.0000000E+00;  1.0000000E+01;  4.0000001E-01;  0.0000000E+00;0;  0.0000000E+00;  0.0000000E+00;  0.0000000E+00;  0.0000000E+00;  0.0000000E+00;  0.0000000E+00;0;  3.6090650E-04;  1.0000000E+02;  0.0000000E+00;  0.0000000E+00;  1.0000000E+02;  0.0000000E+00;  1.0000000E+02;  3.5936874E-04;  0.0000000E+00;  1.5377548E-06;  0.0000000E+00;
  6.0000002E-01;  9.9999998E-03;  2.0000000E+00;144;  0.0000000E+00;  0.0000000E+00;  0.0000000E+00;  1.0000000E+01;  4.0000001E-01;  0.0000000E+00;0;  0.0000000E+00;  0.0000000E+00;  0.0000000E+00;  0.0000000E+00;  0.0000000E+00;  0.0000000E+00;0;  1.7608046E-04;  1.0000000E+02;  0.0000000E+00;  0.0000000E+00;  1.0000000E+02;  0.0000000E+00;  1.0000000E+02;  1.7474439E-04;  0.0000000E+00;  1.3360738E-06;  0.0000000E+00;
  8.0000001E-01;  9.9999998E-03;  1.6000000E+00;152;  0.0000000E+00;  0.0000000E+00;  0.0000000E+00;  1.0000000E+01;  4.0000001E-01;  0.0000000E+00;0;  0.0000000E+00;  0.0000000E+00;  0.0000000E+00;  0.0000000E+00;  0.0000000E+00;  0.0000000E+00;0;  1.0347394E-03;  1.0000000E+02;  0.0000000E+00;  0.0000000E+00;  1.0000000E+02;  0.0000000E+00;  1.0000000E+02;  1.0500250E-03;  0.0000000E+00; -1.5285554E-05;  0.0000000E+00;
  8.0000001E-01;  9.9999998E-03;  1.8000000E+00;153;  0.0000000E+00;  0.0000000E+00;  0.0000000E+00;  1.0000000E+01;  4.0000001E-01;  0.0000000E+00;0;  0.0000000E+00;  0.0000000E+00;  0.0000000E+00;  0.0000000E+00;  0.0000000E+00;  0.0000000E+00;0;  5.9516862E-04;  1.0000000E+02;  0.0000000E+00;  0.0000000E+00;  1.0000000E+02;  0.0000000E+00;  1.0000000E+02;  6.0783135E-04;  0.0000000E+00; -1.2662702E-05;  0.0000000E+00;
  8.0000001E-01;  9.9999998E-03;  2.0000000E+00;154;  0.0000000E+00;  0.0000000E+00;  0.0000000E+00;  1.0000000E+01;  4.0000001E-01;  0.0000000E+00;0;  0.0000000E+00;  0.0000000E+00;  0.0000000E+00;  0.0000000E+00;  0.0000000E+00;  0.0000000E+00;0;  3.0359815E-04;  1.0000000E+02;  0.0000000E+00;  0.0000000E+00;  1.0000000E+02;  0.0000000E+00;  1.0000000E+02;  3.1159693E-04;  0.0000000E+00; -7.9987858E-06;  0.0000000E+00;
  1.0000000E+00;  9.9999998E-03;  1.6000000E+00;162;  0.0000000E+00;  0.0000000E+00;  0.0000000E+00;  1.0000000E+01;  4.0000001E-01;  0.0000000E+00;0;  0.0000000E+00;  0.0000000E+00;  0.0000000E+00;  0.0000000E+00;  0.0000000E+00;  0.0000000E+00;0;  1.4542929E-03;  1.0000000E+02;  0.0000000E+00;  0.0000000E+00;  1.0000000E+02;  0.0000000E+00;  1.0000000E+02;  1.4929915E-03;  0.0000000E+00; -3.8698530E-05;  0.0000000E+00;
  1.0000000E+00;  9.9999998E-03;  1.8000000E+00;163;  0.0000000E+00;  0.0000000E+00;  0.0000000E+00;  1.0000000E+01;  4.0000001E-01;  0.0000000E+00;0;  0.0000000E+00;  0.0000000E+00;  0.0000000E+00;  0.0000000E+00;  0.0000000E+00;  0.0000000E+00;0;  8.3382736E-04;  1.0000000E+02;  0.0000000E+00;  0.0000000E+00;  1.0000000E+02;  0.0000000E+00;  1.0000000E+02;  8.6637191E-04;  0.0000000E+00; -3.2544518E-05;  0.0000000E+00;
  1.0000000E+00;  9.9999998E-03;  2.0000000E+00;164;  0.0000000E+00;  0.0000000E+00;  0.0000000E+00;  1.0000000E+01;  4.0000001E-01;  0.0000000E+00;0;  0.0000000E+00;  0.0000000E+00;  0.0000000E+00;  0.0000000E+00;  0.0000000E+00;  0.0000000E+00;0;  4.4221315E-04;  1.0000000E+02;  0.0000000E+00;  0.0000000E+00;  1.0000000E+02;  0.0000000E+00;  1.0000000E+02;  4.6586370E-04;  0.0000000E+00; -2.3650553E-05;  0.0000000E+00;
 -5.0437683E-04;  9.9999998E-03; -1.0000808E+00;165; -1.1532308E-05;  0.0000000E+00; -2.7460768E-05;  9.9989729E+00;  3.9997500E-01; -1.1049827E-01;3; -3.7954811E-03;  0.0000000E+00; -3.4519201E-03;  0.0000000E+00;  0.0000000E+00;  0.0000000E+00;0;  1.7428990E-04;  9.9990334E+01;  0.0000000E+00; -1.4588014E-04;  1.0000000E+02;  0.0000000E+00;  9.9998260E+01;  1.6705293E-04;  0.0000000E+00;  7.2369721E-06;  0.0000000E+00;
 -5.0329452E-04;  9.9999998E-03; -8.0006510E-01;166;  2.3903294E-05;  0.0000000E+00; -3.5207115E-05;  9.9988575E+00;  3.9995140E-01; -1.2293975E-01;3; -4.2841192E-03;  0.0000000E+00; -5.3822794E-03;  0.0000000E+00;  0.0000000E+00;  0.0000000E+00;0;  1.8492108E-04;  9.9999588E+01;  0.0000000E+00; -1.0279114E-04;  1.0000000E+02;  0.0000000E+00;  1.0000000E+02;  1.8406365E-04;  0.0000000E+00;  8.5742158E-07;  0.0000000E+00;
 -4.7741103E-04;  9.9999998E-03; -6.0004044E-01;167;  7.9985752E-05;  0.0000000E+00; -2.2676884E-05;  9.9988050E+00;  3.9991727E-01; -1.2858330E-01;3; -7.1791722E-03;  0.0000000E+00; -1.4257760E-03;  0.0000000E+00;  0.0000000E+00;  0.0000000E+00;0;  1.8620610E-04;  1.0001308E+02;  0.0000000E+00; -4.2808908E-05;  1.0000000E+02;  0.0000000E+00;  9.9998749E+01;  1.9139287E-04;  0.0000000E+00; -5.1867610E-06;  0.0000000E+00;
 -4.3028337E-04;  9.9999998E-03; -4.0001172E-01;168;  1.4759536E-04;  0.0000000E+00;  4.1489416E-06;  9.9987965E+00;  3.9988574E-01; -1.2948114E-01;3; -8.9952629E-03;  0.0000000E+00;  1.3727148E-03;  0.0000000E+00;  0.0000000E+00;  0.0000000E+00;0;  1.8259915E-04;  1.0002742E+02;  0.0000000E+00; -8.8277802E-06;  1.0000000E+02;  0.0000000E+00;  1.0000549E+02;  1.9335914E-04;  0.0000000E+00; -1.0759987E-05;  0.0000000E+00;
 -3.9913325E-04;  9.9999998E-03; -2.0000461E-01;169;  1.8762524E-04;  0.0000000E+00;  3.6493620E-06;  9.9987936E+00;  3.9986184E-01; -1.2980179E-01;3; -9.0041105E-03;  0.0000000E+00;  1.4317720E-03;  0.0000000E+00;  0.0000000E+00;  0.0000000E+00;0;  1.7853170E-04;  1.0003781E+02;  0.0000000E+00; -3.4252574E-07;  1.0000000E+02;  0.0000000E+00;  1.0000515E+02;  1.9361121E-04;  0.0000000E+00; -1.5079509E-05;  0.0000000E+00;
  1.9935933E-01;  9.9999998E-03; -9.9991953E-01;176; -2.1647757E-05;  0.0000000E+00;  2.9589617E-05;  9.9980116E+00;  4.0017727E-01; -2.1394108E-01;3;  2.1832492E-03;  0.0000000E+00; -1.2761873E-02;  0.0000000E+00;  0.0000000E+00;  0.0000000E+00;0;  3.9783545E-04;  9.9871735E+01;  0.0000000E+00; -4.4561573E-04;  1.0000000E+02;  0.0000000E+00;  1.0000108E+02;  3.9145118E-04;  0.0000000E+00;  6.3842717E-06;  0.0000000E+00;
  1.9935085E-01;  9.9999998E-03; -7.9995304E-01;177; -2.8995214E-06;  0.0000000E+00;  1.0112466E-05;  9.9977503E+00;  4.0018466E-01; -2.4203046E-01;3;  3.6761002E-03;  0.0000000E+00; -1.2485941E-02;  0.0000000E+00;  0.0000000E+00;  0.0000000E+00;0;  4.3779766E-04;  9.9859352E+01;  0.0000000E+00; -4.2504119E-04;  1.0000000E+02;  0.0000000E+00;  9.9999870E+01;  4.3772996E-04;  0.0000000E+00;  6.7707333E-08;  0.0000000E+00;
  1.9935623E-01;  9.9999998E-03; -5.9997296E-01;178;  3.3641707E-05;  0.0000000E+00;  8.2756169E-06;  9.9976244E+00;  4.0017420E-01; -2.5562623E-01;3;  4.7157262E-03;  0.0000000E+00; -9.8704090E-03;  0.0000000E+00;  0.0000000E+00;  0.0000000E+00;0;  4.5190286E-04;  9.9860474E+01;  0.0000000E+00; -2.4586113E-04;  1.0000000E+02;  0.0000000E+00;  1.0000382E+02;  4.5947215E-04;  0.0000000E+00; -7.5693042E-06;  0.0000000E+00;
  1.9939218E-01;  9.9999998E-03; -3.9997983E-01;179;  9.7482342E-05;  0.0000000E+00;  1.5891783E-05;  9.9975882E+00;  4.0014914E-01; -2.5947410E-01;3;  5.3549567E-03;  0.0000000E+00; -5.5934773E-03;  0.0000000E+00;  0.0000000E+00;  0.0000000E+00;0;  4.5080864E-04;  9.9870705E+01;  0.0000000E+00; -8.4420848E-05;  1.0000000E+02;  0.0000000E+00;  1.0000535E+02;  4.6519231E-04;  0.0000000E+00; -1.4383654E-05;  0.0000000E+00;
  1.9942147E-01;  9.9999998E-03; -1.9999009E-01;180;  1.3998037E-04;  0.0000000E+00;  9.7470165E-06;  9.9975815E+00;  4.0012380E-01; -2.6024368E-01;3;  6.0039745E-03;  0.0000000E+00; -2.1430477E-03;  0.0000000E+00;  0.0000000E+00;  0.0000000E+00;0;  4.4495889E-04;  9.9882339E+01;  0.0000000E+00; -1.2733070E-05;  1.0000000E+02;  0.0000000E+00;  1.0000498E+02;  4.6421343E-04;  0.0000000E+00; -1.9254550E-05;  0.0000000E+00;
  3.9937586E-01;  9.9999998E-03; -9.9983275E-01;187;  2.4972789E-05;  0.0000000E+00;  1.0838860E-04;  9.9966898E+00;  4.0057799E-01; -3.5617986E-01;3; -2.8730968E-02;  0.0000000E+00; -1.1464246E-01;  0.0000000E+00;  0.0000000E+00;  0.0000000E+00;0;  8.5097487E-04;  9.9643570E+01;  0.0000000E+00;  8.6200234E-05;  1.0000000E+02;  0.0000000E+00;  1.0000108E+02;  8.5339387E-04;  0.0000000E+00; -2.4190085E-06;  0.0000000E+00;
  3.9926770E-01;  9.9999998E-03; -7.9985797E-01;188; -8.4867288E-06;  0.0000000E+00;  7.5100172E-05;  9.9962873E+00;  4.0065116E-01; -3.9946786E-01;3; -3.0131087E-02;  0.0000000E+00; -9.1267690E-02;  0.0000000E+00;  0.0000000E+00;  0.0000000E+00;0;  9.4396109E-04;  9.9599342E+01;  0.0000000E+00; -6.7075918E-04;  1.0000000E+02;  0.0000000E+00;  9.9999763E+01;  9.4790955E-04;  0.0000000E+00; -3.9484366E-06;  0.0000000E+00;
  3.9923155E-01;  9.9999998E-03; -5.9991121E-01;189;  1.1320931E-05;  0.0000000E+00;  4.4099270E-05;  9.9960785E+00;  4.0066653E-01; -4.2191347E-01;3; -3.0476015E-02;  0.0000000E+00; -6.1938651E-02;  0.0000000E+00;  0.0000000E+00;  0.0000000E+00;0;  9.8645932E-04;  9.9584511E+01;  0.0000000E+00; -6.8530830E-04;  1.0000000E+02;  0.0000000E+00;  1.0000581E+02;  9.9542853E-04;  0.0000000E+00; -8.9691930E-06;  0.0000000E+00;
  3.9924160E-01;  9.9999998E-03; -3.9994785E-01;190;  6.6145585E-05;  0.0000000E+00;  2.8024522E-05;  9.9960175E+00;  4.0064940E-01; -4.2851889E-01;3; -3.2718148E-02;  0.0000000E+00; -3.5037711E-02;  0.0000000E+00;  0.0000000E+00;  0.0000000E+00;0;  9.9826441E-04;  9.9590218E+01;  0.0000000E+00; -3.3642110E-04;  1.0000000E+02;  0.0000000E+00;  1.0000507E+02;  1.0122091E-03;  0.0000000E+00; -1.3944667E-05;  0.0000000E+00;
  3.9926249E-01;  9.9999998E-03; -1.9997406E-01;191;  1.1360046E-04;  0.0000000E+00;  1.6421163E-05;  9.9960117E+00;  4.0062481E-01; -4.2909607E-01;3; -3.4381546E-02;  0.0000000E+00; -1.4975115E-02;  0.0000000E+00;  0.0000000E+00;  0.0000000E+00;0;  9.9886197E-04;  9.9602043E+01;  0.0000000E+00; -7.2132440E-05;  1.0000000E+02;  0.0000000E+00;  1.0000491E+02;  1.0161900E-03;  0.0000000E+00; -1.7328097E-05;  0.0000000E+00;
  5.9948856E-01;  9.9999998E-03; -9.9977016E-01;198;  4.6596226E-05;  0.0000000E+00;  1.7532356E-04;  9.9951706E+00;  4.0124366E-01; -5.1957172E-01;3;  1.0686680E-02;  0.0000000E+00; -1.5224151E-01;  0.0000000E+00;  0.0000000E+00;  0.0000000E+00;0;  1.6128739E-03;  9.9275848E+01;  0.0000000E+00;  5.9927036E-03;  1.0000000E+02;  0.0000000E+00;  1.0000752E+02;  1.6394402E-03;  0.0000000E+00; -2.6566355E-05;  0.0000000E+00;
  5.9922338E-01;  9.9999998E-03; -7.9979897E-01;199; -5.2357245E-05;  0.0000000E+00;  1.2210509E-04;  9.9946680E+00;  4.0138176E-01; -5.7369649E-01;3; -1.2726140E-04;  0.0000000E+00; -1.1678623E-01;  0.0000000E+00;  0.0000000E+00;  0.0000000E+00;0;  1.7745404E-03;  9.9201180E+01;  0.0000000E+00;  1.3282620E-03;  1.0000000E+02;  0.0000000E+00;  1.0000571E+02;  1.7877589E-03;  0.0000000E+00; -1.3218531E-05;  0.0000000E+00;
  5.9916127E-01;  9.9999998E-03; -5.9987628E-01;200; -1.7713803E-05;  0.0000000E+00;  6.6168861E-05;  9.9944115E+00;  4.0142822E-01; -6.0127187E-01;3; -7.1808398E-03;  0.0000000E+00; -7.3728681E-02;  0.0000000E+00;  0.0000000E+00;  0.0000000E+00;0;  1.8571351E-03;  9.9173454E+01;  0.0000000E+00; -8.3793071E-04;  1.0000000E+02;  0.0000000E+00;  1.0000328E+02;  1.8645335E-03;  0.0000000E+00; -7.3984775E-06;  0.0000000E+00;
  5.9915704E-01;  9.9999998E-03; -3.9993149E-01;201;  5.0176099E-05;  0.0000000E+00;  3.2672237E-05;  9.9943199E+00;  4.0141752E-01; -6.1114770E-01;3; -1.2307866E-02;  0.0000000E+00; -3.9427012E-02;  0.0000000E+00;  0.0000000E+00;  0.0000000E+00;0;  1.8863794E-03;  9.9179184E+01;  0.0000000E+00; -7.7309168E-04;  1.0000000E+02;  0.0000000E+00;  1.0000173E+02;  1.8925588E-03;  0.0000000E+00; -6.1793057E-06;  0.0000000E+00;
  5.9917063E-01;  9.9999998E-03; -1.9996679E-01;202;  1.0715627E-04;  0.0000000E+00;  1.7033501E-05;  9.9942865E+00;  4.0138417E-01; -6.1473894E-01;3; -1.5761014E-02;  0.0000000E+00; -1.6287977E-02;  0.0000000E+00;  0.0000000E+00;  0.0000000E+00;0;  1.8971221E-03;  9.9195442E+01;  0.0000000E+00; -2.1253127E-04;  1.0000000E+02;  0.0000000E+00;  1.0000033E+02;  1.9032558E-03;  0.0000000E+00; -6.1336805E-06;  0.0000000E+00;
  8.0056387E-01;  9.9999998E-03; -9.9997222E-01;209;  6.7154010E-04;  0.0000000E+00; -2.0258065E-05;  9.9931154E+00;  4.0232754E-01; -7.4064875E-01;3;  1.2700403E-01;  0.0000000E+00; -1.2054329E-01;  0.0000000E+00;  0.0000000E+00;  0.0000000E+00;0;  2.9691698E-03;  9.8706192E+01;  0.0000000E+00;  2.1721674E-02;  1.0000000E+02;  0.0000000E+00;  1.0000304E+02;  2.9684908E-03;  0.0000000E+00;  6.7897508E-07;  0.0000000E+00;
  7.9935610E-01;  9.9999998E-03; -7.9990840E-01;210; -9.2577124E-05;  0.0000000E+00;  6.2212624E-05;  9.9931812E+00;  4.0239707E-01; -7.3359525E-01;3;  5.0261736E-02;  0.0000000E+00; -1.0591254E-01;  0.0000000E+00;  0.0000000E+00;  0.0000000E+00;0;  2.9287369E-03;  9.8672066E+01;  0.0000000E+00;  1.0009096E-02;  1.0000000E+02;  0.0000000E+00;  1.0000302E+02;  2.9391597E-03;  0.0000000E+00; -1.0423002E-05;  0.0000000E+00;
  7.9918629E-01;  9.9999998E-03; -5.9992921E-01;211; -6.1370833E-05;  0.0000000E+00;  3.6782862E-05;  9.9929199E+00;  4.0245602E-01; -7.6168221E-01;3;  1.1482937E-02;  0.0000000E+00; -7.0996664E-02;  0.0000000E+00;  0.0000000E+00;  0.0000000E+00;0;  3.0369277E-03;  9.8644875E+01;  0.0000000E+00;  8.1955222E-04;  1.0000000E+02;  0.0000000E+00;  9.9997978E+01;  3.0333446E-03;  0.0000000E+00;  3.5830390E-06;  0.0000000E+00;
  7.9913414E-01;  9.9999998E-03; -3.9996234E-01;212;  3.0263560E-05;  0.0000000E+00;  6.3935736E-06;  9.9928341E+00;  4.0243122E-01; -7.7091634E-01;3; -6.0753239E-04;  0.0000000E+00; -3.6866032E-02;  0.0000000E+00;  0.0000000E+00;  0.0000000E+00;0;  3.0737596E-03;  9.8659546E+01;  0.0000000E+00; -1.0984478E-03;  1.0000000E+02;  0.0000000E+00;  9.9994972E+01;  3.0626140E-03;  0.0000000E+00;  1.1145550E-05;  0.0000000E+00;
  7.9914445E-01;  9.9999998E-03; -1.9998063E-01;213;  1.0699847E-04;  0.0000000E+00;  3.9056390E-06;  9.9928226E+00;  4.0237850E-01; -7.7219886E-01;3; -6.0958480E-03;  0.0000000E+00; -1.4971710E-02;  0.0000000E+00;  0.0000000E+00;  0.0000000E+00;0;  3.0878668E-03;  9.8686035E+01;  0.0000000E+00; -4.1156585E-04;  1.0000000E+02;  0.0000000E+00;  9.9994164E+01;  3.0739566E-03;  0.0000000E+00;  1.3910343E-05;  0.0000000E+00;
  1.0064979E+00;  9.9999998E-03; -1.0003778E+00;220;  3.4857376E-03;  0.0000000E+00; -2.0687834E-04;  9.9896069E+00;  4.0454909E-01; -1.1180184E+00;3;  5.3860722E-03;  0.0000000E+00; -2.1566728E-02;  0.0000000E+00;  0.0000000E+00;  0.0000000E+00;0;  5.6705344E-03;  9.7595901E+01;  0.0000000E+00;  4.0470655E-03;  1.0000000E+02;  0.0000000E+00;  9.9966385E+01;  5.5809137E-03;  0.0000000E+00;  8.9620517E-05;  0.0000000E+00;
  1.0013852E+00;  9.9999998E-03; -8.0029410E-01;221;  8.6842850E-04;  0.0000000E+00; -2.7206753E-04;  9.9915295E+00;  4.0384355E-01; -9.1117907E-01;3;  7.9025224E-02;  0.0000000E+00; -2.1200633E-02;  0.0000000E+00;  0.0000000E+00;  0.0000000E+00;0;  4.6396749E-03;  9.7966949E+01;  0.0000000E+00;  1.9280642E-02;  1.0000000E+02;  0.0000000E+00;  9.9971428E+01;  4.5280927E-03;  0.0000000E+00;  1.1158199E-04;  0.0000000E+00;
  1.0011691E+00;  9.9999998E-03; -6.0011113E-01;222; -8.0173115E-05;  0.0000000E+00; -1.4035941E-05;  9.9919062E+00;  4.0381053E-01; -8.7065667E-01;3;  1.8034954E-02;  0.0000000E+00; -4.8613865E-02;  0.0000000E+00;  0.0000000E+00;  0.0000000E+00;0;  4.4322968E-03;  9.7979065E+01;  0.0000000E+00;  1.8112879E-03;  1.0000000E+02;  0.0000000E+00;  9.9982109E+01;  4.4044815E-03;  0.0000000E+00;  2.7815329E-05;  0.0000000E+00;
  1.0011889E+00;  9.9999998E-03; -4.0014073E-01;223;  1.9546802E-05;  0.0000000E+00; -3.9502309E-05;  9.9918489E+00;  4.0371302E-01; -8.7681198E-01;3;  3.3513804E-03;  0.0000000E+00; -2.8005809E-02;  0.0000000E+00;  0.0000000E+00;  0.0000000E+00;0;  4.4675339E-03;  9.8025856E+01;  0.0000000E+00; -2.1094575E-03;  1.0000000E+02;  0.0000000E+00;  9.9984329E+01;  4.4305925E-03;  0.0000000E+00;  3.6941208E-05;  0.0000000E+00;
  1.0005991E+00;  9.9999998E-03; -2.0007764E-01;224;  1.1492888E-04;  0.0000000E+00; -3.7747763E-05;  9.9918785E+00;  4.0359899E-01; -8.7367070E-01;3; -1.5053860E-03;  0.0000000E+00; -1.2159962E-02;  0.0000000E+00;  0.0000000E+00;  0.0000000E+00;0;  4.4663735E-03;  9.8078392E+01;  0.0000000E+00; -7.2845753E-04;  1.0000000E+02;  0.0000000E+00;  9.9986206E+01;  4.4274619E-03;  0.0000000E+00;  3.8911643E-05;  0.0000000E+00;
  1.2090708E+00;  9.9999998E-03; -1.0003026E+00;231;  4.3273009E-03;  0.0000000E+00; -1.6572214E-04;  9.9894381E+00;  4.0623605E-01; -1.1358551E+00;3; -1.7456835E-02;  0.0000000E+00;  1.2294501E-02;  0.0000000E+00;  0.0000000E+00;  0.0000000E+00;0;  7.2734812E-03;  9.6789513E+01;  0.0000000E+00; -1.0091653E-03;  1.0000000E+02;  0.0000000E+00;  9.9958138E+01;  7.1670888E-03;  0.0000000E+00;  1.0639240E-04;  0.0000000E+00;
  1.2061176E+00;  9.9999998E-03; -8.0024034E-01;232;  3.0902235E-03;  0.0000000E+00; -1.3903047E-04;  9.9904070E+00;  4.0568861E-01; -1.0316341E+00;3;  3.3187576E-02;  0.0000000E+00;  1.0186931E-02;  0.0000000E+00;  0.0000000E+00;  0.0000000E+00;0;  6.5884208E-03;  9.7069092E+01;  0.0000000E+00;  6.7298426E-03;  1.0000000E+02;  0.0000000E+00;  9.9957359E+01;  6.4903013E-03;  0.0000000E+00;  9.8119708E-05;  0.0000000E+00;
  1.2034425E+00;  9.9999998E-03; -6.0004646E-01;233;  1.1960919E-04;  0.0000000E+00;  8.2113249E-05;  9.9913988E+00;  4.0538979E-01; -9.2497563E-01;3;  2.0620709E-02;  0.0000000E+00; -2.7105153E-02;  0.0000000E+00;  0.0000000E+00;  0.0000000E+00;0;  5.9077423E-03;  9.7216820E+01;  0.0000000E+00;  1.4309762E-03;  1.0000000E+02;  0.0000000E+00;  9.9973495E+01;  5.8989250E-03;  0.0000000E+00;  8.8174393E-06;  0.0000000E+00;
  1.2050896E+00;  9.9999998E-03; -4.0022880E-01;234;  1.9432970E-04;  0.0000000E+00;  2.5910487E-05;  9.9913120E+00;  4.0531120E-01; -9.3433124E-01;3;  7.1180717E-04;  0.0000000E+00; -1.5561215E-02;  0.0000000E+00;  0.0000000E+00;  0.0000000E+00;0;  5.9747770E-03;  9.7256516E+01;  0.0000000E+00; -5.1196232E-03;  1.0000000E+02;  0.0000000E+00;  9.9967896E+01;  5.9305993E-03;  0.0000000E+00;  4.4177697E-05;  0.0000000E+00;
  1.2058246E+00;  9.9999998E-03; -2.0011747E-01;235;  3.7787589E-03;  0.0000000E+00; -3.2563188E-05;  9.9913263E+00;  4.0514833E-01; -9.3279159E-01;3; -2.1645115E-05;  0.0000000E+00; -8.6619928E-03;  0.0000000E+00;  0.0000000E+00;  0.0000000E+00;0;  6.0089016E-03;  9.7325638E+01;  0.0000000E+00; -1.5966566E-03;  1.0000000E+02;  0.0000000E+00;  9.9977982E+01;  5.9511820E-03;  0.0000000E+00;  5.7719702E-05;  0.0000000E+00;
  1.4115995E+00;  9.9999998E-03; -1.0002594E+00;242;  5.4252632E-03;  0.0000000E+00; -8.4031235E-05;  9.9899883E+00;  4.0779510E-01; -1.0760365E+00;3; -1.9077536E-02;  0.0000000E+00;  1.7446743E-02;  0.0000000E+00;  0.0000000E+00;  0.0000000E+00;0;  8.5768066E-03;  9.6069336E+01;  0.0000000E+00; -2.3924187E-03;  1.0000000E+02;  0.0000000E+00;  9.9949547E+01;  8.5104303E-03;  0.0000000E+00;  6.6376473E-05;  0.0000000E+00;
  1.4090476E+00;  9.9999998E-03; -8.0014104E-01;243;  4.4190804E-03;  0.0000000E+00; -8.7989392E-05;  9.9903898E+00;  4.0751204E-01; -1.0328707E+00;3;  1.3255519E-02;  0.0000000E+00;  9.6657081E-03;  0.0000000E+00;  0.0000000E+00;  0.0000000E+00;0;  8.2157413E-03;  9.6211975E+01;  0.0000000E+00;  2.3804344E-03;  1.0000000E+02;  0.0000000E+00;  9.9947784E+01;  8.1124892E-03;  0.0000000E+00;  1.0325228E-04;  0.0000000E+00;
  1.4075463E+00;  9.9999998E-03; -6.0008794E-01;244;  2.9590528E-03;  0.0000000E+00; -8.4299478E-05;  9.9907312E+00;  4.0739918E-01; -9.9616963E-01;3;  4.4481982E-03;  0.0000000E+00; -8.7982798E-03;  0.0000000E+00;  0.0000000E+00;  0.0000000E+00;0;  7.9164449E-03;  9.6270462E+01;  0.0000000E+00; -5.7895798E-03;  1.0000000E+02;  0.0000000E+00;  9.9948517E+01;  7.8141037E-03;  0.0000000E+00;  1.0234134E-04;  0.0000000E+00;
  1.4084097E+00;  9.9999998E-03; -4.0024370E-01;245;  4.6358500E-03;  0.0000000E+00; -1.6245851E-04;  9.9907570E+00;  4.0733409E-01; -9.9341118E-01;3;  7.3588296E-04;  0.0000000E+00; -7.8336196E-03;  0.0000000E+00;  0.0000000E+00;  0.0000000E+00;0;  7.9016443E-03;  9.6301727E+01;  0.0000000E+00; -6.8128831E-03;  1.0000000E+02;  0.0000000E+00;  9.9950172E+01;  7.7951350E-03;  0.0000000E+00;  1.0650961E-04;  0.0000000E+00;
  1.4074014E+00;  9.9999998E-03; -2.0023577E-01;246;  5.2135056E-03;  0.0000000E+00; -2.2166851E-04;  9.9909878E+00;  4.0719348E-01; -9.6862334E-01;3;  2.2300179E-03;  0.0000000E+00; -5.6269439E-03;  0.0000000E+00;  0.0000000E+00;  0.0000000E+00;0;  7.6995920E-03;  9.6354614E+01;  0.0000000E+00; -1.6022067E-03;  1.0000000E+02;  0.0000000E+00;  9.9966629E+01;  7.6127276E-03;  0.0000000E+00;  8.6864355E-05;  0.0000000E+00;
  1.6149529E+00;  9.9999998E-03; -1.0002959E+00;253;  6.7399042E-03;  0.0000000E+00; -8.3202904E-05;  9.9905205E+00;  4.0963033E-01; -1.0174450E+00;3; -1.1305299E-02;  0.0000000E+00;  8.5249962E-03;  0.0000000E+00;  0.0000000E+00;  0.0000000E+00;0;  9.9752126E-03;  9.5234421E+01;  0.0000000E+00; -2.7435452E-03;  1.0000000E+02;  0.0000000E+00;  9.9935059E+01;  9.8818596E-03;  0.0000000E+00;  9.3353105E-05;  0.0000000E+00;
  1.6126217E+00;  9.9999998E-03; -8.0007541E-01;254;  6.0145715E-03;  0.0000000E+00; -2.8004943E-05;  9.9905033E+00;  4.0973014E-01; -1.0193232E+00;3;  4.5584883E-03;  0.0000000E+00;  3.3622849E-04;  0.0000000E+00;  0.0000000E+00;  0.0000000E+00;0;  9.9813174E-03;  9.5187714E+01;  0.0000000E+00; -5.1542046E-04;  1.0000000E+02;  0.0000000E+00;  9.9933037E+01;  9.8875249E-03;  0.0000000E+00;  9.3792682E-05;  0.0000000E+00;
  1.6105676E+00;  9.9999998E-03; -5.9991127E-01;255;  5.2942825E-03;  0.0000000E+00; -4.3445678E-05;  9.9904623E+00;  4.0986004E-01; -1.0237576E+00;3;  3.9206254E-03;  0.0000000E+00; -6.7617041E-03;  0.0000000E+00;  0.0000000E+00;  0.0000000E+00;0;  1.0011719E-02;  9.5126221E+01;  0.0000000E+00; -4.2780098E-03;  1.0000000E+02;  0.0000000E+00;  9.9932076E+01;  9.8859807E-03;  0.0000000E+00;  1.2573757E-04;  0.0000000E+00;
  1.6093042E+00;  9.9999998E-03; -3.9997110E-01;256;  5.4553230E-03;  0.0000000E+00; -1.2615277E-04;  9.9904318E+00;  4.0996641E-01; -1.0270329E+00;3;  2.3860687E-03;  0.0000000E+00; -5.3694672E-03;  0.0000000E+00;  0.0000000E+00;  0.0000000E+00;0;  1.0004782E-02;  9.5075699E+01;  0.0000000E+00; -3.5178338E-03;  1.0000000E+02;  0.0000000E+00;  9.9932922E+01;  9.8774368E-03;  0.0000000E+00;  1.2734570E-04;  0.0000000E+00;
  1.6080190E+00;  9.9999998E-03; -2.0001215E-01;257;  5.2022245E-03;  0.0000000E+00; -1.8621031E-04;  9.9905243E+00;  4.0999562E-01; -1.0171286E+00;3;  2.1235924E-03;  0.0000000E+00; -3.4025966E-03;  0.0000000E+00;  0.0000000E+00;  0.0000000E+00;0;  9.8970188E-03;  9.5049721E+01;  0.0000000E+00; -8.5835980E-04;  1.0000000E+02;  0.0000000E+00;  9.9949432E+01;  9.8045534E-03;  0.0000000E+00;  9.2465758E-05;  0.0000000E+00;
  1.8197203E+00;  9.9999998E-03; -1.0004908E+00;264;  8.7579796E-03;  0.0000000E+00; -1.0805679E-04;  9.9908323E+00;  4.1198087E-01; -9.8101211E-01;3; -2.3234882E-03;  0.0000000E+00; -7.2286843E-04;  0.0000000E+00;  0.0000000E+00;  0.0000000E+00;0;  1.1767163E-02;  9.4190140E+01;  0.0000000E+00; -3.7312410E-03;  1.0000000E+02;  0.0000000E+00;  9.9899063E+01;  1.1630379E-02;  0.0000000E+00;  1.3678441E-04;  0.0000000E+00;
  1.8177550E+00;  9.9999998E-03; -8.0011356E-01;265;  8.0184797E-03;  0.0000000E+00; -1.4317868E-05;  9.9904919E+00;  4.1249630E-01; -1.0174735E+00;3;  1.6123990E-03;  0.0000000E+00; -4.2973100E-03;  0.0000000E+00;  0.0000000E+00;  0.0000000E+00;0;  1.2177567E-02;  9.3951141E+01;  0.0000000E+00; -2.6266500E-03;  1.0000000E+02;  0.0000000E+00;  9.9894058E+01;  1.2038384E-02;  0.0000000E+00;  1.3918354E-04;  0.0000000E+00;
  1.8147378E+00;  9.9999998E-03; -5.9976321E-01;266;  6.7009474E-03;  0.0000000E+00;  2.3683671E-05;  9.9901829E+00;  4.1295454E-01; -1.0505799E+00;3;  1.7214492E-03;  0.0000000E+00; -4.7513330E-03;  0.0000000E+00;  0.0000000E+00;  0.0000000E+00;0;  1.2533331E-02;  9.3739418E+01;  0.0000000E+00; -1.4303530E-03;  1.0000000E+02;  0.0000000E+00;  9.9890404E+01;  1.2370256E-02;  0.0000000E+00;  1.6307518E-04;  0.0000000E+00;
  1.8112687E+00;  9.9999998E-03; -3.9957076E-01;267;  5.6871348E-03;  0.0000000E+00;  3.0889496E-05;  9.9899588E+00;  4.1332236E-01; -1.0746413E+00;3;  1.1993555E-03;  0.0000000E+00; -3.3061299E-03;  0.0000000E+00;  0.0000000E+00;  0.0000000E+00;0;  1.2758732E-02;  9.3567307E+01;  0.0000000E+00; -6.7515206E-04;  1.0000000E+02;  0.0000000E+00;  9.9893211E+01;  1.2619431E-02;  0.0000000E+00;  1.3930055E-04;  0.0000000E+00;
  1.8091244E+00;  9.9999998E-03; -1.9973797E-01;268;  5.1638866E-03;  0.0000000E+00;  3.3747787E-05;  9.9898319E+00;  4.1358230E-01; -1.0882770E+00;3;  1.6960230E-03;  0.0000000E+00; -1.2949309E-03;  0.0000000E+00;  0.0000000E+00;  0.0000000E+00;0;  1.2872515E-02;  9.3446228E+01;  0.0000000E+00; -1.9026533E-04;  1.0000000E+02;  0.0000000E+00;  9.9896080E+01;  1.2772822E-02;  0.0000000E+00;  9.9693258E-05;  0.0000000E+00;
  2.0278597E+00;  9.9999998E-03; -1.0009950E+00;275;  1.2165084E-02;  0.0000000E+00; -1.9640772E-04;  9.9910078E+00;  4.1481546E-01; -9.5579946E-01;3; -4.3878476E-03;  0.0000000E+00; -3.0370925E-03;  0.0000000E+00;  0.0000000E+00;  0.0000000E+00;0;  1.3919130E-02;  9.2990356E+01;  0.0000000E+00; -1.0624818E-02;  1.0000000E+02;  0.0000000E+00;  9.9813431E+01;  1.3701353E-02;  0.0000000E+00;  2.1777629E-04;  0.0000000E+00;
  2.0284011E+00;  9.9999998E-03; -8.0037153E-01;276;  1.2189294E-02;  0.0000000E+00; -5.5924418E-05;  9.9904537E+00;  4.1565919E-01; -1.0146962E+00;3;  4.4973599E-04;  0.0000000E+00; -3.4314019E-03;  0.0000000E+00;  0.0000000E+00;  0.0000000E+00;0;  1.4812673E-02;  9.2608826E+01;  0.0000000E+00; -9.8447828E-03;  1.0000000E+02;  0.0000000E+00;  9.9804695E+01;  1.4550736E-02;  0.0000000E+00;  2.6193637E-04;  0.0000000E+00;
  2.0257099E+00;  9.9999998E-03; -5.9969866E-01;277;  1.0878904E-02;  0.0000000E+00;  8.0789388E-05;  9.9899035E+00;  4.1643143E-01; -1.0733041E+00;3; -1.9215239E-03;  0.0000000E+00; -2.4032183E-03;  0.0000000E+00;  0.0000000E+00;  0.0000000E+00;0;  1.5615285E-02;  9.2264473E+01;  0.0000000E+00; -2.6351260E-03;  1.0000000E+02;  0.0000000E+00;  9.9797661E+01;  1.5343650E-02;  0.0000000E+00;  2.7163533E-04;  0.0000000E+00;
  2.0164788E+00;  9.9999998E-03; -3.9920124E-01;278;  6.9234101E-03;  0.0000000E+00;  2.7709515E-04;  9.9894848E+00;  4.1707933E-01; -1.1183071E+00;3;  5.5242283E-04;  0.0000000E+00; -1.1416347E-03;  0.0000000E+00;  0.0000000E+00;  0.0000000E+00;0;  1.6106768E-02;  9.1977173E+01;  0.0000000E+00; -9.9578559E-05;  1.0000000E+02;  0.0000000E+00;  9.9789474E+01;  1.5905861E-02;  0.0000000E+00;  2.0090627E-04;  0.0000000E+00;
  2.0135996E+00;  9.9999998E-03; -1.9955108E-01;279;  5.6940448E-03;  0.0000000E+00;  1.8634181E-04;  9.9891644E+00;  4.1760442E-01; -1.1524912E+00;3;  9.4038267E-05;  0.0000000E+00; -2.3229633E-04;  0.0000000E+00;  0.0000000E+00;  0.0000000E+00;0;  1.6553750E-02;  9.1759880E+01;  0.0000000E+00; -5.8852533E-05;  1.0000000E+02;  0.0000000E+00;  9.9768372E+01;  1.6349304E-02;  0.0000000E+00;  2.0444657E-04;  0.0000000E+00;
  2.2384365E+00;  9.9999998E-03; -1.0020393E+00;286;  1.5816543E-02;  0.0000000E+00; -4.3150951E-04;  9.9912386E+00;  4.1788232E-01; -9.1845298E-01;3;  1.0247605E-03;  0.0000000E+00; -8.2026335E-04;  0.0000000E+00;  0.0000000E+00;  0.0000000E+00;0;  1.6234497E-02;  9.1807724E+01;  0.0000000E+00; -7.3206141E-03;  1.0000000E+02;  0.0000000E+00;  9.9625107E+01;  1.5822452E-02;  0.0000000E+00;  4.1204592E-04;  0.0000000E+00;
  2.2377667E+00;  9.9999998E-03; -8.0106372E-01;287;  1.6604867E-02;  0.0000000E+00; -1.4972918E-04;  9.9906282E+00;  4.1876748E-01; -9.8249573E-01;3;  1.1210379E-03;  0.0000000E+00; -9.0695219E-04;  0.0000000E+00;  0.0000000E+00;  0.0000000E+00;0;  1.7352819E-02;  9.1416328E+01;  0.0000000E+00; -2.7982313E-03;  1.0000000E+02;  0.0000000E+00;  9.9616142E+01;  1.6915232E-02;  0.0000000E+00;  4.3758703E-04;  0.0000000E+00;
  2.2353661E+00;  9.9999998E-03; -5.9994453E-01;288;  1.5402410E-02;  0.0000000E+00;  1.4414497E-04;  9.9899635E+00;  4.1973957E-01; -1.0523953E+00;3;  9.0171542E-04;  0.0000000E+00; -5.8696797E-04;  0.0000000E+00;  0.0000000E+00;  0.0000000E+00;0;  1.8577069E-02;  9.0988899E+01;  0.0000000E+00; -5.1308249E-04;  1.0000000E+02;  0.0000000E+00;  9.9606354E+01;  1.8109195E-02;  0.0000000E+00;  4.6787347E-04;  0.0000000E+00;
  2.2326472E+00;  9.9999998E-03; -3.9916402E-01;289;  1.1591646E-02;  0.0000000E+00;  3.8986091E-04;  9.9893265E+00;  4.2073488E-01; -1.1194792E+00;3; -3.8329000E-03;  0.0000000E+00; -1.8992998E-04;  0.0000000E+00;  0.0000000E+00;  0.0000000E+00;0;  1.9708335E-02;  9.0586510E+01;  0.0000000E+00; -1.2090156E-04;  1.0000000E+02;  0.0000000E+00;  9.9566917E+01;  1.9230239E-02;  0.0000000E+00;  4.7809564E-04;  0.0000000E+00;
  2.2310081E+00;  9.9999998E-03; -1.9952630E-01;290;  1.0049621E-02;  0.0000000E+00;  2.5584994E-04;  9.9888620E+00;  4.2146915E-01; -1.1683482E+00;3; -2.7704583E-03;  0.0000000E+00;  4.0986179E-05;  0.0000000E+00;  0.0000000E+00;  0.0000000E+00;0;  2.0533027E-02;  9.0299095E+01;  0.0000000E+00; -2.6622600E-05;  1.0000000E+02;  0.0000000E+00;  9.9524040E+01;  2.0016763E-02;  0.0000000E+00;  5.1626464E-04;  0.0000000E+00;
  2.4389243E+00;  9.9999998E-03; -1.0038396E+00;297;  1.5787197E-02;  0.0000000E+00; -9.0077339E-04;  9.9912043E+00;  4.2142612E-01; -9.0051872E-01;3;  1.2065623E-03;  0.0000000E+00;  3.0349361E-04;  0.0000000E+00;  0.0000000E+00;  0.0000000E+00;0;  1.9101391E-02;  9.0586029E+01;  0.0000000E+00;  1.0161196E-03;  1.0000000E+02;  0.0000000E+00;  9.9277336E+01;  1.8276144E-02;  0.0000000E+00;  8.2524650E-04;  0.0000000E+00;
  2.4406393E+00;  9.9999998E-03; -8.0248892E-01;298;  1.6572030E-02;  0.0000000E+00; -4.6730778E-04;  9.9907131E+00;  4.2218214E-01; -9.5056188E-01;3;  9.8048360E-04;  0.0000000E+00;  3.1165013E-04;  0.0000000E+00;  0.0000000E+00;  0.0000000E+00;0;  2.0192446E-02;  9.0266632E+01;  0.0000000E+00;  1.7850187E-04;  1.0000000E+02;  0.0000000E+00;  9.9262070E+01;  1.9329654E-02;  0.0000000E+00;  8.6279190E-04;  0.0000000E+00;
  2.4451735E+00;  9.9999998E-03; -6.0093325E-01;299;  1.8174639E-02;  0.0000000E+00;  6.6600523E-07;  9.9901571E+00;  4.2303807E-01; -1.0068061E+00;3; -6.5147324E-04;  0.0000000E+00;  6.7401008E-05;  0.0000000E+00;  0.0000000E+00;  0.0000000E+00;0;  2.1510746E-02;  8.9905594E+01;  0.0000000E+00;  3.3392196E-05;  1.0000000E+02;  0.0000000E+00;  9.9246193E+01;  2.0572437E-02;  0.0000000E+00;  9.3830965E-04;  0.0000000E+00;
  2.4516296E+00;  9.9999998E-03; -3.9958388E-01;300;  2.1051232E-02;  0.0000000E+00;  3.5990844E-04;  9.9896126E+00;  4.2391655E-01; -1.0614436E+00;3; -2.1588416E-03;  0.0000000E+00;  6.2274419E-05;  0.0000000E+00;  0.0000000E+00;  0.0000000E+00;0;  2.2806887E-02;  8.9565544E+01;  0.0000000E+00; -1.2893947E-06;  1.0000000E+02;  0.0000000E+00;  9.9201836E+01;  2.1763979E-02;  0.0000000E+00;  1.0429089E-03;  0.0000000E+00;
  2.4561069E+00;  9.9999998E-03; -1.9966318E-01;301;  2.2671223E-02;  0.0000000E+00;  2.3833773E-04;  9.9892130E+00;  4.2460623E-01; -1.1015676E+00;3; -3.6171018E-03;  0.0000000E+00;  3.3590499E-05;  0.0000000E+00;  0.0000000E+00;  0.0000000E+00;0;  2.3762135E-02;  8.9320801E+01;  0.0000000E+00; -3.3927663E-06;  1.0000000E+02;  0.0000000E+00;  9.9137733E+01;  2.2618968E-02;  0.0000000E+00;  1.1431675E-03;  0.0000000E+00;
  2.6428490E+00;  9.9999998E-03; -1.0066057E+00;308;  1.5741998E-02;  0.0000000E+00; -1.7567382E-03;  9.9907532E+00;  4.2612571E-01; -9.1428626E-01;3;  1.2263989E-03;  0.0000000E+00;  7.5823214E-04;  0.0000000E+00;  0.0000000E+00;  0.0000000E+00;0;  2.3268610E-02;  8.9098572E+01;  0.0000000E+00;  1.0806201E-03;  1.0000000E+02;  0.0000000E+00;  9.8710953E+01;  2.1609642E-02;  0.0000000E+00;  1.6589687E-03;  0.0000000E+00;
  2.6476378E+00;  9.9999998E-03; -8.0484301E-01;309;  1.7830972E-02;  0.0000000E+00; -1.1612467E-03;  9.9905176E+00;  4.2646280E-01; -9.3671936E-01;3; -1.2582086E-03;  0.0000000E+00;  5.1429687E-04;  0.0000000E+00;  0.0000000E+00;  0.0000000E+00;0;  2.3970881E-02;  8.8966270E+01;  0.0000000E+00;  4.3019548E-04;  1.0000000E+02;  0.0000000E+00;  9.8697296E+01;  2.2255696E-02;  0.0000000E+00;  1.7151854E-03;  0.0000000E+00;
  2.6543174E+00;  9.9999998E-03; -6.0290378E-01;310;  2.1753898E-02;  0.0000000E+00; -4.4090938E-04;  9.9902506E+00;  4.2683205E-01; -9.6188349E-01;3; -1.0870324E-03;  0.0000000E+00;  2.3206107E-04;  0.0000000E+00;  0.0000000E+00;  0.0000000E+00;0;  2.4765883E-02;  8.8815552E+01;  0.0000000E+00;  2.3192195E-04;  1.0000000E+02;  0.0000000E+00;  9.8689613E+01;  2.3011681E-02;  0.0000000E+00;  1.7542029E-03;  0.0000000E+00;
  2.6622107E+00;  9.9999998E-03; -4.0084961E-01;311;  2.6772359E-02;  0.0000000E+00;  1.4389731E-04;  9.9899845E+00;  4.2717555E-01; -9.8663515E-01;3;  4.9716473E-05;  0.0000000E+00;  3.3893023E-04;  0.0000000E+00;  0.0000000E+00;  0.0000000E+00;0;  2.5612140E-02;  8.8674248E+01;  0.0000000E+00;  1.1399477E-05;  1.0000000E+02;  0.0000000E+00;  9.8678871E+01;  2.3710337E-02;  0.0000000E+00;  1.9018031E-03;  0.0000000E+00;
  2.6687942E+00;  9.9999998E-03; -1.9991066E-01;312;  2.9927054E-02;  0.0000000E+00;  1.8738293E-04;  9.9897766E+00;  4.2751759E-01; -1.0058703E+00;3; -4.5326829E-04;  0.0000000E+00;  1.6284606E-05;  0.0000000E+00;  0.0000000E+00;  0.0000000E+00;0;  2.6262075E-02;  8.8576431E+01;  0.0000000E+00; -1.3887760E-05;  1.0000000E+02;  0.0000000E+00;  9.8627487E+01;  2.4205158E-02;  0.0000000E+00;  2.0569169E-03;  0.0000000E+00;
  2.8559923E+00;  9.9999998E-03; -1.0102245E+00;319;  1.9706309E-02;  0.0000000E+00; -3.1495639E-03;  9.9899721E+00;  4.3207484E-01; -9.5292968E-01;3; -2.6450998E-03;  0.0000000E+00;  1.0055326E-03;  0.0000000E+00;  0.0000000E+00;  0.0000000E+00;0;  2.9089123E-02;  8.7320099E+01;  0.0000000E+00; -1.2245427E-03;  1.0000000E+02;  0.0000000E+00;  9.7951065E+01;  2.5952792E-02;  0.0000000E+00;  3.1363305E-03;  0.0000000E+00;
  2.8590567E+00;  9.9999998E-03; -8.0796713E-01;320;  2.1316065E-02;  0.0000000E+00; -2.4082153E-03;  9.9899797E+00;  4.3185517E-01; -9.5168871E-01;3; -1.2628521E-03;  0.0000000E+00;  5.3715362E-04;  0.0000000E+00;  0.0000000E+00;  0.0000000E+00;0;  2.9136794E-02;  8.7398811E+01;  0.0000000E+00; -8.7132660E-04;  1.0000000E+02;  0.0000000E+00;  9.7963722E+01;  2.5924398E-02;  0.0000000E+00;  3.2123961E-03;  0.0000000E+00;
  2.8637738E+00;  9.9999998E-03; -6.0569769E-01;321;  2.6087461E-02;  0.0000000E+00; -1.4134656E-03;  9.9900599E+00;  4.3160832E-01; -9.4333649E-01;3;  1.5783462E-03;  0.0000000E+00;  6.3194113E-04;  0.0000000E+00;  0.0000000E+00;  0.0000000E+00;0;  2.8989730E-02;  8.7486191E+01;  0.0000000E+00; -1.0614540E-04;  1.0000000E+02;  0.0000000E+00;  9.7977425E+01;  2.5916088E-02;  0.0000000E+00;  3.0736425E-03;  0.0000000E+00;
  2.8696792E+00;  9.9999998E-03; -4.0330711E-01;322;  2.9911684E-02;  0.0000000E+00; -4.2924317E-04;  9.9900818E+00;  4.3136105E-01; -9.4029355E-01;3;  2.1010109E-03;  0.0000000E+00;  1.4824385E-03;  0.0000000E+00;  0.0000000E+00;  0.0000000E+00;0;  2.9031100E-02;  8.7566040E+01;  0.0000000E+00;  3.8361344E-05;  1.0000000E+02;  0.0000000E+00;  9.8000420E+01;  2.5939235E-02;  0.0000000E+00;  3.0918643E-03;  0.0000000E+00;
  2.8746402E+00;  9.9999998E-03; -2.0080736E-01;323;  3.3302344E-02;  0.0000000E+00;  5.5830122E-05;  9.9900742E+00;  4.3119383E-01; -9.4023573E-01;3;  3.3044685E-03;  0.0000000E+00;  3.8242732E-05;  0.0000000E+00;  0.0000000E+00;  0.0000000E+00;0;  2.9180935E-02;  8.7624855E+01;  0.0000000E+00;  1.2390234E-05;  1.0000000E+02;  0.0000000E+00;  9.8010826E+01;  2.5955969E-02;  0.0000000E+00;  3.2249654E-03;  0.0000000E+00;
  3.0750520E+00;  9.9999998E-03; -1.0141659E+00;330;  2.8771060E-02;  0.0000000E+00; -4.9347416E-03;  9.9891386E+00;  4.3873358E-01; -9.9984396E-01;3; -1.2912363E-03;  0.0000000E+00;  7.5187400E-04;  0.0000000E+00;  0.0000000E+00;  0.0000000E+00;0;  3.5901211E-02;  8.5387726E+01;  0.0000000E+00; -1.6540332E-03;  1.0000000E+02;  0.0000000E+00;  9.7136200E+01;  3.0824961E-02;  0.0000000E+00;  5.0762487E-03;  0.0000000E+00;
  3.0757668E+00;  9.9999998E-03; -8.1135911E-01;331;  2.9003477E-02;  0.0000000E+00; -3.8824442E-03;  9.9893618E+00;  4.3806887E-01; -9.7924298E-01;3; -1.4591700E-03;  0.0000000E+00;  9.6862845E-04;  0.0000000E+00;  0.0000000E+00;  0.0000000E+00;0;  3.5168983E-02;  8.5610512E+01;  0.0000000E+00; -1.4080174E-03;  1.0000000E+02;  0.0000000E+00;  9.7181061E+01;  3.0236704E-02;  0.0000000E+00;  4.9322778E-03;  0.0000000E+00;
  3.0769289E+00;  9.9999998E-03; -6.0861409E-01;332;  3.0016826E-02;  0.0000000E+00; -2.9501917E-03;  9.9895906E+00;  4.3731949E-01; -9.5804816E-01;3; -1.0012805E-03;  0.0000000E+00; -4.8914127E-04;  0.0000000E+00;  0.0000000E+00;  0.0000000E+00;0;  3.4474656E-02;  8.5858490E+01;  0.0000000E+00; -5.6056405E-04;  1.0000000E+02;  0.0000000E+00;  9.7235268E+01;  2.9590571E-02;  0.0000000E+00;  4.8840852E-03;  0.0000000E+00;
  3.0793617E+00;  9.9999998E-03; -4.0592462E-01;333;  3.2233018E-02;  0.0000000E+00; -1.9107090E-03;  9.9898005E+00;  4.3664333E-01; -9.3847996E-01;3;  3.5626115E-04;  0.0000000E+00;  3.1368216E-03;  0.0000000E+00;  0.0000000E+00;  0.0000000E+00;0;  3.3778660E-02;  8.6088898E+01;  0.0000000E+00; -7.6681274E-05;  1.0000000E+02;  0.0000000E+00;  9.7279831E+01;  2.9024050E-02;  0.0000000E+00;  4.7546113E-03;  0.0000000E+00;
  3.0820293E+00;  9.9999998E-03; -2.0277888E-01;334;  3.4810781E-02;  0.0000000E+00; -3.5542951E-04;  9.9899778E+00;  4.3613631E-01; -9.2186064E-01;3;  2.7658031E-03;  0.0000000E+00;  2.6130493E-04;  0.0000000E+00;  0.0000000E+00;  0.0000000E+00;0;  3.3253089E-02;  8.6255165E+01;  0.0000000E+00;  6.4066276E-06;  1.0000000E+02;  0.0000000E+00;  9.7322510E+01;  2.8636573E-02;  0.0000000E+00;  4.6165143E-03;  0.0000000E+00;
  3.2973464E+00;  9.9999998E-03; -1.0178062E+00;341;  3.8793135E-02;  0.0000000E+00; -6.6428832E-03;  9.9886322E+00;  4.4512284E-01; -1.0270022E+00;3; -3.1098502E-04;  0.0000000E+00; -8.9395652E-04;  0.0000000E+00;  0.0000000E+00;  0.0000000E+00;0;  4.2207390E-02;  8.3559570E+01;  0.0000000E+00;  4.6496670E-04;  1.0000000E+02;  0.0000000E+00;  9.6422356E+01;  3.5386138E-02;  0.0000000E+00;  6.8212510E-03;  0.0000000E+00;
  3.2963843E+00;  9.9999998E-03; -8.1446022E-01;342;  3.8214080E-02;  0.0000000E+00; -5.3798668E-03;  9.9888678E+00;  4.4433743E-01; -1.0057889E+00;3; -6.6908367E-04;  0.0000000E+00;  6.4255612E-04;  0.0000000E+00;  0.0000000E+00;  0.0000000E+00;0;  4.1269541E-02;  8.3810181E+01;  0.0000000E+00;  4.5443102E-04;  1.0000000E+02;  0.0000000E+00;  9.6478203E+01;  3.4625538E-02;  0.0000000E+00;  6.6440017E-03;  0.0000000E+00;
  3.2956567E+00;  9.9999998E-03; -6.1125624E-01;343;  3.8209852E-02;  0.0000000E+00; -4.2595724E-03;  9.9891376E+00;  4.4345722E-01; -9.8143625E-01;3; -4.6490339E-04;  0.0000000E+00; -4.1044661E-04;  0.0000000E+00;  0.0000000E+00;  0.0000000E+00;0;  4.0293157E-02;  8.4089951E+01;  0.0000000E+00;  3.8218655E-04;  1.0000000E+02;  0.0000000E+00;  9.6543274E+01;  3.3772215E-02;  0.0000000E+00;  6.5209414E-03;  0.0000000E+00;
  3.2957151E+00;  9.9999998E-03; -4.0809694E-01;344;  3.8911089E-02;  0.0000000E+00; -3.0113235E-03;  9.9893990E+00;  4.4263837E-01; -9.5784485E-01;3;  2.7672094E-04;  0.0000000E+00;  7.9130376E-04;  0.0000000E+00;  0.0000000E+00;  0.0000000E+00;0;  3.9287187E-02;  8.4354004E+01;  0.0000000E+00;  2.7110433E-04;  1.0000000E+02;  0.0000000E+00;  9.6602364E+01;  3.2972664E-02;  0.0000000E+00;  6.3145240E-03;  0.0000000E+00;
  3.2960577E+00;  9.9999998E-03; -2.0485912E-01;345;  3.9855663E-02;  0.0000000E+00; -1.7294971E-03;  9.9895887E+00;  4.4204608E-01; -9.4064647E-01;3;  1.2435740E-03;  0.0000000E+00;  1.0113474E-03;  0.0000000E+00;  0.0000000E+00;  0.0000000E+00;0;  3.8595054E-02;  8.4547905E+01;  0.0000000E+00;  8.6170236E-05;  1.0000000E+02;  0.0000000E+00;  9.6643089E+01;  3.2390751E-02;  0.0000000E+00;  6.2043024E-03;  0.0000000E+00;
  3.5209796E+00;  9.9999998E-03; -1.0207837E+00;352;  4.8677336E-02;  0.0000000E+00; -7.9755755E-03;  9.9885387E+00;  4.5045555E-01; -1.0260311E+00;3;  2.5272509E-04;  0.0000000E+00; -1.7276547E-03;  0.0000000E+00;  0.0000000E+00;  0.0000000E+00;0;  4.6970971E-02;  8.2050407E+01;  0.0000000E+00;  1.5500375E-03;  1.0000000E+02;  0.0000000E+00;  9.5883057E+01;  3.8944513E-02;  0.0000000E+00;  8.0264574E-03;  0.0000000E+00;
  3.5193925E+00;  9.9999998E-03; -8.1693226E-01;353;  4.7956597E-02;  0.0000000E+00; -6.5622758E-03;  9.9886789E+00;  4.4985566E-01; -1.0135349E+00;3; -1.2527432E-04;  0.0000000E+00;  4.1732003E-04;  0.0000000E+00;  0.0000000E+00;  0.0000000E+00;0;  4.6329509E-02;  8.2234032E+01;  0.0000000E+00;  2.1467495E-03;  1.0000000E+02;  0.0000000E+00;  9.5925980E+01;  3.8373824E-02;  0.0000000E+00;  7.9556862E-03;  0.0000000E+00;
  3.5178592E+00;  9.9999998E-03; -6.1322457E-01;354;  4.7687922E-02;  0.0000000E+00; -5.2610384E-03;  9.9888630E+00;  4.4917631E-01; -9.9708748E-01;3;  1.3997561E-04;  0.0000000E+00; -4.8671398E-04;  0.0000000E+00;  0.0000000E+00;  0.0000000E+00;0;  4.5577072E-02;  8.2442482E+01;  0.0000000E+00;  1.5691908E-03;  1.0000000E+02;  0.0000000E+00;  9.5977127E+01;  3.7715301E-02;  0.0000000E+00;  7.8617698E-03;  0.0000000E+00;
  3.5166130E+00;  9.9999998E-03; -4.0955904E-01;355;  4.7636490E-02;  0.0000000E+00; -3.6715458E-03;  9.9890671E+00;  4.4852600E-01; -9.7881687E-01;3;  6.3890946E-04;  0.0000000E+00;  3.4390041E-04;  0.0000000E+00;  0.0000000E+00;  0.0000000E+00;0;  4.4682615E-02;  8.2644333E+01;  0.0000000E+00;  7.5851736E-04;  1.0000000E+02;  0.0000000E+00;  9.6023567E+01;  3.7065316E-02;  0.0000000E+00;  7.6172985E-03;  0.0000000E+00;
  3.5154579E+00;  9.9999998E-03; -2.0588385E-01;356;  4.7508132E-02;  0.0000000E+00; -2.5632153E-03;  9.9891891E+00;  4.4804639E-01; -9.6796072E-01;3;  1.1348040E-03;  0.0000000E+00;  6.7624694E-04;  0.0000000E+00;  0.0000000E+00;  0.0000000E+00;0;  4.4167601E-02;  8.2796242E+01;  0.0000000E+00;  1.8923540E-04;  1.0000000E+02;  0.0000000E+00;  9.6055367E+01;  3.6563776E-02;  0.0000000E+00;  7.6038237E-03;  0.0000000E+00;
  3.7446754E+00;  9.9999998E-03; -1.0230757E+00;363;  5.8138870E-02;  0.0000000E+00; -8.9026382E-03;  9.9887228E+00;  4.5457974E-01; -1.0054920E+00;3;  5.9624994E-04;  0.0000000E+00; -1.9253591E-03;  0.0000000E+00;  0.0000000E+00;  0.0000000E+00;0;  5.0084718E-02;  8.0891815E+01;  0.0000000E+00;  9.0522668E-04;  1.0000000E+02;  0.0000000E+00;  9.5502144E+01;  4.1340929E-02;  0.0000000E+00;  8.7437900E-03;  0.0000000E+00;
  3.7433228E+00;  9.9999998E-03; -8.1875521E-01;364;  5.7838921E-02;  0.0000000E+00; -7.3596900E-03;  9.9887524E+00;  4.5428956E-01; -1.0028501E+00;3;  5.7965046E-04;  0.0000000E+00;  1.4908554E-05;  0.0000000E+00;  0.0000000E+00;  0.0000000E+00;0;  4.9922202E-02;  8.0978020E+01;  0.0000000E+00;  1.9271268E-03;  1.0000000E+02;  0.0000000E+00;  9.5522652E+01;  4.1109864E-02;  0.0000000E+00;  8.8123372E-03;  0.0000000E+00;
  3.7418020E+00;  9.9999998E-03; -6.1449391E-01;365;  5.7727180E-02;  0.0000000E+00; -5.8365995E-03;  9.9888210E+00;  4.5394248E-01; -9.9675578E-01;3;  1.0008997E-03;  0.0000000E+00; -6.1213272E-04;  0.0000000E+00;  0.0000000E+00;  0.0000000E+00;0;  4.9604047E-02;  8.1080704E+01;  0.0000000E+00;  1.5067373E-03;  1.0000000E+02;  0.0000000E+00;  9.5549255E+01;  4.0823832E-02;  0.0000000E+00;  8.7802140E-03;  0.0000000E+00;
  3.7401855E+00;  9.9999998E-03; -4.1019419E-01;366;  5.7451677E-02;  0.0000000E+00; -4.0502469E-03;  9.9889097E+00;  4.5359835E-01; -9.8885548E-01;3;  1.4377463E-03;  0.0000000E+00;  8.7859924E-04;  0.0000000E+00;  0.0000000E+00;  0.0000000E+00;0;  4.9150776E-02;  8.1185654E+01;  0.0000000E+00;  6.8900641E-04;  1.0000000E+02;  0.0000000E+00;  9.5571709E+01;  4.0519141E-02;  0.0000000E+00;  8.6316345E-03;  0.0000000E+00;
  3.7383451E+00;  9.9999998E-03; -2.0543194E-01;367;  5.6768112E-02;  0.0000000E+00; -2.5723549E-03;  9.9889593E+00;  4.5330828E-01; -9.8446524E-01;3;  1.6351261E-03;  0.0000000E+00; -1.1931083E-04;  0.0000000E+00;  0.0000000E+00;  0.0000000E+00;0;  4.8914973E-02;  8.1269127E+01;  0.0000000E+00;  1.5428616E-04;  1.0000000E+02;  0.0000000E+00;  9.5596344E+01;  4.0264189E-02;  0.0000000E+00;  8.6507844E-03;  0.0000000E+00;
  3.9676049E+00;  9.9999998E-03; -1.0248787E+00;374;  6.7251518E-02;  0.0000000E+00; -9.5150517E-03;  9.9889631E+00;  4.5797503E-01; -9.8241198E-01;3;  9.2083431E-04;  0.0000000E+00; -1.6890040E-03;  0.0000000E+00;  0.0000000E+00;  0.0000000E+00;0;  5.2088294E-02;  7.9941429E+01;  0.0000000E+00;  4.3443803E-04;  1.0000000E+02;  0.0000000E+00;  9.5213806E+01;  4.2935427E-02;  0.0000000E+00;  9.1528669E-03;  0.0000000E+00;
  3.9669156E+00;  9.9999998E-03; -8.2014620E-01;375;  6.7502327E-02;  0.0000000E+00; -7.8605199E-03;  9.9889174E+00;  4.5790502E-01; -9.8650044E-01;3;  1.3619497E-03;  0.0000000E+00; -2.7914468E-04;  0.0000000E+00;  0.0000000E+00;  0.0000000E+00;0;  5.2310541E-02;  7.9960747E+01;  0.0000000E+00;  9.5297716E-04;  1.0000000E+02;  0.0000000E+00;  9.5218529E+01;  4.2975489E-02;  0.0000000E+00;  9.3350504E-03;  0.0000000E+00;
  3.9659984E+00;  9.9999998E-03; -6.1534673E-01;376;  6.7733154E-02;  0.0000000E+00; -6.0957009E-03;  9.9889088E+00;  4.5781815E-01; -9.8724753E-01;3;  1.9641800E-03;  0.0000000E+00; -8.5696788E-04;  0.0000000E+00;  0.0000000E+00;  0.0000000E+00;0;  5.2348118E-02;  7.9984741E+01;  0.0000000E+00;  7.1637216E-04;  1.0000000E+02;  0.0000000E+00;  9.5226265E+01;  4.3005791E-02;  0.0000000E+00;  9.3423286E-03;  0.0000000E+00;
  3.9648840E+00;  9.9999998E-03; -4.1031632E-01;377;  6.7687869E-02;  0.0000000E+00; -4.2443136E-03;  9.9888935E+00;  4.5772713E-01; -9.8863220E-01;3;  2.4501972E-03;  0.0000000E+00;  1.1459870E-03;  0.0000000E+00;  0.0000000E+00;  0.0000000E+00;0;  5.2376881E-02;  8.0013145E+01;  0.0000000E+00;  2.9484043E-04;  1.0000000E+02;  0.0000000E+00;  9.5230316E+01;  4.3018531E-02;  0.0000000E+00;  9.3583511E-03;  0.0000000E+00;
  3.9633853E+00;  9.9999998E-03; -2.0403467E-01;378;  6.7140281E-02;  0.0000000E+00; -1.9925672E-03;  9.9888973E+00;  4.5760110E-01; -9.8826784E-01;3;  2.6417903E-03;  0.0000000E+00; -9.1047032E-04;  0.0000000E+00;  0.0000000E+00;  0.0000000E+00;0;  5.2359879E-02;  8.0039246E+01;  0.0000000E+00;  5.6665340E-05;  1.0000000E+02;  0.0000000E+00;  9.5251892E+01;  4.3013774E-02;  0.0000000E+00;  9.3461052E-03;  0.0000000E+00;
  4.1889501E+00;  9.9999998E-03; -1.0264224E+00;385;  7.5985774E-02;  0.0000000E+00; -9.9449083E-03;  9.9890614E+00;  4.6131051E-01; -9.7297758E-01;3;  1.6379175E-03;  0.0000000E+00; -9.8889903E-04;  0.0000000E+00;  0.0000000E+00;  0.0000000E+00;0;  5.3734057E-02;  7.9009407E+01;  0.0000000E+00;  1.6003143E-04;  1.0000000E+02;  0.0000000E+00;  9.4949631E+01;  4.4277940E-02;  0.0000000E+00;  9.4561176E-03;  0.0000000E+00;
  4.1891727E+00;  9.9999998E-03; -8.2139188E-01;386;  7.6632902E-02;  0.0000000E+00; -8.2099112E-03;  9.9889946E+00;  4.6127418E-01; -9.7891515E-01;3;  2.2240968E-03;  0.0000000E+00; -3.9637001E-04;  0.0000000E+00;  0.0000000E+00;  0.0000000E+00;0;  5.4108500E-02;  7.9018471E+01;  0.0000000E+00;  3.1472780E-04;  1.0000000E+02;  0.0000000E+00;  9.4952400E+01;  4.4414736E-02;  0.0000000E+00;  9.6937623E-03;  0.0000000E+00;
  4.1893883E+00;  9.9999998E-03; -6.1622053E-01;387;  7.7288993E-02;  0.0000000E+00; -6.2444671E-03;  9.9889650E+00;  4.6125653E-01; -9.8156565E-01;3;  2.8528199E-03;  0.0000000E+00; -9.3811221E-04;  0.0000000E+00;  0.0000000E+00;  0.0000000E+00;0;  5.4264523E-02;  7.9022095E+01;  0.0000000E+00;  2.3869197E-04;  1.0000000E+02;  0.0000000E+00;  9.4955460E+01;  4.4573233E-02;  0.0000000E+00;  9.6912896E-03;  0.0000000E+00;
  4.1896534E+00;  9.9999998E-03; -4.1062507E-01;388;  7.7887073E-02;  0.0000000E+00; -4.3916604E-03;  9.9888973E+00;  4.6124497E-01; -9.8755598E-01;3;  3.4416562E-03;  0.0000000E+00;  9.2715194E-04;  0.0000000E+00;  0.0000000E+00;  0.0000000E+00;0;  5.4576747E-02;  7.9025673E+01;  0.0000000E+00;  9.6498370E-05;  1.0000000E+02;  0.0000000E+00;  9.4954216E+01;  4.4730518E-02;  0.0000000E+00;  9.8462282E-03;  0.0000000E+00;
  4.1896024E+00;  9.9999998E-03; -2.0318401E-01;389;  7.8191780E-02;  0.0000000E+00; -1.4531008E-03;  9.9888859E+00;  4.6118718E-01; -9.8856354E-01;3;  3.7739177E-03;  0.0000000E+00; -1.1632744E-03;  0.0000000E+00;  0.0000000E+00;  0.0000000E+00;0;  5.4646924E-02;  7.9029274E+01;  0.0000000E+00;  1.8523655E-05;  1.0000000E+02;  0.0000000E+00;  9.4974136E+01;  4.4852845E-02;  0.0000000E+00;  9.7940797E-03;  0.0000000E+00;
  4.4154887E+00;  9.9999998E-03; -2.0425764E-01;400;  8.9163579E-02;  0.0000000E+00; -1.6035942E-03;  9.9888163E+00;  4.6423870E-01; -9.9447536E-01;3;  4.9480023E-03;  0.0000000E+00; -8.4949209E-04;  0.0000000E+00;  0.0000000E+00;  0.0000000E+00;0;  5.6049526E-02;  7.8188713E+01;  0.0000000E+00;  1.9012758E-05;  1.0000000E+02;  0.0000000E+00;  9.4736214E+01;  4.5961380E-02;  0.0000000E+00;  1.0088144E-02;  0.0000000E+00;
  4.4103432E+00;  9.9999998E-03; -8.2259178E-01;397;  8.5254103E-02;  0.0000000E+00; -8.4963758E-03;  9.9888916E+00;  4.6457312E-01; -9.8780119E-01;3;  3.2244753E-03;  0.0000000E+00; -2.9617734E-04;  0.0000000E+00;  0.0000000E+00;  0.0000000E+00;0;  5.5655830E-02;  7.8105110E+01;  0.0000000E+00; -8.3156885E-04;  1.0000000E+02;  0.0000000E+00;  9.4702156E+01;  4.5664739E-02;  0.0000000E+00;  9.9910917E-03;  0.0000000E+00;
  4.4118886E+00;  9.9999998E-03; -6.1734915E-01;398;  8.6324275E-02;  0.0000000E+00; -6.4538671E-03;  9.9888830E+00;  4.6443760E-01; -9.8854202E-01;3;  3.7001502E-03;  0.0000000E+00; -7.6741510E-04;  0.0000000E+00;  0.0000000E+00;  0.0000000E+00;0;  5.5707373E-02;  7.8141266E+01;  0.0000000E+00; -1.8190710E-04;  1.0000000E+02;  0.0000000E+00;  9.4712883E+01;  4.5761663E-02;  0.0000000E+00;  9.9457083E-03;  0.0000000E+00;
  4.4137526E+00;  9.9999998E-03; -4.1166565E-01;399;  8.7680750E-02;  0.0000000E+00; -4.6661659E-03;  9.9888201E+00;  4.6433210E-01; -9.9415874E-01;3;  4.3422054E-03;  0.0000000E+00;  4.3928533E-04;  0.0000000E+00;  0.0000000E+00;  0.0000000E+00;0;  5.6022342E-02;  7.8170723E+01;  0.0000000E+00;  8.8943088E-06;  1.0000000E+02;  0.0000000E+00;  9.4719513E+01;  4.5867890E-02;  0.0000000E+00;  1.0154452E-02;  0.0000000E+00;
  4.4092069E+00;  9.9999998E-03; -1.0277486E+00;396;  8.4410764E-02;  0.0000000E+00; -1.0260819E-02;  9.9889421E+00;  4.6472767E-01; -9.8329681E-01;3;  2.9105607E-03;  0.0000000E+00;  7.6979682E-05;  0.0000000E+00;  0.0000000E+00;  0.0000000E+00;0;  5.5343240E-02;  7.8063774E+01;  0.0000000E+00; -2.1603762E-03;  1.0000000E+02;  0.0000000E+00;  9.4690498E+01;  4.5589603E-02;  0.0000000E+00;  9.7536361E-03;  0.0000000E+00;
  4.6336865E+00;  9.9999998E-03; -1.0285861E+00;407;  9.4149768E-02;  0.0000000E+00; -1.0405631E-02;  9.9886723E+00;  4.6735671E-01; -1.0071846E+00;3;  4.4132168E-03;  0.0000000E+00;  1.4130315E-03;  0.0000000E+00;  0.0000000E+00;  0.0000000E+00;0;  5.6410290E-02;  7.7343964E+01;  0.0000000E+00; -4.3494641E-03;  1.0000000E+02;  0.0000000E+00;  9.4494934E+01;  4.6429556E-02;  0.0000000E+00;  9.9807326E-03;  0.0000000E+00;
  4.6343136E+00;  9.9999998E-03; -8.2347870E-01;408;  9.4687521E-02;  0.0000000E+00; -8.6589120E-03;  9.9886599E+00;  4.6706471E-01; -1.0082973E+00;3;  4.3306695E-03;  0.0000000E+00; -1.7294899E-04;  0.0000000E+00;  0.0000000E+00;  0.0000000E+00;0;  5.6546930E-02;  7.7422760E+01;  0.0000000E+00; -1.4720459E-03;  1.0000000E+02;  0.0000000E+00;  9.4516800E+01;  4.6376072E-02;  0.0000000E+00;  1.0170857E-02;  0.0000000E+00;
  4.6356311E+00;  9.9999998E-03; -6.1845666E-01;409;  9.5663786E-02;  0.0000000E+00; -6.7215748E-03;  9.9886856E+00;  4.6673471E-01; -1.0059650E+00;3;  4.6134260E-03;  0.0000000E+00; -5.7288451E-04;  0.0000000E+00;  0.0000000E+00;  0.0000000E+00;0;  5.6412999E-02;  7.7512741E+01;  0.0000000E+00; -6.4612308E-04;  1.0000000E+02;  0.0000000E+00;  9.4540230E+01;  4.6304457E-02;  0.0000000E+00;  1.0108541E-02;  0.0000000E+00;
  4.6376667E+00;  9.9999998E-03; -4.1325560E-01;410;  9.7165681E-02;  0.0000000E+00; -5.0107529E-03;  9.9886694E+00;  4.6645227E-01; -1.0074482E+00;3;  5.1542209E-03;  0.0000000E+00;  3.5763835E-04;  0.0000000E+00;  0.0000000E+00;  0.0000000E+00;0;  5.6483708E-02;  7.7592216E+01;  0.0000000E+00; -3.6893022E-04;  1.0000000E+02;  0.0000000E+00;  9.4557640E+01;  4.6235859E-02;  0.0000000E+00;  1.0247850E-02;  0.0000000E+00;
  4.6399813E+00;  9.9999998E-03; -2.0722361E-01;411;  9.9143282E-02;  0.0000000E+00; -2.4776673E-03;  9.9886866E+00;  4.6625796E-01; -1.0059106E+00;3;  5.9174611E-03;  0.0000000E+00; -3.6557871E-04;  0.0000000E+00;  0.0000000E+00;  0.0000000E+00;0;  5.6389537E-02;  7.7645180E+01;  0.0000000E+00; -9.0478316E-05;  1.0000000E+02;  0.0000000E+00;  9.4572273E+01;  4.6188913E-02;  0.0000000E+00;  1.0200622E-02;  0.0000000E+00;
  4.8729682E+00;  9.9999998E-03; -1.0284348E+00;418;  1.0910121E-01;  0.0000000E+00; -1.0188915E-02;  9.9884167E+00;  4.6760860E-01; -1.0298667E+00;3;  5.7712793E-03;  0.0000000E+00;  2.9925129E-03;  0.0000000E+00;  0.0000000E+00;  0.0000000E+00;0;  5.5643313E-02;  7.7273972E+01;  0.0000000E+00;  4.8362004E-04;  1.0000000E+02;  0.0000000E+00;  9.4474625E+01;  4.5727696E-02;  0.0000000E+00;  9.9156145E-03;  0.0000000E+00;
  4.8696671E+00;  9.9999998E-03; -8.2347709E-01;419;  1.0839728E-01;  0.0000000E+00; -8.4905475E-03;  9.9884558E+00;  4.6721441E-01; -1.0263696E+00;3;  5.8924551E-03;  0.0000000E+00; -1.3514454E-04;  0.0000000E+00;  0.0000000E+00;  0.0000000E+00;0;  5.5613484E-02;  7.7381218E+01;  0.0000000E+00;  4.8214145E-04;  1.0000000E+02;  0.0000000E+00;  9.4503830E+01;  4.5581412E-02;  0.0000000E+00;  1.0032073E-02;  0.0000000E+00;
  4.8662143E+00;  9.9999998E-03; -6.1877704E-01;420;  1.0765404E-01;  0.0000000E+00; -6.7744972E-03;  9.9885111E+00;  4.6674985E-01; -1.0214417E+00;3;  5.9301453E-03;  0.0000000E+00; -5.2641437E-04;  0.0000000E+00;  0.0000000E+00;  0.0000000E+00;0;  5.5386111E-02;  7.7508934E+01;  0.0000000E+00;  1.3155434E-03;  1.0000000E+02;  0.0000000E+00;  9.4536209E+01;  4.5384575E-02;  0.0000000E+00;  1.0001535E-02;  0.0000000E+00;
  4.8646135E+00;  9.9999998E-03; -4.1422242E-01;421;  1.0761999E-01;  0.0000000E+00; -5.1738881E-03;  9.9885559E+00;  4.6634740E-01; -1.0174676E+00;3;  5.8482229E-03;  0.0000000E+00; -5.6464865E-04;  0.0000000E+00;  0.0000000E+00;  0.0000000E+00;0;  5.5189885E-02;  7.7621574E+01;  0.0000000E+00;  4.2908100E-04;  1.0000000E+02;  0.0000000E+00;  9.4562920E+01;  4.5167312E-02;  0.0000000E+00;  1.0022572E-02;  0.0000000E+00;
  4.8636703E+00;  9.9999998E-03; -2.0993261E-01;422;  1.0797945E-01;  0.0000000E+00; -3.3458311E-03;  9.9886065E+00;  4.6606886E-01; -1.0129632E+00;3;  5.9531401E-03;  0.0000000E+00; -4.1186810E-04;  0.0000000E+00;  0.0000000E+00;  0.0000000E+00;0;  5.4958321E-02;  7.7703865E+01;  0.0000000E+00;  7.6068432E-06;  1.0000000E+02;  0.0000000E+00;  9.4576477E+01;  4.4973604E-02;  0.0000000E+00;  9.9847168E-03;  0.0000000E+00;
  5.1235914E+00;  9.9999998E-03; -1.0270616E+00;429;  1.2587893E-01;  0.0000000E+00; -9.4615482E-03;  9.9883022E+00;  4.6494186E-01; -1.0400203E+00;3;  8.6591179E-03;  0.0000000E+00;  4.6469755E-03;  0.0000000E+00;  0.0000000E+00;  0.0000000E+00;0;  5.2022129E-02;  7.8002602E+01;  0.0000000E+00;  2.6427716E-02;  1.0000000E+02;  0.0000000E+00;  9.4667717E+01;  4.2637650E-02;  0.0000000E+00;  9.3844784E-03;  0.0000000E+00;
  5.1192441E+00;  9.9999998E-03; -8.2219350E-01;430;  1.2453557E-01;  0.0000000E+00; -7.7824579E-03;  9.9884443E+00;  4.6412390E-01; -1.0273554E+00;3;  4.8758350E-03;  0.0000000E+00;  1.5165473E-04;  0.0000000E+00;  0.0000000E+00;  0.0000000E+00;0;  5.1617619E-02;  7.8228447E+01;  0.0000000E+00; -1.8628871E-02;  1.0000000E+02;  0.0000000E+00;  9.4729027E+01;  4.2232327E-02;  0.0000000E+00;  9.3852906E-03;  0.0000000E+00;
  5.1073503E+00;  9.9999998E-03; -6.1758673E-01;431;  1.2341250E-01;  0.0000000E+00; -6.1795921E-03;  9.9885530E+00;  4.6328861E-01; -1.0177115E+00;3;  8.0111241E-03;  0.0000000E+00; -5.5172603E-04;  0.0000000E+00;  0.0000000E+00;  0.0000000E+00;0;  5.1379919E-02;  7.8461548E+01;  0.0000000E+00; -2.1292788E-03;  1.0000000E+02;  0.0000000E+00;  9.4790016E+01;  4.2037811E-02;  0.0000000E+00;  9.3421070E-03;  0.0000000E+00;
  5.1004753E+00;  9.9999998E-03; -4.1327220E-01;432;  1.2214135E-01;  0.0000000E+00; -4.9510347E-03;  9.9886293E+00;  4.6277514E-01; -1.0109289E+00;3;  7.6470268E-03;  0.0000000E+00; -5.9529027E-04;  0.0000000E+00;  0.0000000E+00;  0.0000000E+00;0;  5.1171560E-02;  7.8606117E+01;  0.0000000E+00;  4.7028107E-03;  1.0000000E+02;  0.0000000E+00;  9.4826820E+01;  4.1758932E-02;  0.0000000E+00;  9.4126286E-03;  0.0000000E+00;
  5.0936790E+00;  9.9999998E-03; -2.0958604E-01;433;  1.1924364E-01;  0.0000000E+00; -3.2784415E-03;  9.9887314E+00;  4.6247324E-01; -1.0018675E+00;3;  6.0067666E-03;  0.0000000E+00;  7.8404832E-05;  0.0000000E+00;  0.0000000E+00;  0.0000000E+00;0;  5.0840620E-02;  7.8698578E+01;  0.0000000E+00;  2.3280615E-03;  1.0000000E+02;  0.0000000E+00;  9.4841042E+01;  4.1554555E-02;  0.0000000E+00;  9.2860637E-03;  0.0000000E+00;
  5.3280721E+00;  9.9999998E-03; -1.0241988E+00;440;  1.2585519E-01;  0.0000000E+00; -8.3091613E-03;  9.9888048E+00;  4.5725104E-01; -9.9528849E-01;3;  8.8095749E-03;  0.0000000E+00;  5.3703124E-03;  0.0000000E+00;  0.0000000E+00;  0.0000000E+00;0;  4.5075171E-02;  8.0173553E+01;  0.0000000E+00;  2.8376075E-02;  1.0000000E+02;  0.0000000E+00;  9.5237198E+01;  3.6839005E-02;  0.0000000E+00;  8.2361680E-03;  0.0000000E+00;
  5.3400583E+00;  9.9999998E-03; -8.1973547E-01;441;  1.3308749E-01;  0.0000000E+00; -6.7375991E-03;  9.9885521E+00;  4.5791304E-01; -1.0177567E+00;3;  5.8379606E-03;  0.0000000E+00;  1.6136054E-04;  0.0000000E+00;  0.0000000E+00;  0.0000000E+00;0;  4.5896836E-02;  7.9975548E+01;  0.0000000E+00; -1.7380869E-02;  1.0000000E+02;  0.0000000E+00;  9.5191849E+01;  3.7494007E-02;  0.0000000E+00;  8.4028291E-03;  0.0000000E+00;
  5.3366065E+00;  9.9999998E-03; -6.1508822E-01;442;  1.3164295E-01;  0.0000000E+00; -5.0671604E-03;  9.9888134E+00;  4.5692873E-01; -9.9454641E-01;3;  1.1247857E-02;  0.0000000E+00; -1.0587316E-03;  0.0000000E+00;  0.0000000E+00;  0.0000000E+00;0;  4.4978522E-02;  8.0260292E+01;  0.0000000E+00; -1.3368611E-03;  1.0000000E+02;  0.0000000E+00;  9.5267570E+01;  3.6710549E-02;  0.0000000E+00;  8.2679745E-03;  0.0000000E+00;
  5.3448749E+00;  9.9999998E-03; -4.1107437E-01;443;  1.3891883E-01;  0.0000000E+00; -3.8191429E-03;  9.9888258E+00;  4.5659748E-01; -9.9343354E-01;3;  9.4133923E-03;  0.0000000E+00; -4.5368233E-04;  0.0000000E+00;  0.0000000E+00;  0.0000000E+00;0;  4.4703633E-02;  8.0352135E+01;  0.0000000E+00; -2.8595424E-03;  1.0000000E+02;  0.0000000E+00;  9.5296486E+01;  3.6436830E-02;  0.0000000E+00;  8.2668029E-03;  0.0000000E+00;
  5.3386588E+00;  9.9999998E-03; -2.0711622E-01;444;  1.3720779E-01;  0.0000000E+00; -2.1668936E-03;  9.9890585E+00;  4.5581695E-01; -9.7276688E-01;3;  8.4135029E-03;  0.0000000E+00;  2.4568653E-03;  0.0000000E+00;  0.0000000E+00;  0.0000000E+00;0;  4.3896005E-02;  8.0593079E+01;  0.0000000E+00;  3.4364187E-03;  1.0000000E+02;  0.0000000E+00;  9.5342133E+01;  3.5810199E-02;  0.0000000E+00;  8.0858059E-03;  0.0000000E+00;
  5.5421500E+00;  9.9999998E-03; -1.0206110E+00;451;  1.3443215E-01;  0.0000000E+00; -7.1685803E-03;  9.9888039E+00;  4.4798782E-01; -9.9539149E-01;3;  1.1340913E-02;  0.0000000E+00;  6.8224822E-03;  0.0000000E+00;  0.0000000E+00;  0.0000000E+00;0;  3.8801763E-02;  8.2902847E+01;  0.0000000E+00;  4.7612418E-03;  1.0000000E+02;  0.0000000E+00;  9.5948509E+01;  3.1537231E-02;  0.0000000E+00;  7.2645321E-03;  0.0000000E+00;
  5.5562973E+00;  9.9999998E-03; -8.1677103E-01;452;  1.3943622E-01;  0.0000000E+00; -5.7546003E-03;  9.9884109E+00;  4.5041344E-01; -1.0303128E+00;3;  9.9991327E-03;  0.0000000E+00;  1.3384956E-03;  0.0000000E+00;  0.0000000E+00;  0.0000000E+00;0;  3.9861765E-02;  8.2162872E+01;  0.0000000E+00;  4.3118888E-04;  1.0000000E+02;  0.0000000E+00;  9.5766380E+01;  3.2348361E-02;  0.0000000E+00;  7.5134044E-03;  0.0000000E+00;
  5.5560813E+00;  9.9999998E-03; -6.1218596E-01;453;  1.3961542E-01;  0.0000000E+00; -4.0193275E-03;  9.9888134E+00;  4.4933149E-01; -9.9454355E-01;3;  1.0454753E-02;  0.0000000E+00; -4.4849445E-04;  0.0000000E+00;  0.0000000E+00;  0.0000000E+00;0;  3.8489081E-02;  8.2489059E+01;  0.0000000E+00;  5.3702937E-03;  1.0000000E+02;  0.0000000E+00;  9.5854195E+01;  3.1313881E-02;  0.0000000E+00;  7.1752006E-03;  0.0000000E+00;
  5.5597782E+00;  9.9999998E-03; -4.0827742E-01;454;  1.4144820E-01;  0.0000000E+00; -2.2410604E-03;  9.9890451E+00;  4.4893682E-01; -9.7392988E-01;3;  9.7969044E-03;  0.0000000E+00; -9.3584240E-04;  0.0000000E+00;  0.0000000E+00;  0.0000000E+00;0;  3.7537482E-02;  8.2608917E+01;  0.0000000E+00;  1.3935431E-02;  1.0000000E+02;  0.0000000E+00;  9.5888832E+01;  3.0687911E-02;  0.0000000E+00;  6.8495707E-03;  0.0000000E+00;
  5.5598240E+00;  9.9999998E-03; -2.0451187E-01;455;  1.4194207E-01;  0.0000000E+00; -6.0601841E-04;  9.9892826E+00;  4.4816336E-01; -9.5283926E-01;3;  8.4130103E-03;  0.0000000E+00; -4.3395278E-04;  0.0000000E+00;  0.0000000E+00;  0.0000000E+00;0;  3.6718458E-02;  8.2843925E+01;  0.0000000E+00;  7.9843476E-03;  1.0000000E+02;  0.0000000E+00;  9.5951508E+01;  3.0001076E-02;  0.0000000E+00;  6.7173839E-03;  0.0000000E+00;
  5.7548108E+00;  9.9999998E-03; -1.0166491E+00;462;  1.3903700E-01;  0.0000000E+00; -6.1014802E-03;  9.9886684E+00;  4.3845415E-01; -1.0074193E+00;3;  1.2469797E-02;  0.0000000E+00;  4.7111106E-03;  0.0000000E+00;  0.0000000E+00;  0.0000000E+00;0;  3.1910624E-02;  8.5861084E+01;  0.0000000E+00; -7.4252966E-03;  1.0000000E+02;  0.0000000E+00;  9.6713013E+01;  2.5436534E-02;  0.0000000E+00;  6.4740907E-03;  0.0000000E+00;
  5.7611742E+00;  9.9999998E-03; -8.1286973E-01;463;  1.3936476E-01;  0.0000000E+00; -4.0762671E-03;  9.9894056E+00;  4.3967825E-01; -9.4186896E-01;3;  1.0851453E-02;  0.0000000E+00;  5.5804639E-04;  0.0000000E+00;  0.0000000E+00;  0.0000000E+00;0;  2.9581700E-02;  8.5482674E+01;  0.0000000E+00;  7.7633504E-03;  1.0000000E+02;  0.0000000E+00;  9.6615845E+01;  2.4034210E-02;  0.0000000E+00;  5.5474900E-03;  0.0000000E+00;
  5.7647715E+00;  9.9999998E-03; -6.0895616E-01;464;  1.4168595E-01;  0.0000000E+00; -2.8589678E-03;  9.9889975E+00;  4.4015038E-01; -9.7816795E-01;3;  1.1222252E-02;  0.0000000E+00;  6.3477783E-05;  0.0000000E+00;  0.0000000E+00;  0.0000000E+00;0;  3.0579792E-02;  8.5325905E+01;  0.0000000E+00;  2.0511655E-02;  1.0000000E+02;  0.0000000E+00;  9.6577507E+01;  2.4753783E-02;  0.0000000E+00;  5.8260090E-03;  0.0000000E+00;
  5.7643447E+00;  9.9999998E-03; -4.0478596E-01;465;  1.4224970E-01;  0.0000000E+00; -1.4638439E-03;  9.9892359E+00;  4.3936685E-01; -9.5697141E-01;3;  1.1370197E-02;  0.0000000E+00; -7.6877419E-04;  0.0000000E+00;  0.0000000E+00;  0.0000000E+00;0;  2.9973291E-02;  8.5577118E+01;  0.0000000E+00;  4.4682592E-02;  1.0000000E+02;  0.0000000E+00;  9.6641975E+01;  2.4288949E-02;  0.0000000E+00;  5.6843422E-03;  0.0000000E+00;
  5.7640357E+00;  9.9999998E-03; -2.0062375E-01;466;  1.4251047E-01;  0.0000000E+00;  2.4541410E-05;  9.9894361E+00;  4.3884474E-01; -9.3916631E-01;3;  8.8447873E-03;  0.0000000E+00; -3.5003759E-06;  0.0000000E+00;  0.0000000E+00;  0.0000000E+00;0;  2.9365731E-02;  8.5750954E+01;  0.0000000E+00;  2.2455733E-02;  1.0000000E+02;  0.0000000E+00;  9.6679749E+01;  2.3841381E-02;  0.0000000E+00;  5.5243508E-03;  0.0000000E+00;
  5.9666638E+00;  9.9999998E-03; -4.0101066E-01;475;  1.4225769E-01;  0.0000000E+00; -1.4601693E-04;  9.9899521E+00;  4.2805555E-01; -8.9332843E-01;3;  1.0635357E-02;  0.0000000E+00;  9.5445523E-04;  0.0000000E+00;  0.0000000E+00;  0.0000000E+00;0;  2.0668335E-02;  8.9319923E+01;  0.0000000E+00;  3.2942843E-02;  1.0000000E+02;  0.0000000E+00;  9.7565697E+01;  1.6627707E-02;  0.0000000E+00;  4.0406291E-03;  0.0000000E+00;
  5.9668694E+00;  9.9999998E-03; -6.0506761E-01;474;  1.4158955E-01;  0.0000000E+00; -1.4579555E-03;  9.9901237E+00;  4.2839780E-01; -8.7806690E-01;3;  1.1924356E-02;  0.0000000E+00;  9.0606418E-04;  0.0000000E+00;  0.0000000E+00;  0.0000000E+00;0;  2.0413749E-02;  8.9196754E+01;  0.0000000E+00; -2.9050173E-02;  1.0000000E+02;  0.0000000E+00;  9.7546509E+01;  1.6393896E-02;  0.0000000E+00;  4.0198523E-03;  0.0000000E+00;
  5.9685283E+00;  9.9999998E-03; -8.0944049E-01;473;  1.4376630E-01;  0.0000000E+00; -3.5483169E-03;  9.9877977E+00;  4.3047333E-01; -1.0848392E+00;3;  7.3313769E-03;  0.0000000E+00; -4.8025395E-03;  0.0000000E+00;  0.0000000E+00;  0.0000000E+00;0;  2.5209673E-02;  8.8452507E+01;  0.0000000E+00; -2.9070729E-02;  1.0000000E+02;  0.0000000E+00;  9.7377281E+01;  2.0070380E-02;  0.0000000E+00;  5.1392927E-03;  0.0000000E+00;
  5.9724240E+00;  9.9999998E-03; -1.9975956E-01;476;  1.4473371E-01;  0.0000000E+00;  2.1296855E-04;  9.9887390E+00;  4.3073723E-01; -1.0011659E+00;3;  9.2383251E-03;  0.0000000E+00; -4.0607527E-05;  0.0000000E+00;  0.0000000E+00;  0.0000000E+00;0;  2.2876162E-02;  8.8415863E+01;  0.0000000E+00;  1.6122639E-02;  1.0000000E+02;  0.0000000E+00;  9.7316559E+01;  1.8449422E-02;  0.0000000E+00;  4.4267406E-03;  0.0000000E+00;
  6.1730537E+00;  9.9999998E-03; -3.9972383E-01;483;  1.4456065E-01;  0.0000000E+00;  1.8219255E-04;  9.9881535E+00;  4.1994020E-01; -1.0532031E+00;3;  1.1813863E-02;  0.0000000E+00;  1.0596737E-03;  0.0000000E+00;  0.0000000E+00;  0.0000000E+00;0;  1.4865377E-02;  9.2144020E+01;  0.0000000E+00; -7.5802594E-02;  1.0000000E+02;  0.0000000E+00;  9.8232422E+01;  1.1904758E-02;  0.0000000E+00;  2.9606184E-03;  0.0000000E+00;
  6.1764283E+00;  9.9999998E-03; -6.0390311E-01;482;  1.4601623E-01;  0.0000000E+00; -2.0509877E-03;  9.9843616E+00;  4.2315266E-01; -1.3903341E+00;3;  1.0389023E-02;  0.0000000E+00; -5.1975194E-03;  0.0000000E+00;  0.0000000E+00;  0.0000000E+00;0;  1.9365324E-02;  9.0925285E+01;  0.0000000E+00; -6.9216803E-02;  1.0000000E+02;  0.0000000E+00;  9.7971100E+01;  1.4872205E-02;  0.0000000E+00;  4.4931183E-03;  0.0000000E+00;
  6.1775026E+00;  9.9999998E-03; -1.9887780E-01;484;  1.4609785E-01;  0.0000000E+00;  5.4917036E-04;  9.9863787E+00;  4.2283949E-01; -1.2110114E+00;3;  1.1037729E-02;  0.0000000E+00;  4.8789196E-04;  0.0000000E+00;  0.0000000E+00;  0.0000000E+00;0;  1.6867522E-02;  9.1127617E+01;  0.0000000E+00; -1.1479227E-02;  1.0000000E+02;  0.0000000E+00;  9.7938118E+01;  1.3503363E-02;  0.0000000E+00;  3.3641588E-03;  0.0000000E+00;
  6.3786459E+00;  9.9999998E-03; -4.0017515E-01;489;  1.4778523E-01;  0.0000000E+00; -3.3257535E-04;  9.9668970E+00;  4.1446438E-01; -2.9430332E+00;3;  9.9444240E-03;  0.0000000E+00;  3.4892149E-03;  0.0000000E+00;  0.0000000E+00;  0.0000000E+00;0;  1.4335378E-02;  9.3910683E+01;  0.0000000E+00; -1.3378832E-01;  1.0000000E+02;  0.0000000E+00;  9.8537392E+01;  1.1512580E-02;  0.0000000E+00;  2.8227975E-03;  0.0000000E+00;
  6.3785653E+00;  9.9999998E-03; -1.9751863E-01;490;  1.4673778E-01;  0.0000000E+00;  7.8009302E-04;  9.9730082E+00;  4.1392130E-01; -2.3997130E+00;3;  1.2440761E-02;  0.0000000E+00; -1.1247257E-04;  0.0000000E+00;  0.0000000E+00;  0.0000000E+00;0;  1.1459347E-02;  9.4239433E+01;  0.0000000E+00; -7.6601133E-02;  1.0000000E+02;  0.0000000E+00;  9.8571053E+01;  9.0152295E-03;  0.0000000E+00;  2.4441176E-03;  0.0000000E+00;
 -3.8675431E-04;  9.9999998E-03; -4.8819815E-10;170;  2.0239317E-04;  0.0000000E+00; -3.6510279E-09;  9.9987946E+00;  3.9985153E-01; -1.2967354E-01;3; -8.8635487E-03;  0.0000000E+00; -8.6105715E-08;  0.0000000E+00;  0.0000000E+00;  0.0000000E+00;0;  1.7672569E-04;  1.0004217E+02;  0.0000000E+00;  4.8051634E-16;  1.0000000E+02;  0.0000000E+00;  1.0000491E+02;  1.9345035E-04;  0.0000000E+00; -1.6724660E-05;  0.0000000E+00;
 -3.9913331E-04;  9.9999998E-03;  2.0000461E-01;171;  1.8762569E-04;  0.0000000E+00; -3.6565175E-06;  9.9987936E+00;  3.9986184E-01; -1.2980179E-01;3; -9.0042669E-03;  0.0000000E+00; -1.4319470E-03;  0.0000000E+00;  0.0000000E+00;  0.0000000E+00;0;  1.7853267E-04;  1.0003781E+02;  0.0000000E+00; -3.4248828E-07;  1.0000000E+02;  0.0000000E+00;  1.0000515E+02;  1.9361073E-04;  0.0000000E+00; -1.5078052E-05;  0.0000000E+00;
 -4.3028349E-04;  9.9999998E-03;  4.0001172E-01;172;  1.4759631E-04;  0.0000000E+00; -4.1558656E-06;  9.9987965E+00;  3.9988574E-01; -1.2948114E-01;3; -8.9955553E-03;  0.0000000E+00; -1.3730132E-03;  0.0000000E+00;  0.0000000E+00;  0.0000000E+00;0;  1.8260117E-04;  1.0002742E+02;  0.0000000E+00; -8.8277311E-06;  1.0000000E+02;  0.0000000E+00;  1.0000549E+02;  1.9335841E-04;  0.0000000E+00; -1.0757247E-05;  0.0000000E+00;
 -4.7741164E-04;  9.9999998E-03;  6.0004044E-01;173;  7.9984806E-05;  0.0000000E+00;  2.2675171E-05;  9.9988050E+00;  3.9991727E-01; -1.2858330E-01;3; -7.1795173E-03;  0.0000000E+00;  1.4254585E-03;  0.0000000E+00;  0.0000000E+00;  0.0000000E+00;0;  1.8620885E-04;  1.0001308E+02;  0.0000000E+00; -4.2808777E-05;  1.0000000E+02;  0.0000000E+00;  9.9998749E+01;  1.9139197E-04;  0.0000000E+00; -5.1831212E-06;  0.0000000E+00;
 -5.0329498E-04;  9.9999998E-03;  8.0006510E-01;174;  2.3902574E-05;  0.0000000E+00;  3.5206835E-05;  9.9988575E+00;  3.9995140E-01; -1.2293975E-01;3; -4.2844554E-03;  0.0000000E+00;  5.3820810E-03;  0.0000000E+00;  0.0000000E+00;  0.0000000E+00;0;  1.8492404E-04;  9.9999588E+01;  0.0000000E+00; -1.0279103E-04;  1.0000000E+02;  0.0000000E+00;  1.0000000E+02;  1.8406258E-04;  0.0000000E+00;  8.6145337E-07;  0.0000000E+00;
 -5.0437759E-04;  9.9999998E-03;  1.0000808E+00;175; -1.1533208E-05;  0.0000000E+00;  2.7460888E-05;  9.9989729E+00;  3.9997500E-01; -1.1049827E-01;3; -3.7959637E-03;  0.0000000E+00;  3.4518340E-03;  0.0000000E+00;  0.0000000E+00;  0.0000000E+00;0;  1.7429287E-04;  9.9990334E+01;  0.0000000E+00; -1.4587984E-04;  1.0000000E+02;  0.0000000E+00;  9.9998260E+01;  1.6705190E-04;  0.0000000E+00;  7.2409794E-06;  0.0000000E+00;
  1.9943219E-01;  9.9999998E-03; -4.8278054E-10;181;  1.5445634E-04;  0.0000000E+00; -4.2692960E-09;  9.9975815E+00;  4.0011251E-01; -2.6024368E-01;3;  6.2866719E-03;  0.0000000E+00; -5.6901353E-08;  0.0000000E+00;  0.0000000E+00;  0.0000000E+00;0;  4.4218398E-04;  9.9887383E+01;  0.0000000E+00; -4.2576593E-16;  1.0000000E+02;  0.0000000E+00;  1.0000593E+02;  4.6322925E-04;  0.0000000E+00; -2.1045278E-05;  0.0000000E+00;
  1.9942147E-01;  9.9999998E-03;  1.9999009E-01;182;  1.3998087E-04;  0.0000000E+00; -9.7555730E-06;  9.9975815E+00;  4.0012380E-01; -2.6024368E-01;3;  6.0038529E-03;  0.0000000E+00;  2.1428843E-03;  0.0000000E+00;  0.0000000E+00;  0.0000000E+00;0;  4.4495976E-04;  9.9882339E+01;  0.0000000E+00; -1.2733042E-05;  1.0000000E+02;  0.0000000E+00;  1.0000498E+02;  4.6421250E-04;  0.0000000E+00; -1.9252746E-05;  0.0000000E+00;
  1.9939218E-01;  9.9999998E-03;  3.9997983E-01;183;  9.7483207E-05;  0.0000000E+00; -1.5899868E-05;  9.9975882E+00;  4.0014914E-01; -2.5947410E-01;3;  5.3547001E-03;  0.0000000E+00;  5.5931862E-03;  0.0000000E+00;  0.0000000E+00;  0.0000000E+00;0;  4.5081021E-04;  9.9870705E+01;  0.0000000E+00; -8.4420870E-05;  1.0000000E+02;  0.0000000E+00;  1.0000535E+02;  4.6519047E-04;  0.0000000E+00; -1.4380256E-05;  0.0000000E+00;
  1.9935623E-01;  9.9999998E-03;  5.9997296E-01;184;  3.3641954E-05;  0.0000000E+00; -8.2815250E-06;  9.9976244E+00;  4.0017420E-01; -2.5562623E-01;3;  4.7153318E-03;  0.0000000E+00;  9.8700225E-03;  0.0000000E+00;  0.0000000E+00;  0.0000000E+00;0;  4.5190516E-04;  9.9860474E+01;  0.0000000E+00; -2.4586095E-04;  1.0000000E+02;  0.0000000E+00;  1.0000382E+02;  4.5946985E-04;  0.0000000E+00; -7.5647081E-06;  0.0000000E+00;
  1.9935085E-01;  9.9999998E-03;  7.9995304E-01;185; -2.8988761E-06;  0.0000000E+00; -1.0117462E-05;  9.9977503E+00;  4.0018466E-01; -2.4203046E-01;3;  3.6756862E-03;  0.0000000E+00;  1.2485586E-02;  0.0000000E+00;  0.0000000E+00;  0.0000000E+00;0;  4.3780037E-04;  9.9859352E+01;  0.0000000E+00; -4.2504119E-04;  1.0000000E+02;  0.0000000E+00;  9.9999870E+01;  4.3772749E-04;  0.0000000E+00;  7.2875082E-08;  0.0000000E+00;
  1.9935933E-01;  9.9999998E-03;  9.9991953E-01;186; -2.1648029E-05;  0.0000000E+00; -2.9593071E-05;  9.9980116E+00;  4.0017727E-01; -2.1394108E-01;3;  2.1828248E-03;  0.0000000E+00;  1.2761515E-02;  0.0000000E+00;  0.0000000E+00;  0.0000000E+00;0;  3.9783819E-04;  9.9871742E+01;  0.0000000E+00; -4.4561439E-04;  1.0000000E+02;  0.0000000E+00;  1.0000108E+02;  3.9144879E-04;  0.0000000E+00;  6.3894086E-06;  0.0000000E+00;
  3.9926988E-01;  9.9999998E-03; -4.7791393E-10;192;  1.2785029E-04;  0.0000000E+00; -5.1002282E-09;  9.9960098E+00;  4.0061441E-01; -4.2928845E-01;3; -3.4851514E-02;  0.0000000E+00; -3.0160656E-08;  0.0000000E+00;  0.0000000E+00;  0.0000000E+00;0;  9.9835137E-04;  9.9607880E+01;  0.0000000E+00; -1.1229279E-15;  1.0000000E+02;  0.0000000E+00;  1.0000491E+02;  1.0168637E-03;  0.0000000E+00; -1.8512374E-05;  0.0000000E+00;
  3.9926249E-01;  9.9999998E-03;  1.9997406E-01;193;  1.1360120E-04;  0.0000000E+00; -1.6431386E-05;  9.9960117E+00;  4.0062481E-01; -4.2909607E-01;3; -3.4381606E-02;  0.0000000E+00;  1.4974995E-02;  0.0000000E+00;  0.0000000E+00;  0.0000000E+00;0;  9.9886197E-04;  9.9602043E+01;  0.0000000E+00; -7.2133073E-05;  1.0000000E+02;  0.0000000E+00;  1.0000491E+02;  1.0161881E-03;  0.0000000E+00; -1.7326149E-05;  0.0000000E+00;
  3.9924160E-01;  9.9999998E-03;  3.9994785E-01;194;  6.6147026E-05;  0.0000000E+00; -2.8034581E-05;  9.9960175E+00;  4.0064940E-01; -4.2851889E-01;3; -3.2718305E-02;  0.0000000E+00;  3.5037551E-02;  0.0000000E+00;  0.0000000E+00;  0.0000000E+00;0;  9.9826546E-04;  9.9590218E+01;  0.0000000E+00; -3.3642270E-04;  1.0000000E+02;  0.0000000E+00;  1.0000507E+02;  1.0122064E-03;  0.0000000E+00; -1.3940955E-05;  0.0000000E+00;
  3.9923155E-01;  9.9999998E-03;  5.9991121E-01;195;  1.1322425E-05;  0.0000000E+00; -4.4108445E-05;  9.9960785E+00;  4.0066653E-01; -4.2191347E-01;3; -3.0476330E-02;  0.0000000E+00;  6.1938424E-02;  0.0000000E+00;  0.0000000E+00;  0.0000000E+00;0;  9.8646095E-04;  9.9584511E+01;  0.0000000E+00; -6.8531011E-04;  1.0000000E+02;  0.0000000E+00;  1.0000581E+02;  9.9542504E-04;  0.0000000E+00; -8.9641107E-06;  0.0000000E+00;
  3.9926770E-01;  9.9999998E-03;  7.9985797E-01;196; -8.4847934E-06;  0.0000000E+00; -7.5108837E-05;  9.9962873E+00;  4.0065116E-01; -3.9946786E-01;3; -3.0131347E-02;  0.0000000E+00;  9.1267392E-02;  0.0000000E+00;  0.0000000E+00;  0.0000000E+00;0;  9.4396324E-04;  9.9599342E+01;  0.0000000E+00; -6.7075953E-04;  1.0000000E+02;  0.0000000E+00;  9.9999763E+01;  9.4790588E-04;  0.0000000E+00; -3.9426413E-06;  0.0000000E+00;
  3.9937586E-01;  9.9999998E-03;  9.9983275E-01;197;  2.4975849E-05;  0.0000000E+00; -1.0839607E-04;  9.9966898E+00;  4.0057799E-01; -3.5617986E-01;3; -2.8731262E-02;  0.0000000E+00;  1.1464229E-01;  0.0000000E+00;  0.0000000E+00;  0.0000000E+00;0;  8.5097691E-04;  9.9643570E+01;  0.0000000E+00;  8.6202119E-05;  1.0000000E+02;  0.0000000E+00;  1.0000108E+02;  8.5339026E-04;  0.0000000E+00; -2.4133406E-06;  0.0000000E+00;
  5.9917372E-01;  9.9999998E-03; -4.8327969E-10;203;  1.2215278E-04;  0.0000000E+00; -5.6737877E-09;  9.9942751E+00;  4.0136799E-01; -6.1595738E-01;3; -1.6661521E-02;  0.0000000E+00; -8.2074131E-08;  0.0000000E+00;  0.0000000E+00;  0.0000000E+00;0;  1.9006883E-03;  9.9203484E+01;  0.0000000E+00; -2.1280246E-15;  1.0000000E+02;  0.0000000E+00;  1.0000008E+02;  1.9067647E-03;  0.0000000E+00; -6.0763705E-06;  0.0000000E+00;
  5.9917063E-01;  9.9999998E-03;  1.9996679E-01;204;  1.0715725E-04;  0.0000000E+00; -1.7044802E-05;  9.9942865E+00;  4.0138417E-01; -6.1473894E-01;3; -1.5761029E-02;  0.0000000E+00;  1.6287891E-02;  0.0000000E+00;  0.0000000E+00;  0.0000000E+00;0;  1.8971221E-03;  9.9195442E+01;  0.0000000E+00; -2.1253385E-04;  1.0000000E+02;  0.0000000E+00;  1.0000034E+02;  1.9032540E-03;  0.0000000E+00; -6.1318760E-06;  0.0000000E+00;
  5.9915704E-01;  9.9999998E-03;  3.9993149E-01;205;  5.0177448E-05;  0.0000000E+00; -3.2683547E-05;  9.9943199E+00;  4.0141752E-01; -6.1114770E-01;3; -1.2307868E-02;  0.0000000E+00;  3.9427016E-02;  0.0000000E+00;  0.0000000E+00;  0.0000000E+00;0;  1.8863790E-03;  9.9179184E+01;  0.0000000E+00; -7.7309459E-04;  1.0000000E+02;  0.0000000E+00;  1.0000173E+02;  1.8925548E-03;  0.0000000E+00; -6.1758296E-06;  0.0000000E+00;
  5.9916127E-01;  9.9999998E-03;  5.9987628E-01;206; -1.7712533E-05;  0.0000000E+00; -6.6179316E-05;  9.9944115E+00;  4.0142822E-01; -6.0127187E-01;3; -7.1809227E-03;  0.0000000E+00;  7.3728628E-02;  0.0000000E+00;  0.0000000E+00;  0.0000000E+00;0;  1.8571361E-03;  9.9173462E+01;  0.0000000E+00; -8.3793729E-04;  1.0000000E+02;  0.0000000E+00;  1.0000328E+02;  1.8645298E-03;  0.0000000E+00; -7.3936553E-06;  0.0000000E+00;
  5.9922338E-01;  9.9999998E-03;  7.9979897E-01;207; -5.2350344E-05;  0.0000000E+00; -1.2211075E-04;  9.9946680E+00;  4.0138176E-01; -5.7369649E-01;3; -1.3165592E-04;  0.0000000E+00;  1.1679401E-01;  0.0000000E+00;  0.0000000E+00;  0.0000000E+00;0;  1.7745413E-03;  9.9201180E+01;  0.0000000E+00;  1.3282599E-03;  1.0000000E+02;  0.0000000E+00;  1.0000571E+02;  1.7877539E-03;  0.0000000E+00; -1.3212513E-05;  0.0000000E+00;
  5.9948856E-01;  9.9999998E-03;  9.9977016E-01;208;  4.6599747E-05;  0.0000000E+00; -1.7533184E-04;  9.9951706E+00;  4.0124366E-01; -5.1957172E-01;3;  1.0686477E-02;  0.0000000E+00;  1.5224142E-01;  0.0000000E+00;  0.0000000E+00;  0.0000000E+00;0;  1.6128747E-03;  9.9275841E+01;  0.0000000E+00;  5.9926957E-03;  1.0000000E+02;  0.0000000E+00;  1.0000752E+02;  1.6394355E-03;  0.0000000E+00; -2.6560840E-05;  0.0000000E+00;
  7.9917800E-01;  9.9999998E-03; -5.2255567E-10;214;  1.3706640E-04;  0.0000000E+00; -5.8206093E-09;  9.9928236E+00;  4.0235493E-01; -7.7207059E-01;3; -7.4521336E-03;  0.0000000E+00; -8.5123098E-08;  0.0000000E+00;  0.0000000E+00;  0.0000000E+00;0;  3.0938899E-03;  9.8697945E+01;  0.0000000E+00;  1.2376239E-15;  1.0000000E+02;  0.0000000E+00;  9.9994049E+01;  3.0787538E-03;  0.0000000E+00;  1.5136158E-05;  0.0000000E+00;
  7.9914445E-01;  9.9999998E-03;  1.9998063E-01;215;  1.0699983E-04;  0.0000000E+00; -3.9178544E-06;  9.9928226E+00;  4.0237850E-01; -7.7219886E-01;3; -6.0958304E-03;  0.0000000E+00;  1.4971603E-02;  0.0000000E+00;  0.0000000E+00;  0.0000000E+00;0;  3.0878664E-03;  9.8686035E+01;  0.0000000E+00; -4.1157118E-04;  1.0000000E+02;  0.0000000E+00;  9.9994164E+01;  3.0739547E-03;  0.0000000E+00;  1.3911604E-05;  0.0000000E+00;
  7.9913414E-01;  9.9999998E-03;  3.9996234E-01;216;  3.0265053E-05;  0.0000000E+00; -6.4052442E-06;  9.9928341E+00;  4.0243122E-01; -7.7091634E-01;3; -6.0752337E-04;  0.0000000E+00;  3.6865946E-02;  0.0000000E+00;  0.0000000E+00;  0.0000000E+00;0;  3.0737582E-03;  9.8659546E+01;  0.0000000E+00; -1.0984566E-03;  1.0000000E+02;  0.0000000E+00;  9.9994972E+01;  3.0626103E-03;  0.0000000E+00;  1.1148023E-05;  0.0000000E+00;
  7.9918629E-01;  9.9999998E-03;  5.9992921E-01;217; -6.1369981E-05;  0.0000000E+00; -3.6793645E-05;  9.9929199E+00;  4.0245602E-01; -7.6168221E-01;3;  1.1483157E-02;  0.0000000E+00;  7.0996553E-02;  0.0000000E+00;  0.0000000E+00;  0.0000000E+00;0;  3.0369284E-03;  9.8644867E+01;  0.0000000E+00;  8.1954588E-04;  1.0000000E+02;  0.0000000E+00;  9.9997978E+01;  3.0333418E-03;  0.0000000E+00;  3.5865387E-06;  0.0000000E+00;
  7.9935610E-01;  9.9999998E-03;  7.9990840E-01;218; -9.2575880E-05;  0.0000000E+00; -6.2221829E-05;  9.9931812E+00;  4.0239707E-01; -7.3359525E-01;3;  5.0262090E-02;  0.0000000E+00;  1.0591244E-01;  0.0000000E+00;  0.0000000E+00;  0.0000000E+00;0;  2.9287362E-03;  9.8672073E+01;  0.0000000E+00;  1.0009104E-02;  1.0000000E+02;  0.0000000E+00;  1.0000302E+02;  2.9391549E-03;  0.0000000E+00; -1.0418767E-05;  0.0000000E+00;
  8.0056387E-01;  9.9999998E-03;  9.9997222E-01;219;  6.7152752E-04;  0.0000000E+00;  2.0260786E-05;  9.9931154E+00;  4.0232754E-01; -7.4064875E-01;3;  1.2700421E-01;  0.0000000E+00;  1.2054373E-01;  0.0000000E+00;  0.0000000E+00;  0.0000000E+00;0;  2.9691684E-03;  9.8706200E+01;  0.0000000E+00;  2.1721635E-02;  1.0000000E+02;  0.0000000E+00;  1.0000304E+02;  2.9684820E-03;  0.0000000E+00;  6.8634108E-07;  0.0000000E+00;
  1.0010916E+00;  9.9999998E-03;  3.9594483E-09;225;  5.0942856E-04;  0.0000000E+00; -3.8051988E-09;  9.9919081E+00;  4.0355656E-01; -8.7046438E-01;3; -5.7076844E-03;  0.0000000E+00; -5.4322086E-08;  0.0000000E+00;  0.0000000E+00;  0.0000000E+00;0;  4.4712187E-03;  9.8096725E+01;  0.0000000E+00;  3.5561975E-15;  1.0000000E+02;  0.0000000E+00;  9.9987282E+01;  4.4319457E-03;  0.0000000E+00;  3.9272931E-05;  0.0000000E+00;
  1.0005991E+00;  9.9999998E-03;  2.0007765E-01;226;  1.1493012E-04;  0.0000000E+00;  3.7738933E-05;  9.9918785E+00;  4.0359899E-01; -8.7367070E-01;3; -1.5053613E-03;  0.0000000E+00;  1.2159815E-02;  0.0000000E+00;  0.0000000E+00;  0.0000000E+00;0;  4.4663758E-03;  9.8078384E+01;  0.0000000E+00; -7.2846381E-04;  1.0000000E+02;  0.0000000E+00;  9.9986206E+01;  4.4274637E-03;  0.0000000E+00;  3.8912076E-05;  0.0000000E+00;
  1.0011889E+00;  9.9999998E-03;  4.0014073E-01;227;  1.9546642E-05;  0.0000000E+00;  3.9493669E-05;  9.9918489E+00;  4.0371302E-01; -8.7681198E-01;3;  3.3515485E-03;  0.0000000E+00;  2.8005503E-02;  0.0000000E+00;  0.0000000E+00;  0.0000000E+00;0;  4.4675344E-03;  9.8025856E+01;  0.0000000E+00; -2.1094654E-03;  1.0000000E+02;  0.0000000E+00;  9.9984329E+01;  4.4305921E-03;  0.0000000E+00;  3.6942118E-05;  0.0000000E+00;
  1.0011691E+00;  9.9999998E-03;  6.0011113E-01;228; -8.0173311E-05;  0.0000000E+00;  1.4029186E-05;  9.9919062E+00;  4.0381053E-01; -8.7065667E-01;3;  1.8035214E-02;  0.0000000E+00;  4.8613463E-02;  0.0000000E+00;  0.0000000E+00;  0.0000000E+00;0;  4.4322992E-03;  9.7979057E+01;  0.0000000E+00;  1.8112588E-03;  1.0000000E+02;  0.0000000E+00;  9.9982109E+01;  4.4044820E-03;  0.0000000E+00;  2.7817066E-05;  0.0000000E+00;
  1.0013852E+00;  9.9999998E-03;  8.0029410E-01;229;  8.6838531E-04;  0.0000000E+00;  2.7205769E-04;  9.9915295E+00;  4.0384355E-01; -9.1117907E-01;3;  7.9025902E-02;  0.0000000E+00;  2.1200782E-02;  0.0000000E+00;  0.0000000E+00;  0.0000000E+00;0;  4.6396642E-03;  9.7966957E+01;  0.0000000E+00;  1.9280581E-02;  1.0000000E+02;  0.0000000E+00;  9.9971428E+01;  4.5280815E-03;  0.0000000E+00;  1.1158266E-04;  0.0000000E+00;
  1.0064977E+00;  9.9999998E-03;  1.0003778E+00;230;  3.4856745E-03;  0.0000000E+00;  2.0688196E-04;  9.9896069E+00;  4.0454909E-01; -1.1180184E+00;3;  5.3886943E-03;  0.0000000E+00;  2.1567542E-02;  0.0000000E+00;  0.0000000E+00;  0.0000000E+00;0;  5.6705121E-03;  9.7595909E+01;  0.0000000E+00;  4.0472336E-03;  1.0000000E+02;  0.0000000E+00;  9.9966393E+01;  5.5808849E-03;  0.0000000E+00;  8.9627167E-05;  0.0000000E+00;
  1.2056528E+00;  9.9999998E-03;  4.2645096E-10;236;  5.0001726E-03;  0.0000000E+00; -1.3377682E-09;  9.9914093E+00;  4.0508178E-01; -9.2388189E-01;3; -1.4976763E-04;  0.0000000E+00; -6.4180490E-08;  0.0000000E+00;  0.0000000E+00;  0.0000000E+00;0;  5.9514190E-03;  9.7356438E+01;  0.0000000E+00; -1.2092559E-15;  1.0000000E+02;  0.0000000E+00;  9.9981560E+01;  5.8935047E-03;  0.0000000E+00;  5.7914280E-05;  0.0000000E+00;
  1.2058246E+00;  9.9999998E-03;  2.0011747E-01;237;  3.7787308E-03;  0.0000000E+00;  3.2557309E-05;  9.9913263E+00;  4.0514833E-01; -9.3279159E-01;3; -2.1648815E-05;  0.0000000E+00;  8.6618736E-03;  0.0000000E+00;  0.0000000E+00;  0.0000000E+00;0;  6.0089077E-03;  9.7325630E+01;  0.0000000E+00; -1.5966541E-03;  1.0000000E+02;  0.0000000E+00;  9.9977982E+01;  5.9511885E-03;  0.0000000E+00;  5.7718986E-05;  0.0000000E+00;
  1.2050896E+00;  9.9999998E-03;  4.0022880E-01;238;  1.9431753E-04;  0.0000000E+00; -2.5909752E-05;  9.9913120E+00;  4.0531120E-01; -9.3433124E-01;3;  7.1183057E-04;  0.0000000E+00;  1.5561034E-02;  0.0000000E+00;  0.0000000E+00;  0.0000000E+00;0;  5.9747817E-03;  9.7256516E+01;  0.0000000E+00; -5.1196343E-03;  1.0000000E+02;  0.0000000E+00;  9.9967896E+01;  5.9306039E-03;  0.0000000E+00;  4.4177810E-05;  0.0000000E+00;
  1.2034425E+00;  9.9999998E-03;  6.0004646E-01;239;  1.1959072E-04;  0.0000000E+00; -8.2111183E-05;  9.9913988E+00;  4.0538979E-01; -9.2497563E-01;3;  2.0620806E-02;  0.0000000E+00;  2.7104832E-02;  0.0000000E+00;  0.0000000E+00;  0.0000000E+00;0;  5.9077488E-03;  9.7216812E+01;  0.0000000E+00;  1.4309123E-03;  1.0000000E+02;  0.0000000E+00;  9.9973495E+01;  5.8989301E-03;  0.0000000E+00;  8.8188408E-06;  0.0000000E+00;
  1.2061176E+00;  9.9999998E-03;  8.0024034E-01;240;  3.0901625E-03;  0.0000000E+00;  1.3903226E-04;  9.9904070E+00;  4.0568861E-01; -1.0316341E+00;3;  3.3188704E-02;  0.0000000E+00; -1.0187081E-02;  0.0000000E+00;  0.0000000E+00;  0.0000000E+00;0;  6.5884143E-03;  9.7069099E+01;  0.0000000E+00;  6.7299069E-03;  1.0000000E+02;  0.0000000E+00;  9.9957359E+01;  6.4902920E-03;  0.0000000E+00;  9.8122167E-05;  0.0000000E+00;
  1.2090708E+00;  9.9999998E-03;  1.0003026E+00;241;  4.3274118E-03;  0.0000000E+00;  1.6572700E-04;  9.9894381E+00;  4.0623605E-01; -1.1358551E+00;3; -1.7457275E-02;  0.0000000E+00; -1.2296538E-02;  0.0000000E+00;  0.0000000E+00;  0.0000000E+00;0;  7.2735441E-03;  9.6789505E+01;  0.0000000E+00; -1.0091906E-03;  1.0000000E+02;  0.0000000E+00;  9.9958138E+01;  7.1671451E-03;  0.0000000E+00;  1.0639884E-04;  0.0000000E+00;
  1.4068034E+00;  9.9999998E-03; -1.6353029E-10;247;  5.1508467E-03;  0.0000000E+00;  8.5554861E-09;  9.9911118E+00;  4.0713915E-01; -9.5530087E-01;3;  1.7463935E-03;  0.0000000E+00;  1.1274093E-07;  0.0000000E+00;  0.0000000E+00;  0.0000000E+00;0;  7.5909751E-03;  9.6374130E+01;  0.0000000E+00;  3.0866347E-17;  1.0000000E+02;  0.0000000E+00;  9.9975998E+01;  7.5263986E-03;  0.0000000E+00;  6.4576307E-05;  0.0000000E+00;
  1.4074014E+00;  9.9999998E-03;  2.0023577E-01;248;  5.2135144E-03;  0.0000000E+00;  2.2166800E-04;  9.9909878E+00;  4.0719348E-01; -9.6862334E-01;3;  2.2300673E-03;  0.0000000E+00;  5.6267837E-03;  0.0000000E+00;  0.0000000E+00;  0.0000000E+00;0;  7.6995916E-03;  9.6354614E+01;  0.0000000E+00; -1.6022029E-03;  1.0000000E+02;  0.0000000E+00;  9.9966644E+01;  7.6127285E-03;  0.0000000E+00;  8.6862849E-05;  0.0000000E+00;
  1.4084097E+00;  9.9999998E-03;  4.0024370E-01;249;  4.6358742E-03;  0.0000000E+00;  1.6245132E-04;  9.9907570E+00;  4.0733409E-01; -9.9341118E-01;3;  7.3597260E-04;  0.0000000E+00;  7.8334371E-03;  0.0000000E+00;  0.0000000E+00;  0.0000000E+00;0;  7.9016490E-03;  9.6301727E+01;  0.0000000E+00; -6.8128863E-03;  1.0000000E+02;  0.0000000E+00;  9.9950172E+01;  7.7951434E-03;  0.0000000E+00;  1.0650539E-04;  0.0000000E+00;
  1.4075463E+00;  9.9999998E-03;  6.0008794E-01;250;  2.9590034E-03;  0.0000000E+00;  8.4289743E-05;  9.9907312E+00;  4.0739918E-01; -9.9616963E-01;3;  4.4486793E-03;  0.0000000E+00;  8.7977592E-03;  0.0000000E+00;  0.0000000E+00;  0.0000000E+00;0;  7.9164440E-03;  9.6270470E+01;  0.0000000E+00; -5.7895631E-03;  1.0000000E+02;  0.0000000E+00;  9.9948509E+01;  7.8141103E-03;  0.0000000E+00;  1.0233378E-04;  0.0000000E+00;
  1.4090476E+00;  9.9999998E-03;  8.0014104E-01;251;  4.4191075E-03;  0.0000000E+00;  8.7983455E-05;  9.9903898E+00;  4.0751204E-01; -1.0328707E+00;3;  1.3256785E-02;  0.0000000E+00; -9.6661691E-03;  0.0000000E+00;  0.0000000E+00;  0.0000000E+00;0;  8.2157515E-03;  9.6211998E+01;  0.0000000E+00;  2.3806021E-03;  1.0000000E+02;  0.0000000E+00;  9.9947792E+01;  8.1125069E-03;  0.0000000E+00;  1.0324490E-04;  0.0000000E+00;
  1.4115995E+00;  9.9999998E-03;  1.0002594E+00;252;  5.4252069E-03;  0.0000000E+00;  8.4013824E-05;  9.9899883E+00;  4.0779510E-01; -1.0760365E+00;3; -1.9078797E-02;  0.0000000E+00; -1.7446158E-02;  0.0000000E+00;  0.0000000E+00;  0.0000000E+00;0;  8.5767787E-03;  9.6069328E+01;  0.0000000E+00; -2.3925940E-03;  1.0000000E+02;  0.0000000E+00;  9.9949539E+01;  8.5104238E-03;  0.0000000E+00;  6.6354980E-05;  0.0000000E+00;
  1.6075372E+00;  9.9999998E-03; -8.0758678E-11;258;  5.0877910E-03;  0.0000000E+00;  1.1893972E-08;  9.9905796E+00;  4.0999860E-01; -1.0111831E+00;3;  1.8988770E-03;  0.0000000E+00;  1.0961492E-07;  0.0000000E+00;  0.0000000E+00;  0.0000000E+00;0;  9.8339636E-03;  9.5041046E+01;  0.0000000E+00; -9.6668923E-15;  1.0000000E+02;  0.0000000E+00;  9.9957336E+01;  9.7708181E-03;  0.0000000E+00;  6.3145810E-05;  0.0000000E+00;
  1.6080190E+00;  9.9999998E-03;  2.0001215E-01;259;  5.2022338E-03;  0.0000000E+00;  1.8622378E-04;  9.9905243E+00;  4.0999562E-01; -1.0171286E+00;3;  2.1236273E-03;  0.0000000E+00;  3.4026771E-03;  0.0000000E+00;  0.0000000E+00;  0.0000000E+00;0;  9.8970253E-03;  9.5049721E+01;  0.0000000E+00; -8.5835694E-04;  1.0000000E+02;  0.0000000E+00;  9.9949432E+01;  9.8045599E-03;  0.0000000E+00;  9.2465270E-05;  0.0000000E+00;
  1.6093042E+00;  9.9999998E-03;  3.9997110E-01;260;  5.4553375E-03;  0.0000000E+00;  1.2616707E-04;  9.9904318E+00;  4.0996641E-01; -1.0270329E+00;3;  2.3861476E-03;  0.0000000E+00;  5.3695077E-03;  0.0000000E+00;  0.0000000E+00;  0.0000000E+00;0;  1.0004793E-02;  9.5075691E+01;  0.0000000E+00; -3.5178342E-03;  1.0000000E+02;  0.0000000E+00;  9.9932922E+01;  9.8774470E-03;  0.0000000E+00;  1.2734636E-04;  0.0000000E+00;
  1.6105676E+00;  9.9999998E-03;  5.9991127E-01;261;  5.2943062E-03;  0.0000000E+00;  4.3458433E-05;  9.9904623E+00;  4.0986007E-01; -1.0237576E+00;3;  3.9204783E-03;  0.0000000E+00;  6.7618107E-03;  0.0000000E+00;  0.0000000E+00;  0.0000000E+00;0;  1.0011739E-02;  9.5126221E+01;  0.0000000E+00; -4.2780396E-03;  1.0000000E+02;  0.0000000E+00;  9.9932076E+01;  9.8859984E-03;  0.0000000E+00;  1.2574067E-04;  0.0000000E+00;
  1.6126217E+00;  9.9999998E-03;  8.0007541E-01;262;  6.0145739E-03;  0.0000000E+00;  2.8019733E-05;  9.9905033E+00;  4.0973017E-01; -1.0193232E+00;3;  4.5587951E-03;  0.0000000E+00; -3.3615070E-04;  0.0000000E+00;  0.0000000E+00;  0.0000000E+00;0;  9.9813463E-03;  9.5187698E+01;  0.0000000E+00; -5.1541260E-04;  1.0000000E+02;  0.0000000E+00;  9.9933037E+01;  9.8875435E-03;  0.0000000E+00;  9.3802868E-05;  0.0000000E+00;
  1.6149529E+00;  9.9999998E-03;  1.0002959E+00;263;  6.7399293E-03;  0.0000000E+00;  8.3214290E-05;  9.9905205E+00;  4.0963033E-01; -1.0174450E+00;3; -1.1305101E-02;  0.0000000E+00; -8.5251778E-03;  0.0000000E+00;  0.0000000E+00;  0.0000000E+00;0;  9.9752489E-03;  9.5234428E+01;  0.0000000E+00; -2.7435429E-03;  1.0000000E+02;  0.0000000E+00;  9.9935059E+01;  9.8818848E-03;  0.0000000E+00;  9.3363873E-05;  0.0000000E+00;
  1.8086853E+00;  9.9999998E-03;  1.2773869E-10;269;  5.0453972E-03;  0.0000000E+00;  5.4705125E-09;  9.9897947E+00;  4.1366920E-01; -1.0923060E+00;3;  1.6408607E-03;  0.0000000E+00;  9.9035216E-09;  0.0000000E+00;  0.0000000E+00;  0.0000000E+00;0;  1.2914677E-02;  9.3401459E+01;  0.0000000E+00; -1.1521225E-14;  1.0000000E+02;  0.0000000E+00;  9.9900215E+01;  1.2829224E-02;  0.0000000E+00;  8.5453095E-05;  0.0000000E+00;
  1.8091244E+00;  9.9999998E-03;  1.9973797E-01;270;  5.1638945E-03;  0.0000000E+00; -3.3736131E-05;  9.9898319E+00;  4.1358230E-01; -1.0882770E+00;3;  1.6959951E-03;  0.0000000E+00;  1.2949866E-03;  0.0000000E+00;  0.0000000E+00;  0.0000000E+00;0;  1.2872526E-02;  9.3446228E+01;  0.0000000E+00; -1.9026351E-04;  1.0000000E+02;  0.0000000E+00;  9.9896080E+01;  1.2772833E-02;  0.0000000E+00;  9.9693068E-05;  0.0000000E+00;
  1.8112687E+00;  9.9999998E-03;  3.9957076E-01;271;  5.6871376E-03;  0.0000000E+00; -3.0874740E-05;  9.9899588E+00;  4.1332233E-01; -1.0746413E+00;3;  1.1994758E-03;  0.0000000E+00;  3.3061071E-03;  0.0000000E+00;  0.0000000E+00;  0.0000000E+00;0;  1.2758740E-02;  9.3567299E+01;  0.0000000E+00; -6.7515066E-04;  1.0000000E+02;  0.0000000E+00;  9.9893211E+01;  1.2619438E-02;  0.0000000E+00;  1.3930221E-04;  0.0000000E+00;
  1.8147377E+00;  9.9999998E-03;  5.9976321E-01;272;  6.7009479E-03;  0.0000000E+00; -2.3669167E-05;  9.9901829E+00;  4.1295460E-01; -1.0505799E+00;3;  1.7216170E-03;  0.0000000E+00;  4.7513023E-03;  0.0000000E+00;  0.0000000E+00;  0.0000000E+00;0;  1.2533347E-02;  9.3739403E+01;  0.0000000E+00; -1.4303451E-03;  1.0000000E+02;  0.0000000E+00;  9.9890404E+01;  1.2370266E-02;  0.0000000E+00;  1.6308083E-04;  0.0000000E+00;
  1.8177550E+00;  9.9999998E-03;  8.0011356E-01;273;  8.0184769E-03;  0.0000000E+00;  1.4328723E-05;  9.9904919E+00;  4.1249639E-01; -1.0174735E+00;3;  1.6125500E-03;  0.0000000E+00;  4.2971037E-03;  0.0000000E+00;  0.0000000E+00;  0.0000000E+00;0;  1.2177601E-02;  9.3951149E+01;  0.0000000E+00; -2.6266407E-03;  1.0000000E+02;  0.0000000E+00;  9.9894066E+01;  1.2038409E-02;  0.0000000E+00;  1.3919172E-04;  0.0000000E+00;
  1.8197203E+00;  9.9999998E-03;  1.0004908E+00;274;  8.7579405E-03;  0.0000000E+00;  1.0806164E-04;  9.9908323E+00;  4.1198087E-01; -9.8101211E-01;3; -2.3234561E-03;  0.0000000E+00;  7.2279375E-04;  0.0000000E+00;  0.0000000E+00;  0.0000000E+00;0;  1.1767177E-02;  9.4190140E+01;  0.0000000E+00; -3.7312903E-03;  1.0000000E+02;  0.0000000E+00;  9.9899063E+01;  1.1630390E-02;  0.0000000E+00;  1.3678733E-04;  0.0000000E+00;
  2.0128839E+00;  9.9999998E-03; -1.6442099E-10;280;  5.3942879E-03;  0.0000000E+00;  7.9168032E-09;  9.9890537E+00;  4.1777891E-01; -1.1643192E+00;3;  1.1901075E-04;  0.0000000E+00; -4.9657899E-08;  0.0000000E+00;  0.0000000E+00;  0.0000000E+00;0;  1.6711056E-02;  9.1680542E+01;  0.0000000E+00; -3.4659206E-14;  1.0000000E+02;  0.0000000E+00;  9.9769501E+01;  1.6512070E-02;  0.0000000E+00;  1.9898597E-04;  0.0000000E+00;
  2.0135994E+00;  9.9999998E-03;  1.9955106E-01;281;  5.6940466E-03;  0.0000000E+00; -1.8632616E-04;  9.9891644E+00;  4.1760442E-01; -1.1524912E+00;3;  9.4119365E-05;  0.0000000E+00;  2.3219961E-04;  0.0000000E+00;  0.0000000E+00;  0.0000000E+00;0;  1.6553752E-02;  9.1759880E+01;  0.0000000E+00; -5.8847596E-05;  1.0000000E+02;  0.0000000E+00;  9.9768379E+01;  1.6349304E-02;  0.0000000E+00;  2.0444790E-04;  0.0000000E+00;
  2.0164788E+00;  9.9999998E-03;  3.9920124E-01;282;  6.9234073E-03;  0.0000000E+00; -2.7707810E-04;  9.9894848E+00;  4.1707933E-01; -1.1183071E+00;3;  5.5256410E-04;  0.0000000E+00;  1.1415363E-03;  0.0000000E+00;  0.0000000E+00;  0.0000000E+00;0;  1.6106784E-02;  9.1977173E+01;  0.0000000E+00; -9.9572797E-05;  1.0000000E+02;  0.0000000E+00;  9.9789482E+01;  1.5905874E-02;  0.0000000E+00;  2.0091129E-04;  0.0000000E+00;
  2.0257099E+00;  9.9999998E-03;  5.9969866E-01;283;  1.0878916E-02;  0.0000000E+00; -8.0777514E-05;  9.9899035E+00;  4.1643143E-01; -1.0733041E+00;3; -1.9213702E-03;  0.0000000E+00;  2.4030393E-03;  0.0000000E+00;  0.0000000E+00;  0.0000000E+00;0;  1.5615307E-02;  9.2264473E+01;  0.0000000E+00; -2.6350841E-03;  1.0000000E+02;  0.0000000E+00;  9.9797661E+01;  1.5343663E-02;  0.0000000E+00;  2.7164357E-04;  0.0000000E+00;
  2.0284011E+00;  9.9999998E-03;  8.0037153E-01;284;  1.2189337E-02;  0.0000000E+00;  5.5921751E-05;  9.9904537E+00;  4.1565895E-01; -1.0146961E+00;3;  4.4968844E-04;  0.0000000E+00;  3.4311954E-03;  0.0000000E+00;  0.0000000E+00;  0.0000000E+00;0;  1.4812690E-02;  9.2608818E+01;  0.0000000E+00; -9.8449318E-03;  1.0000000E+02;  0.0000000E+00;  9.9804703E+01;  1.4550757E-02;  0.0000000E+00;  2.6193314E-04;  0.0000000E+00;
  2.0278597E+00;  9.9999998E-03;  1.0009950E+00;285;  1.2165029E-02;  0.0000000E+00;  1.9640200E-04;  9.9910078E+00;  4.1481555E-01; -9.5579946E-01;3; -4.3874555E-03;  0.0000000E+00;  3.0372546E-03;  0.0000000E+00;  0.0000000E+00;  0.0000000E+00;0;  1.3919133E-02;  9.2990349E+01;  0.0000000E+00; -1.0624755E-02;  1.0000000E+02;  0.0000000E+00;  9.9813438E+01;  1.3701367E-02;  0.0000000E+00;  2.1776580E-04;  0.0000000E+00;
  2.2306130E+00;  9.9999998E-03; -2.2742956E-09;291;  9.6719991E-03;  0.0000000E+00;  3.0039966E-09;  9.9887037E+00;  4.2171159E-01; -1.1850212E+00;3; -3.4054380E-03;  0.0000000E+00; -1.0453334E-07;  0.0000000E+00;  0.0000000E+00;  0.0000000E+00;0;  2.0817667E-02;  9.0194687E+01;  0.0000000E+00; -3.5060317E-14;  1.0000000E+02;  0.0000000E+00;  9.9521660E+01;  2.0302532E-02;  0.0000000E+00;  5.1513501E-04;  0.0000000E+00;
  2.2310081E+00;  9.9999998E-03;  1.9952630E-01;292;  1.0049628E-02;  0.0000000E+00; -2.5584231E-04;  9.9888620E+00;  4.2146915E-01; -1.1683482E+00;3; -2.7703654E-03;  0.0000000E+00; -4.1228854E-05;  0.0000000E+00;  0.0000000E+00;  0.0000000E+00;0;  2.0533031E-02;  9.0299095E+01;  0.0000000E+00; -2.6619287E-05;  1.0000000E+02;  0.0000000E+00;  9.9524048E+01;  2.0016763E-02;  0.0000000E+00;  5.1626668E-04;  0.0000000E+00;
  2.2326472E+00;  9.9999998E-03;  3.9916402E-01;293;  1.1591643E-02;  0.0000000E+00; -3.8985000E-04;  9.9893265E+00;  4.2073491E-01; -1.1194792E+00;3; -3.8328583E-03;  0.0000000E+00;  1.8970396E-04;  0.0000000E+00;  0.0000000E+00;  0.0000000E+00;0;  1.9708343E-02;  9.0586510E+01;  0.0000000E+00; -1.2089841E-04;  1.0000000E+02;  0.0000000E+00;  9.9566917E+01;  1.9230241E-02;  0.0000000E+00;  4.7810268E-04;  0.0000000E+00;
  2.2353661E+00;  9.9999998E-03;  5.9994453E-01;294;  1.5402429E-02;  0.0000000E+00; -1.4415270E-04;  9.9899635E+00;  4.1973957E-01; -1.0523953E+00;3;  9.0179953E-04;  0.0000000E+00;  5.8673322E-04;  0.0000000E+00;  0.0000000E+00;  0.0000000E+00;0;  1.8577078E-02;  9.0988907E+01;  0.0000000E+00; -5.1307981E-04;  1.0000000E+02;  0.0000000E+00;  9.9606361E+01;  1.8109204E-02;  0.0000000E+00;  4.6787356E-04;  0.0000000E+00;
  2.2377667E+00;  9.9999998E-03;  8.0106372E-01;295;  1.6604932E-02;  0.0000000E+00;  1.4973679E-04;  9.9906282E+00;  4.1876748E-01; -9.8249573E-01;3;  1.1213251E-03;  0.0000000E+00;  9.0682280E-04;  0.0000000E+00;  0.0000000E+00;  0.0000000E+00;0;  1.7352838E-02;  9.1416321E+01;  0.0000000E+00; -2.7982492E-03;  1.0000000E+02;  0.0000000E+00;  9.9616127E+01;  1.6915232E-02;  0.0000000E+00;  4.3760554E-04;  0.0000000E+00;
  2.2384367E+00;  9.9999998E-03;  1.0020393E+00;296;  1.5816618E-02;  0.0000000E+00;  4.3154164E-04;  9.9912386E+00;  4.1788232E-01; -9.1845298E-01;3;  1.0245201E-03;  0.0000000E+00;  8.2075095E-04;  0.0000000E+00;  0.0000000E+00;  0.0000000E+00;0;  1.6234564E-02;  9.1807693E+01;  0.0000000E+00; -7.3207705E-03;  1.0000000E+02;  0.0000000E+00;  9.9625160E+01;  1.5822457E-02;  0.0000000E+00;  4.1210614E-04;  0.0000000E+00;
  2.4577737E+00;  9.9999998E-03; -1.6425102E-09;302;  2.3196617E-02;  0.0000000E+00; -8.1763210E-09;  9.9890795E+00;  4.2483526E-01; -1.1149194E+00;3; -3.5761076E-03;  0.0000000E+00;  1.6551269E-08;  0.0000000E+00;  0.0000000E+00;  0.0000000E+00;0;  2.4086263E-02;  8.9231438E+01;  0.0000000E+00;  2.0600493E-15;  1.0000000E+02;  0.0000000E+00;  9.9128174E+01;  2.2931082E-02;  0.0000000E+00;  1.1551810E-03;  0.0000000E+00;
  2.4561069E+00;  9.9999998E-03;  1.9966318E-01;303;  2.2671245E-02;  0.0000000E+00; -2.3835353E-04;  9.9892130E+00;  4.2460626E-01; -1.1015676E+00;3; -3.6170951E-03;  0.0000000E+00; -3.3533586E-05;  0.0000000E+00;  0.0000000E+00;  0.0000000E+00;0;  2.3762144E-02;  8.9320801E+01;  0.0000000E+00; -3.3946703E-06;  1.0000000E+02;  0.0000000E+00;  9.9137733E+01;  2.2618975E-02;  0.0000000E+00;  1.1431689E-03;  0.0000000E+00;
  2.4516296E+00;  9.9999998E-03;  3.9958388E-01;304;  2.1051243E-02;  0.0000000E+00; -3.5992434E-04;  9.9896126E+00;  4.2391655E-01; -1.0614436E+00;3; -2.1587778E-03;  0.0000000E+00; -6.2254148E-05;  0.0000000E+00;  0.0000000E+00;  0.0000000E+00;0;  2.2806874E-02;  8.9565544E+01;  0.0000000E+00; -1.2909697E-06;  1.0000000E+02;  0.0000000E+00;  9.9201836E+01;  2.1763962E-02;  0.0000000E+00;  1.0429114E-03;  0.0000000E+00;
  2.4451735E+00;  9.9999998E-03;  6.0093325E-01;305;  1.8174645E-02;  0.0000000E+00; -6.8958599E-07;  9.9901571E+00;  4.2303795E-01; -1.0068061E+00;3; -6.5147446E-04;  0.0000000E+00; -6.7119654E-05;  0.0000000E+00;  0.0000000E+00;  0.0000000E+00;0;  2.1510733E-02;  8.9905594E+01;  0.0000000E+00;  3.3389133E-05;  1.0000000E+02;  0.0000000E+00;  9.9246162E+01;  2.0572428E-02;  0.0000000E+00;  9.3830511E-04;  0.0000000E+00;
  2.4406395E+00;  9.9999998E-03;  8.0248892E-01;306;  1.6572086E-02;  0.0000000E+00;  4.6724573E-04;  9.9907131E+00;  4.2218220E-01; -9.5056176E-01;3;  9.8091050E-04;  0.0000000E+00; -3.1298646E-04;  0.0000000E+00;  0.0000000E+00;  0.0000000E+00;0;  2.0192375E-02;  9.0266624E+01;  0.0000000E+00;  1.7848489E-04;  1.0000000E+02;  0.0000000E+00;  9.9262062E+01;  1.9329647E-02;  0.0000000E+00;  8.6272933E-04;  0.0000000E+00;
  2.4389243E+00;  9.9999998E-03;  1.0038396E+00;307;  1.5787270E-02;  0.0000000E+00;  9.0077223E-04;  9.9912043E+00;  4.2142630E-01; -9.0051872E-01;3;  1.2063948E-03;  0.0000000E+00; -3.0295266E-04;  0.0000000E+00;  0.0000000E+00;  0.0000000E+00;0;  1.9101391E-02;  9.0586029E+01;  0.0000000E+00;  1.0160832E-03;  1.0000000E+02;  0.0000000E+00;  9.9277321E+01;  1.8276135E-02;  0.0000000E+00;  8.2525599E-04;  0.0000000E+00;
  2.6710992E+00;  9.9999998E-03; -2.5563403E-09;313;  3.1063398E-02;  0.0000000E+00; -1.6658257E-08;  9.9897099E+00;  4.2764235E-01; -1.0119953E+00;3; -1.1273058E-03;  0.0000000E+00; -7.1533037E-09;  0.0000000E+00;  0.0000000E+00;  0.0000000E+00;0;  2.6472379E-02;  8.8541412E+01;  0.0000000E+00;  5.8112295E-14;  1.0000000E+02;  0.0000000E+00;  9.8607399E+01;  2.4380160E-02;  0.0000000E+00;  2.0922190E-03;  0.0000000E+00;
  2.6687942E+00;  9.9999998E-03;  1.9991066E-01;314;  2.9927082E-02;  0.0000000E+00; -1.8741825E-04;  9.9897766E+00;  4.2751759E-01; -1.0058703E+00;3; -4.5336990E-04;  0.0000000E+00; -1.6259692E-05;  0.0000000E+00;  0.0000000E+00;  0.0000000E+00;0;  2.6262073E-02;  8.8576424E+01;  0.0000000E+00; -1.3890769E-05;  1.0000000E+02;  0.0000000E+00;  9.8627487E+01;  2.4205156E-02;  0.0000000E+00;  2.0569179E-03;  0.0000000E+00;
  2.6622107E+00;  9.9999998E-03;  4.0084961E-01;315;  2.6772365E-02;  0.0000000E+00; -1.4393583E-04;  9.9899845E+00;  4.2717558E-01; -9.8663515E-01;3;  4.9513186E-05;  0.0000000E+00; -3.3884367E-04;  0.0000000E+00;  0.0000000E+00;  0.0000000E+00;0;  2.5612138E-02;  8.8674248E+01;  0.0000000E+00;  1.1395989E-05;  1.0000000E+02;  0.0000000E+00;  9.8678864E+01;  2.3710337E-02;  0.0000000E+00;  1.9018018E-03;  0.0000000E+00;
  2.6543176E+00;  9.9999998E-03;  6.0290378E-01;316;  2.1753911E-02;  0.0000000E+00;  4.4087952E-04;  9.9902506E+00;  4.2683178E-01; -9.6188343E-01;3; -1.0871190E-03;  0.0000000E+00; -2.3206396E-04;  0.0000000E+00;  0.0000000E+00;  0.0000000E+00;0;  2.4765881E-02;  8.8815559E+01;  0.0000000E+00;  2.3191559E-04;  1.0000000E+02;  0.0000000E+00;  9.8689636E+01;  2.3011681E-02;  0.0000000E+00;  1.7541999E-03;  0.0000000E+00;
  2.6476381E+00;  9.9999998E-03;  8.0484301E-01;317;  1.7831001E-02;  0.0000000E+00;  1.1612326E-03;  9.9905176E+00;  4.2646280E-01; -9.3671936E-01;3; -1.2584901E-03;  0.0000000E+00; -5.1406358E-04;  0.0000000E+00;  0.0000000E+00;  0.0000000E+00;0;  2.3970861E-02;  8.8966263E+01;  0.0000000E+00;  4.3019676E-04;  1.0000000E+02;  0.0000000E+00;  9.8697304E+01;  2.2255674E-02;  0.0000000E+00;  1.7151873E-03;  0.0000000E+00;
  2.6428490E+00;  9.9999998E-03;  1.0066057E+00;318;  1.5742062E-02;  0.0000000E+00;  1.7568154E-03;  9.9907532E+00;  4.2612571E-01; -9.1428626E-01;3;  1.2261625E-03;  0.0000000E+00; -7.5649086E-04;  0.0000000E+00;  0.0000000E+00;  0.0000000E+00;0;  2.3268718E-02;  8.9098572E+01;  0.0000000E+00;  1.0806421E-03;  1.0000000E+02;  0.0000000E+00;  9.8710976E+01;  2.1609606E-02;  0.0000000E+00;  1.6591125E-03;  0.0000000E+00;
  2.8770158E+00;  9.9999998E-03; -1.9636328E-09;324;  3.5206657E-02;  0.0000000E+00; -3.5888064E-09;  9.9900656E+00;  4.3118310E-01; -9.4064862E-01;3;  2.7850857E-03;  0.0000000E+00;  1.2943846E-07;  0.0000000E+00;  0.0000000E+00;  0.0000000E+00;0;  2.9248511E-02;  8.7646957E+01;  0.0000000E+00;  8.4811634E-14;  1.0000000E+02;  0.0000000E+00;  9.7991486E+01;  2.5962129E-02;  0.0000000E+00;  3.2863829E-03;  0.0000000E+00;
  2.8746405E+00;  9.9999998E-03;  2.0080735E-01;325;  3.3302400E-02;  0.0000000E+00; -5.5836372E-05;  9.9900742E+00;  4.3119386E-01; -9.4023573E-01;3;  3.3044054E-03;  0.0000000E+00; -3.8002774E-05;  0.0000000E+00;  0.0000000E+00;  0.0000000E+00;0;  2.9180942E-02;  8.7624855E+01;  0.0000000E+00;  1.2390356E-05;  1.0000000E+02;  0.0000000E+00;  9.8010834E+01;  2.5955971E-02;  0.0000000E+00;  3.2249715E-03;  0.0000000E+00;
  2.8696795E+00;  9.9999998E-03;  4.0330708E-01;326;  2.9911691E-02;  0.0000000E+00;  4.2920993E-04;  9.9900818E+00;  4.3136105E-01; -9.4029355E-01;3;  2.1008223E-03;  0.0000000E+00; -1.4824894E-03;  0.0000000E+00;  0.0000000E+00;  0.0000000E+00;0;  2.9031105E-02;  8.7566040E+01;  0.0000000E+00;  3.8363312E-05;  1.0000000E+02;  0.0000000E+00;  9.8000420E+01;  2.5939237E-02;  0.0000000E+00;  3.0918685E-03;  0.0000000E+00;
  2.8637741E+00;  9.9999998E-03;  6.0569763E-01;327;  2.6087506E-02;  0.0000000E+00;  1.4134257E-03;  9.9900599E+00;  4.3160832E-01; -9.4333649E-01;3;  1.5780313E-03;  0.0000000E+00; -6.3195970E-04;  0.0000000E+00;  0.0000000E+00;  0.0000000E+00;0;  2.8989732E-02;  8.7486183E+01;  0.0000000E+00; -1.0613519E-04;  1.0000000E+02;  0.0000000E+00;  9.7977402E+01;  2.5916100E-02;  0.0000000E+00;  3.0736320E-03;  0.0000000E+00;
  2.8590567E+00;  9.9999998E-03;  8.0796713E-01;328;  2.1316053E-02;  0.0000000E+00;  2.4081741E-03;  9.9899797E+00;  4.3185523E-01; -9.5168871E-01;3; -1.2630399E-03;  0.0000000E+00; -5.3678418E-04;  0.0000000E+00;  0.0000000E+00;  0.0000000E+00;0;  2.9136758E-02;  8.7398811E+01;  0.0000000E+00; -8.7130989E-04;  1.0000000E+02;  0.0000000E+00;  9.7963676E+01;  2.5924398E-02;  0.0000000E+00;  3.2123600E-03;  0.0000000E+00;
  2.8559923E+00;  9.9999998E-03;  1.0102245E+00;329;  1.9706186E-02;  0.0000000E+00;  3.1496307E-03;  9.9899721E+00;  4.3207479E-01; -9.5292968E-01;3; -2.6455796E-03;  0.0000000E+00; -1.0036322E-03;  0.0000000E+00;  0.0000000E+00;  0.0000000E+00;0;  2.9089227E-02;  8.7320099E+01;  0.0000000E+00; -1.2245134E-03;  1.0000000E+02;  0.0000000E+00;  9.7951088E+01;  2.5952775E-02;  0.0000000E+00;  3.1364525E-03;  0.0000000E+00;
  3.0832300E+00;  9.9999998E-03; -4.3815565E-09;335;  3.6008153E-02;  0.0000000E+00; -9.2233350E-09;  9.9900074E+00;  4.3597105E-01; -9.1905075E-01;3;  2.9104080E-03;  0.0000000E+00;  1.6272145E-07;  0.0000000E+00;  0.0000000E+00;  0.0000000E+00;0;  3.3174500E-02;  8.6316284E+01;  0.0000000E+00;  7.1137988E-14;  1.0000000E+02;  0.0000000E+00;  9.7327599E+01;  2.8499255E-02;  0.0000000E+00;  4.6752463E-03;  0.0000000E+00;
  3.0820293E+00;  9.9999998E-03;  2.0277886E-01;336;  3.4810778E-02;  0.0000000E+00;  3.5542692E-04;  9.9899778E+00;  4.3613631E-01; -9.2186064E-01;3;  2.7657389E-03;  0.0000000E+00; -2.6102585E-04;  0.0000000E+00;  0.0000000E+00;  0.0000000E+00;0;  3.3253096E-02;  8.6255157E+01;  0.0000000E+00;  6.4135947E-06;  1.0000000E+02;  0.0000000E+00;  9.7322510E+01;  2.8636578E-02;  0.0000000E+00;  4.6165162E-03;  0.0000000E+00;
  3.0793617E+00;  9.9999998E-03;  4.0592462E-01;337;  3.2233059E-02;  0.0000000E+00;  1.9107498E-03;  9.9898005E+00;  4.3664333E-01; -9.3847996E-01;3;  3.5612998E-04;  0.0000000E+00; -3.1364744E-03;  0.0000000E+00;  0.0000000E+00;  0.0000000E+00;0;  3.3778694E-02;  8.6088905E+01;  0.0000000E+00; -7.6668817E-05;  1.0000000E+02;  0.0000000E+00;  9.7279823E+01;  2.9024057E-02;  0.0000000E+00;  4.7546378E-03;  0.0000000E+00;
  3.0769289E+00;  9.9999998E-03;  6.0861409E-01;338;  3.0016849E-02;  0.0000000E+00;  2.9502441E-03;  9.9895906E+00;  4.3731955E-01; -9.5804816E-01;3; -1.0015259E-03;  0.0000000E+00;  4.8756160E-04;  0.0000000E+00;  0.0000000E+00;  0.0000000E+00;0;  3.4474734E-02;  8.5858490E+01;  0.0000000E+00; -5.6054862E-04;  1.0000000E+02;  0.0000000E+00;  9.7235252E+01;  2.9590592E-02;  0.0000000E+00;  4.8841429E-03;  0.0000000E+00;
  3.0757668E+00;  9.9999998E-03;  8.1135911E-01;339;  2.9003421E-02;  0.0000000E+00;  3.8824964E-03;  9.9893618E+00;  4.3806887E-01; -9.7924298E-01;3; -1.4595563E-03;  0.0000000E+00; -9.6859358E-04;  0.0000000E+00;  0.0000000E+00;  0.0000000E+00;0;  3.5169076E-02;  8.5610535E+01;  0.0000000E+00; -1.4080303E-03;  1.0000000E+02;  0.0000000E+00;  9.7181061E+01;  3.0236717E-02;  0.0000000E+00;  4.9323593E-03;  0.0000000E+00;
  3.0750520E+00;  9.9999998E-03;  1.0141659E+00;340;  2.8770950E-02;  0.0000000E+00;  4.9347193E-03;  9.9891386E+00;  4.3873358E-01; -9.9984396E-01;3; -1.2917966E-03;  0.0000000E+00; -7.5325934E-04;  0.0000000E+00;  0.0000000E+00;  0.0000000E+00;0;  3.5901219E-02;  8.5387718E+01;  0.0000000E+00; -1.6540639E-03;  1.0000000E+02;  0.0000000E+00;  9.7136208E+01;  3.0824998E-02;  0.0000000E+00;  5.0762212E-03;  0.0000000E+00;
  3.2961261E+00;  9.9999998E-03;  1.4887506E-09;346;  4.0149480E-02;  0.0000000E+00; -3.4800272E-09;  9.9896631E+00;  4.4178659E-01; -9.3391109E-01;3;  1.5346424E-03;  0.0000000E+00;  1.8546137E-07;  0.0000000E+00;  0.0000000E+00;  0.0000000E+00;0;  3.8316887E-02;  8.4620331E+01;  0.0000000E+00;  1.6988391E-14;  1.0000000E+02;  0.0000000E+00;  9.6674706E+01;  3.2170098E-02;  0.0000000E+00;  6.1467877E-03;  0.0000000E+00;
  3.2960577E+00;  9.9999998E-03;  2.0485911E-01;347;  3.9855674E-02;  0.0000000E+00;  1.7294913E-03;  9.9895887E+00;  4.4204608E-01; -9.4064647E-01;3;  1.2435660E-03;  0.0000000E+00; -1.0109365E-03;  0.0000000E+00;  0.0000000E+00;  0.0000000E+00;0;  3.8595080E-02;  8.4547905E+01;  0.0000000E+00;  8.6184860E-05;  1.0000000E+02;  0.0000000E+00;  9.6643082E+01;  3.2390770E-02;  0.0000000E+00;  6.2043099E-03;  0.0000000E+00;
  3.2957151E+00;  9.9999998E-03;  4.0809694E-01;348;  3.8911138E-02;  0.0000000E+00;  3.0113384E-03;  9.9893990E+00;  4.4263837E-01; -9.5784485E-01;3;  2.7668383E-04;  0.0000000E+00; -7.9069950E-04;  0.0000000E+00;  0.0000000E+00;  0.0000000E+00;0;  3.9287239E-02;  8.4354004E+01;  0.0000000E+00;  2.7112835E-04;  1.0000000E+02;  0.0000000E+00;  9.6602364E+01;  3.2972701E-02;  0.0000000E+00;  6.3145389E-03;  0.0000000E+00;
  3.2956567E+00;  9.9999998E-03;  6.1125624E-01;349;  3.8209941E-02;  0.0000000E+00;  4.2595989E-03;  9.9891376E+00;  4.4345722E-01; -9.8143625E-01;3; -4.6499650E-04;  0.0000000E+00;  4.1000074E-04;  0.0000000E+00;  0.0000000E+00;  0.0000000E+00;0;  4.0293243E-02;  8.4089951E+01;  0.0000000E+00;  3.8222119E-04;  1.0000000E+02;  0.0000000E+00;  9.6543251E+01;  3.3772271E-02;  0.0000000E+00;  6.5209721E-03;  0.0000000E+00;
  3.2963843E+00;  9.9999998E-03;  8.1446022E-01;350;  3.8214017E-02;  0.0000000E+00;  5.3798328E-03;  9.9888678E+00;  4.4433746E-01; -1.0057889E+00;3; -6.6927541E-04;  0.0000000E+00; -6.4206257E-04;  0.0000000E+00;  0.0000000E+00;  0.0000000E+00;0;  4.1269567E-02;  8.3810165E+01;  0.0000000E+00;  4.5438996E-04;  1.0000000E+02;  0.0000000E+00;  9.6478172E+01;  3.4625605E-02;  0.0000000E+00;  6.6439635E-03;  0.0000000E+00;
  3.2973461E+00;  9.9999998E-03;  1.0178062E+00;351;  3.8793039E-02;  0.0000000E+00;  6.6427905E-03;  9.9886322E+00;  4.4512284E-01; -1.0270022E+00;3; -3.1131963E-04;  0.0000000E+00;  8.9220679E-04;  0.0000000E+00;  0.0000000E+00;  0.0000000E+00;0;  4.2207297E-02;  8.3559563E+01;  0.0000000E+00;  4.6489900E-04;  1.0000000E+02;  0.0000000E+00;  9.6422356E+01;  3.5386205E-02;  0.0000000E+00;  6.8210936E-03;  0.0000000E+00;
  3.5148292E+00;  9.9999998E-03;  3.5504688E-09;357;  4.7246091E-02;  0.0000000E+00;  1.9204656E-09;  9.9892588E+00;  4.4780955E-01; -9.6173334E-01;3;  1.0970283E-03;  0.0000000E+00;  2.1615634E-07;  0.0000000E+00;  0.0000000E+00;  0.0000000E+00;0;  4.3868873E-02;  8.2853943E+01;  0.0000000E+00; -2.5148744E-14;  1.0000000E+02;  0.0000000E+00;  9.6090942E+01;  3.6365602E-02;  0.0000000E+00;  7.5032702E-03;  0.0000000E+00;
  3.5154579E+00;  9.9999998E-03;  2.0588383E-01;358;  4.7508165E-02;  0.0000000E+00;  2.5631494E-03;  9.9891891E+00;  4.4804639E-01; -9.6796072E-01;3;  1.1348494E-03;  0.0000000E+00; -6.7570637E-04;  0.0000000E+00;  0.0000000E+00;  0.0000000E+00;0;  4.4167615E-02;  8.2796234E+01;  0.0000000E+00;  1.8925456E-04;  1.0000000E+02;  0.0000000E+00;  9.6055351E+01;  3.6563799E-02;  0.0000000E+00;  7.6038158E-03;  0.0000000E+00;
  3.5166130E+00;  9.9999998E-03;  4.0955904E-01;359;  4.7636505E-02;  0.0000000E+00;  3.6715490E-03;  9.9890671E+00;  4.4852600E-01; -9.7881687E-01;3;  6.3899631E-04;  0.0000000E+00; -3.4327700E-04;  0.0000000E+00;  0.0000000E+00;  0.0000000E+00;0;  4.4682674E-02;  8.2644318E+01;  0.0000000E+00;  7.5854536E-04;  1.0000000E+02;  0.0000000E+00;  9.6023567E+01;  3.7065372E-02;  0.0000000E+00;  7.6173018E-03;  0.0000000E+00;
  3.5178592E+00;  9.9999998E-03;  6.1322457E-01;360;  4.7687918E-02;  0.0000000E+00;  5.2610403E-03;  9.9888630E+00;  4.4917631E-01; -9.9708748E-01;3;  1.4007726E-04;  0.0000000E+00;  4.8688092E-04;  0.0000000E+00;  0.0000000E+00;  0.0000000E+00;0;  4.5577131E-02;  8.2442474E+01;  0.0000000E+00;  1.5692045E-03;  1.0000000E+02;  0.0000000E+00;  9.5977104E+01;  3.7715357E-02;  0.0000000E+00;  7.8617763E-03;  0.0000000E+00;
  3.5193925E+00;  9.9999998E-03;  8.1693232E-01;361;  4.7956590E-02;  0.0000000E+00;  6.5623559E-03;  9.9886789E+00;  4.4985563E-01; -1.0135349E+00;3; -1.2516185E-04;  0.0000000E+00; -4.1648929E-04;  0.0000000E+00;  0.0000000E+00;  0.0000000E+00;0;  4.6329722E-02;  8.2234016E+01;  0.0000000E+00;  2.1467463E-03;  1.0000000E+02;  0.0000000E+00;  9.5925957E+01;  3.8373921E-02;  0.0000000E+00;  7.9557998E-03;  0.0000000E+00;
  3.5209794E+00;  9.9999998E-03;  1.0207837E+00;362;  4.8677232E-02;  0.0000000E+00;  7.9758773E-03;  9.9885387E+00;  4.5045543E-01; -1.0260311E+00;3;  2.5273810E-04;  0.0000000E+00;  1.7197214E-03;  0.0000000E+00;  0.0000000E+00;  0.0000000E+00;0;  4.6971615E-02;  8.2050400E+01;  0.0000000E+00;  1.5499664E-03;  1.0000000E+02;  0.0000000E+00;  9.5883072E+01;  3.8944624E-02;  0.0000000E+00;  8.0269910E-03;  0.0000000E+00;
  3.7373765E+00;  9.9999998E-03;  4.0797685E-09;368;  5.6279618E-02;  0.0000000E+00;  2.9404075E-09;  9.9889927E+00;  4.5319235E-01; -9.8150003E-01;3;  1.5796854E-03;  0.0000000E+00;  2.4578952E-07;  0.0000000E+00;  0.0000000E+00;  0.0000000E+00;0;  4.8751503E-02;  8.1301842E+01;  0.0000000E+00; -1.3915217E-14;  1.0000000E+02;  0.0000000E+00;  9.5607727E+01;  4.0159449E-02;  0.0000000E+00;  8.5920552E-03;  0.0000000E+00;
  3.7383451E+00;  9.9999998E-03;  2.0543195E-01;369;  5.6768131E-02;  0.0000000E+00;  2.5723574E-03;  9.9889593E+00;  4.5330828E-01; -9.8446524E-01;3;  1.6352336E-03;  0.0000000E+00;  1.1989268E-04;  0.0000000E+00;  0.0000000E+00;  0.0000000E+00;0;  4.8914984E-02;  8.1269119E+01;  0.0000000E+00;  1.5430273E-04;  1.0000000E+02;  0.0000000E+00;  9.5596344E+01;  4.0264208E-02;  0.0000000E+00;  8.6507769E-03;  0.0000000E+00;
  3.7401855E+00;  9.9999998E-03;  4.1019419E-01;370;  5.7451647E-02;  0.0000000E+00;  4.0502744E-03;  9.9889097E+00;  4.5359835E-01; -9.8885548E-01;3;  1.4379605E-03;  0.0000000E+00; -8.7771052E-04;  0.0000000E+00;  0.0000000E+00;  0.0000000E+00;0;  4.9150817E-02;  8.1185654E+01;  0.0000000E+00;  6.8903150E-04;  1.0000000E+02;  0.0000000E+00;  9.5571701E+01;  4.0519182E-02;  0.0000000E+00;  8.6316373E-03;  0.0000000E+00;
  3.7418020E+00;  9.9999998E-03;  6.1449391E-01;371;  5.7727292E-02;  0.0000000E+00;  5.8366358E-03;  9.9888210E+00;  4.5394248E-01; -9.9675578E-01;3;  1.0011925E-03;  0.0000000E+00;  6.1208091E-04;  0.0000000E+00;  0.0000000E+00;  0.0000000E+00;0;  4.9604133E-02;  8.1080704E+01;  0.0000000E+00;  1.5067757E-03;  1.0000000E+02;  0.0000000E+00;  9.5549248E+01;  4.0823899E-02;  0.0000000E+00;  8.7802317E-03;  0.0000000E+00;
  3.7433228E+00;  9.9999998E-03;  8.1875521E-01;372;  5.7839010E-02;  0.0000000E+00;  7.3596262E-03;  9.9887524E+00;  4.5428956E-01; -1.0028501E+00;3;  5.8005028E-04;  0.0000000E+00; -1.3324360E-05;  0.0000000E+00;  0.0000000E+00;  0.0000000E+00;0;  4.9922202E-02;  8.0977989E+01;  0.0000000E+00;  1.9271601E-03;  1.0000000E+02;  0.0000000E+00;  9.5522621E+01;  4.1109957E-02;  0.0000000E+00;  8.8122441E-03;  0.0000000E+00;
  3.7446756E+00;  9.9999998E-03;  1.0230757E+00;373;  5.8139015E-02;  0.0000000E+00;  8.9023011E-03;  9.9887228E+00;  4.5457941E-01; -1.0054920E+00;3;  5.9679669E-04;  0.0000000E+00;  1.9294284E-03;  0.0000000E+00;  0.0000000E+00;  0.0000000E+00;0;  5.0084226E-02;  8.0891785E+01;  0.0000000E+00;  9.0525142E-04;  1.0000000E+02;  0.0000000E+00;  9.5502167E+01;  4.1341029E-02;  0.0000000E+00;  8.7431977E-03;  0.0000000E+00;
  3.9624984E+00;  9.9999998E-03;  4.6515845E-09;379;  6.6683292E-02;  0.0000000E+00;  4.6955075E-09;  9.9888897E+00;  4.5764148E-01; -9.8896188E-01;3;  2.5433172E-03;  0.0000000E+00;  2.7724332E-07;  0.0000000E+00;  0.0000000E+00;  0.0000000E+00;0;  5.2382827E-02;  8.0050377E+01;  0.0000000E+00;  1.3004735E-14;  1.0000000E+02;  0.0000000E+00;  9.5221771E+01;  4.3006785E-02;  0.0000000E+00;  9.3760397E-03;  0.0000000E+00;
  3.9633856E+00;  9.9999998E-03;  2.0403469E-01;380;  6.7140318E-02;  0.0000000E+00;  1.9925656E-03;  9.9888973E+00;  4.5760110E-01; -9.8826784E-01;3;  2.6419451E-03;  0.0000000E+00;  9.1112882E-04;  0.0000000E+00;  0.0000000E+00;  0.0000000E+00;0;  5.2359883E-02;  8.0039246E+01;  0.0000000E+00;  5.6674115E-05;  1.0000000E+02;  0.0000000E+00;  9.5251892E+01;  4.3013789E-02;  0.0000000E+00;  9.3460949E-03;  0.0000000E+00;
  3.9648840E+00;  9.9999998E-03;  4.1031632E-01;381;  6.7687929E-02;  0.0000000E+00;  4.2443206E-03;  9.9888935E+00;  4.5772713E-01; -9.8863220E-01;3;  2.4505139E-03;  0.0000000E+00; -1.1449830E-03;  0.0000000E+00;  0.0000000E+00;  0.0000000E+00;0;  5.2376874E-02;  8.0013138E+01;  0.0000000E+00;  2.9485556E-04;  1.0000000E+02;  0.0000000E+00;  9.5230316E+01;  4.3018527E-02;  0.0000000E+00;  9.3583465E-03;  0.0000000E+00;
  3.9659984E+00;  9.9999998E-03;  6.1534673E-01;382;  6.7733325E-02;  0.0000000E+00;  6.0957526E-03;  9.9889088E+00;  4.5781809E-01; -9.8724753E-01;3;  1.9646594E-03;  0.0000000E+00;  8.5778936E-04;  0.0000000E+00;  0.0000000E+00;  0.0000000E+00;0;  5.2348182E-02;  7.9984718E+01;  0.0000000E+00;  7.1639352E-04;  1.0000000E+02;  0.0000000E+00;  9.5226265E+01;  4.3005832E-02;  0.0000000E+00;  9.3423482E-03;  0.0000000E+00;
  3.9669158E+00;  9.9999998E-03;  8.2014620E-01;383;  6.7502618E-02;  0.0000000E+00;  7.8604463E-03;  9.9889174E+00;  4.5790496E-01; -9.8650044E-01;3;  1.3625947E-03;  0.0000000E+00;  2.7934232E-04;  0.0000000E+00;  0.0000000E+00;  0.0000000E+00;0;  5.2310482E-02;  7.9960754E+01;  0.0000000E+00;  9.5302513E-04;  1.0000000E+02;  0.0000000E+00;  9.5218544E+01;  4.2975537E-02;  0.0000000E+00;  9.3349423E-03;  0.0000000E+00;
  3.9676049E+00;  9.9999998E-03;  1.0248787E+00;384;  6.7251824E-02;  0.0000000E+00;  9.5150862E-03;  9.9889631E+00;  4.5797503E-01; -9.8241198E-01;3;  9.2161098E-04;  0.0000000E+00;  1.6837076E-03;  0.0000000E+00;  0.0000000E+00;  0.0000000E+00;0;  5.2088425E-02;  7.9941422E+01;  0.0000000E+00;  4.3443841E-04;  1.0000000E+02;  0.0000000E+00;  9.5213829E+01;  4.2935487E-02;  0.0000000E+00;  9.1529358E-03;  0.0000000E+00;
  4.1896086E+00;  9.9999998E-03;  6.2396848E-09;390;  7.8515217E-02;  0.0000000E+00;  1.1184072E-08;  9.9888544E+00;  4.6132442E-01; -9.9137348E-01;3;  4.1095940E-03;  0.0000000E+00;  2.8392509E-07;  0.0000000E+00;  0.0000000E+00;  0.0000000E+00;0;  5.4800287E-02;  7.9030731E+01;  0.0000000E+00;  4.7636665E-14;  1.0000000E+02;  0.0000000E+00;  9.4915115E+01;  4.4901405E-02;  0.0000000E+00;  9.8988833E-03;  0.0000000E+00;
  4.1896029E+00;  9.9999998E-03;  2.0318402E-01;391;  7.8191817E-02;  0.0000000E+00;  1.4531210E-03;  9.9888859E+00;  4.6118718E-01; -9.8856354E-01;3;  3.7740758E-03;  0.0000000E+00;  1.1639375E-03;  0.0000000E+00;  0.0000000E+00;  0.0000000E+00;0;  5.4646898E-02;  7.9029289E+01;  0.0000000E+00;  1.8526505E-05;  1.0000000E+02;  0.0000000E+00;  9.4974136E+01;  4.4852830E-02;  0.0000000E+00;  9.7940667E-03;  0.0000000E+00;
  4.1896534E+00;  9.9999998E-03;  4.1062507E-01;392;  7.7887103E-02;  0.0000000E+00;  4.3915827E-03;  9.9888973E+00;  4.6124488E-01; -9.8755598E-01;3;  3.4420008E-03;  0.0000000E+00; -9.2600618E-04;  0.0000000E+00;  0.0000000E+00;  0.0000000E+00;0;  5.4576691E-02;  7.9025665E+01;  0.0000000E+00;  9.6503609E-05;  1.0000000E+02;  0.0000000E+00;  9.4954208E+01;  4.4730507E-02;  0.0000000E+00;  9.8461844E-03;  0.0000000E+00;
  4.1893883E+00;  9.9999998E-03;  6.1622059E-01;393;  7.7289060E-02;  0.0000000E+00;  6.2445058E-03;  9.9889650E+00;  4.6125653E-01; -9.8156565E-01;3;  2.8533945E-03;  0.0000000E+00;  9.3853573E-04;  0.0000000E+00;  0.0000000E+00;  0.0000000E+00;0;  5.4264516E-02;  7.9022087E+01;  0.0000000E+00;  2.3869655E-04;  1.0000000E+02;  0.0000000E+00;  9.4955452E+01;  4.4573210E-02;  0.0000000E+00;  9.6913045E-03;  0.0000000E+00;
  4.1891727E+00;  9.9999998E-03;  8.2139188E-01;394;  7.6633073E-02;  0.0000000E+00;  8.2097836E-03;  9.9889946E+00;  4.6127421E-01; -9.7891515E-01;3;  2.2249415E-03;  0.0000000E+00;  3.9672153E-04;  0.0000000E+00;  0.0000000E+00;  0.0000000E+00;0;  5.4108314E-02;  7.9018471E+01;  0.0000000E+00;  3.1474757E-04;  1.0000000E+02;  0.0000000E+00;  9.4952408E+01;  4.4414718E-02;  0.0000000E+00;  9.6935956E-03;  0.0000000E+00;
  4.1889501E+00;  9.9999998E-03;  1.0264224E+00;395;  7.5985953E-02;  0.0000000E+00;  9.9449409E-03;  9.9890614E+00;  4.6131051E-01; -9.7297758E-01;3;  1.6390400E-03;  0.0000000E+00;  9.8265079E-04;  0.0000000E+00;  0.0000000E+00;  0.0000000E+00;0;  5.3734113E-02;  7.9009415E+01;  0.0000000E+00;  1.6003070E-04;  1.0000000E+02;  0.0000000E+00;  9.4949631E+01;  4.4277914E-02;  0.0000000E+00;  9.4561977E-03;  0.0000000E+00;
  4.4169989E+00;  9.9999998E-03;  7.8014635E-09;401;  9.0676129E-02;  0.0000000E+00;  2.2844281E-08;  9.9887857E+00;  4.6434379E-01; -9.9717724E-01;3;  5.9877159E-03;  0.0000000E+00;  2.3890985E-07;  0.0000000E+00;  0.0000000E+00;  0.0000000E+00;0;  5.6206498E-02;  7.8192863E+01;  0.0000000E+00;  4.8178827E-14;  1.0000000E+02;  0.0000000E+00;  9.4687881E+01;  4.6011843E-02;  0.0000000E+00;  1.0194655E-02;  0.0000000E+00;
  4.4154887E+00;  9.9999998E-03;  2.0425764E-01;402;  8.9163549E-02;  0.0000000E+00;  1.6036195E-03;  9.9888163E+00;  4.6423870E-01; -9.9447536E-01;3;  4.9481066E-03;  0.0000000E+00;  8.5006870E-04;  0.0000000E+00;  0.0000000E+00;  0.0000000E+00;0;  5.6049474E-02;  7.8188728E+01;  0.0000000E+00;  1.9016246E-05;  1.0000000E+02;  0.0000000E+00;  9.4736214E+01;  4.5961343E-02;  0.0000000E+00;  1.0088129E-02;  0.0000000E+00;
  4.4137526E+00;  9.9999998E-03;  4.1166565E-01;403;  8.7680809E-02;  0.0000000E+00;  4.6662893E-03;  9.9888201E+00;  4.6433195E-01; -9.9415874E-01;3;  4.3424591E-03;  0.0000000E+00; -4.3813369E-04;  0.0000000E+00;  0.0000000E+00;  0.0000000E+00;0;  5.6022324E-02;  7.8170731E+01;  0.0000000E+00;  8.8989409E-06;  1.0000000E+02;  0.0000000E+00;  9.4719521E+01;  4.5867860E-02;  0.0000000E+00;  1.0154461E-02;  0.0000000E+00;
  4.4118891E+00;  9.9999998E-03;  6.1734915E-01;404;  8.6324461E-02;  0.0000000E+00;  6.4538508E-03;  9.9888830E+00;  4.6443757E-01; -9.8854202E-01;3;  3.7006151E-03;  0.0000000E+00;  7.6886459E-04;  0.0000000E+00;  0.0000000E+00;  0.0000000E+00;0;  5.5707324E-02;  7.8141266E+01;  0.0000000E+00; -1.8189321E-04;  1.0000000E+02;  0.0000000E+00;  9.4712891E+01;  4.5761641E-02;  0.0000000E+00;  9.9456822E-03;  0.0000000E+00;
  4.4103432E+00;  9.9999998E-03;  8.2259172E-01;405;  8.5254103E-02;  0.0000000E+00;  8.4964549E-03;  9.9888916E+00;  4.6457317E-01; -9.8780119E-01;3;  3.2251305E-03;  0.0000000E+00;  2.9998732E-04;  0.0000000E+00;  0.0000000E+00;  0.0000000E+00;0;  5.5655845E-02;  7.8105110E+01;  0.0000000E+00; -8.3157542E-04;  1.0000000E+02;  0.0000000E+00;  9.4702179E+01;  4.5664653E-02;  0.0000000E+00;  9.9911895E-03;  0.0000000E+00;
  4.4092069E+00;  9.9999998E-03;  1.0277486E+00;406;  8.4410921E-02;  0.0000000E+00;  1.0260884E-02;  9.9889412E+00;  4.6472800E-01; -9.8340285E-01;3;  2.9113323E-03;  0.0000000E+00; -9.6307514E-05;  0.0000000E+00;  0.0000000E+00;  0.0000000E+00;0;  5.5343352E-02;  7.8063789E+01;  0.0000000E+00; -2.1603946E-03;  1.0000000E+02;  0.0000000E+00;  9.4690559E+01;  4.5589548E-02;  0.0000000E+00;  9.7538065E-03;  0.0000000E+00;
  4.6413598E+00;  9.9999998E-03;  6.4142442E-09;412;  1.0033493E-01;  0.0000000E+00;  3.6935948E-08;  9.9886837E+00;  4.6618754E-01; -1.0061752E+00;3;  6.4525702E-03;  0.0000000E+00;  1.5042328E-07;  0.0000000E+00;  0.0000000E+00;  0.0000000E+00;0;  5.6398332E-02;  7.7663124E+01;  0.0000000E+00;  3.6772282E-14;  1.0000000E+02;  0.0000000E+00;  9.4578743E+01;  4.6173494E-02;  0.0000000E+00;  1.0224839E-02;  0.0000000E+00;
  4.6399813E+00;  9.9999998E-03;  2.0722361E-01;413;  9.9143259E-02;  0.0000000E+00;  2.4777204E-03;  9.9886866E+00;  4.6625796E-01; -1.0059106E+00;3;  5.9175203E-03;  0.0000000E+00;  3.6593759E-04;  0.0000000E+00;  0.0000000E+00;  0.0000000E+00;0;  5.6389470E-02;  7.7645180E+01;  0.0000000E+00; -9.0474939E-05;  1.0000000E+02;  0.0000000E+00;  9.4572266E+01;  4.6188869E-02;  0.0000000E+00;  1.0200602E-02;  0.0000000E+00;
  4.6376672E+00;  9.9999998E-03;  4.1325563E-01;414;  9.7165741E-02;  0.0000000E+00;  5.0105760E-03;  9.9886694E+00;  4.6645245E-01; -1.0074482E+00;3;  5.1544239E-03;  0.0000000E+00; -3.5785110E-04;  0.0000000E+00;  0.0000000E+00;  0.0000000E+00;0;  5.6483582E-02;  7.7592209E+01;  0.0000000E+00; -3.6892502E-04;  1.0000000E+02;  0.0000000E+00;  9.4557648E+01;  4.6235830E-02;  0.0000000E+00;  1.0247751E-02;  0.0000000E+00;
  4.6356311E+00;  9.9999998E-03;  6.1845666E-01;415;  9.5663905E-02;  0.0000000E+00;  6.7215599E-03;  9.9886856E+00;  4.6673468E-01; -1.0059650E+00;3;  4.6137329E-03;  0.0000000E+00;  5.7409267E-04;  0.0000000E+00;  0.0000000E+00;  0.0000000E+00;0;  5.6412920E-02;  7.7512764E+01;  0.0000000E+00; -6.4610748E-04;  1.0000000E+02;  0.0000000E+00;  9.4540245E+01;  4.6304412E-02;  0.0000000E+00;  1.0108506E-02;  0.0000000E+00;
  4.6343136E+00;  9.9999998E-03;  8.2347864E-01;416;  9.4687521E-02;  0.0000000E+00;  8.6588096E-03;  9.9886599E+00;  4.6706456E-01; -1.0082973E+00;3;  4.3311249E-03;  0.0000000E+00;  1.7399804E-04;  0.0000000E+00;  0.0000000E+00;  0.0000000E+00;0;  5.6546737E-02;  7.7422760E+01;  0.0000000E+00; -1.4720338E-03;  1.0000000E+02;  0.0000000E+00;  9.4516747E+01;  4.6376009E-02;  0.0000000E+00;  1.0170729E-02;  0.0000000E+00;
  4.6336865E+00;  9.9999998E-03;  1.0285861E+00;417;  9.4149835E-02;  0.0000000E+00;  1.0405878E-02;  9.9886723E+00;  4.6735653E-01; -1.0071846E+00;3;  4.4139386E-03;  0.0000000E+00; -1.4200510E-03;  0.0000000E+00;  0.0000000E+00;  0.0000000E+00;0;  5.6410689E-02;  7.7343956E+01;  0.0000000E+00; -4.3495195E-03;  1.0000000E+02;  0.0000000E+00;  9.4494911E+01;  4.6429485E-02;  0.0000000E+00;  9.9812038E-03;  0.0000000E+00;
  4.8630409E+00;  9.9999998E-03;  3.4108918E-09;423;  1.0773380E-01;  0.0000000E+00;  4.7228852E-08;  9.9886427E+00;  4.6580112E-01; -1.0097308E+00;3;  5.6481119E-03;  0.0000000E+00;  5.5014425E-08;  0.0000000E+00;  0.0000000E+00;  0.0000000E+00;0;  5.4787587E-02;  7.7736237E+01;  0.0000000E+00;  1.9634583E-14;  1.0000000E+02;  0.0000000E+00;  9.4646194E+01;  4.4884566E-02;  0.0000000E+00;  9.9030202E-03;  0.0000000E+00;
  4.8636703E+00;  9.9999998E-03;  2.0993261E-01;424;  1.0797940E-01;  0.0000000E+00;  3.3458967E-03;  9.9886065E+00;  4.6606886E-01; -1.0129632E+00;3;  5.9530684E-03;  0.0000000E+00;  4.1191935E-04;  0.0000000E+00;  0.0000000E+00;  0.0000000E+00;0;  5.4958291E-02;  7.7703865E+01;  0.0000000E+00;  7.5968037E-06;  1.0000000E+02;  0.0000000E+00;  9.4576477E+01;  4.4973593E-02;  0.0000000E+00;  9.9846981E-03;  0.0000000E+00;
  4.8646135E+00;  9.9999998E-03;  4.1422242E-01;425;  1.0762002E-01;  0.0000000E+00;  5.1738722E-03;  9.9885559E+00;  4.6634740E-01; -1.0174676E+00;3;  5.8481498E-03;  0.0000000E+00;  5.6469394E-04;  0.0000000E+00;  0.0000000E+00;  0.0000000E+00;0;  5.5189773E-02;  7.7621582E+01;  0.0000000E+00;  4.2905789E-04;  1.0000000E+02;  0.0000000E+00;  9.4562897E+01;  4.5167256E-02;  0.0000000E+00;  1.0022515E-02;  0.0000000E+00;
  4.8662143E+00;  9.9999998E-03;  6.1877698E-01;426;  1.0765406E-01;  0.0000000E+00;  6.7743333E-03;  9.9885111E+00;  4.6674988E-01; -1.0214417E+00;3;  5.9301155E-03;  0.0000000E+00;  5.2865047E-04;  0.0000000E+00;  0.0000000E+00;  0.0000000E+00;0;  5.5385925E-02;  7.7508934E+01;  0.0000000E+00;  1.3155404E-03;  1.0000000E+02;  0.0000000E+00;  9.4536217E+01;  4.5384567E-02;  0.0000000E+00;  1.0001359E-02;  0.0000000E+00;
  4.8696675E+00;  9.9999998E-03;  8.2347703E-01;427;  1.0839739E-01;  0.0000000E+00;  8.4904199E-03;  9.9884558E+00;  4.6721444E-01; -1.0263696E+00;3;  5.8927247E-03;  0.0000000E+00;  1.3400438E-04;  0.0000000E+00;  0.0000000E+00;  0.0000000E+00;0;  5.5613264E-02;  7.7381233E+01;  0.0000000E+00;  4.8212925E-04;  1.0000000E+02;  0.0000000E+00;  9.4503853E+01;  4.5581359E-02;  0.0000000E+00;  1.0031906E-02;  0.0000000E+00;
  4.8729687E+00;  9.9999998E-03;  1.0284348E+00;428;  1.0910128E-01;  0.0000000E+00;  1.0189030E-02;  9.9884167E+00;  4.6760854E-01; -1.0298667E+00;3;  5.7718493E-03;  0.0000000E+00; -2.9912014E-03;  0.0000000E+00;  0.0000000E+00;  0.0000000E+00;0;  5.5643491E-02;  7.7273979E+01;  0.0000000E+00;  4.8367018E-04;  1.0000000E+02;  0.0000000E+00;  9.4474602E+01;  4.5727644E-02;  0.0000000E+00;  9.9158464E-03;  0.0000000E+00;
  5.0894008E+00;  9.9999998E-03; -2.2585418E-09;434;  1.1701924E-01;  0.0000000E+00;  4.8715830E-08;  9.9887848E+00;  4.6218637E-01; -9.9709851E-01;3;  5.5222232E-03;  0.0000000E+00; -1.5148544E-08;  0.0000000E+00;  0.0000000E+00;  0.0000000E+00;0;  5.0679676E-02;  7.8727394E+01;  0.0000000E+00;  2.6862784E-15;  1.0000000E+02;  0.0000000E+00;  9.4924538E+01;  4.1512508E-02;  0.0000000E+00;  9.1671664E-03;  0.0000000E+00;
  5.0936790E+00;  9.9999998E-03;  2.0958604E-01;435;  1.1924361E-01;  0.0000000E+00;  3.2784902E-03;  9.9887314E+00;  4.6247318E-01; -1.0018675E+00;3;  6.0063954E-03;  0.0000000E+00; -7.8564059E-05;  0.0000000E+00;  0.0000000E+00;  0.0000000E+00;0;  5.0840586E-02;  7.8698578E+01;  0.0000000E+00;  2.3280361E-03;  1.0000000E+02;  0.0000000E+00;  9.4841042E+01;  4.1554555E-02;  0.0000000E+00;  9.2860330E-03;  0.0000000E+00;
  5.1004753E+00;  9.9999998E-03;  4.1327217E-01;436;  1.2214128E-01;  0.0000000E+00;  4.9510631E-03;  9.9886293E+00;  4.6277511E-01; -1.0109289E+00;3;  7.6463581E-03;  0.0000000E+00;  5.9520901E-04;  0.0000000E+00;  0.0000000E+00;  0.0000000E+00;0;  5.1171500E-02;  7.8606117E+01;  0.0000000E+00;  4.7028144E-03;  1.0000000E+02;  0.0000000E+00;  9.4826820E+01;  4.1758925E-02;  0.0000000E+00;  9.4125746E-03;  0.0000000E+00;
  5.1073503E+00;  9.9999998E-03;  6.1758673E-01;437;  1.2341246E-01;  0.0000000E+00;  6.1796261E-03;  9.9885530E+00;  4.6328866E-01; -1.0177115E+00;3;  8.0103427E-03;  0.0000000E+00;  5.5178266E-04;  0.0000000E+00;  0.0000000E+00;  0.0000000E+00;0;  5.1379882E-02;  7.8461563E+01;  0.0000000E+00; -2.1293003E-03;  1.0000000E+02;  0.0000000E+00;  9.4790009E+01;  4.2037815E-02;  0.0000000E+00;  9.3420669E-03;  0.0000000E+00;
  5.1192441E+00;  9.9999998E-03;  8.2219350E-01;438;  1.2453562E-01;  0.0000000E+00;  7.7821463E-03;  9.9884443E+00;  4.6412390E-01; -1.0273554E+00;3;  4.8751710E-03;  0.0000000E+00; -1.5086291E-04;  0.0000000E+00;  0.0000000E+00;  0.0000000E+00;0;  5.1617168E-02;  7.8228447E+01;  0.0000000E+00; -1.8628858E-02;  1.0000000E+02;  0.0000000E+00;  9.4729012E+01;  4.2232323E-02;  0.0000000E+00;  9.3848435E-03;  0.0000000E+00;
  5.1235914E+00;  9.9999998E-03;  1.0270616E+00;439;  1.2587890E-01;  0.0000000E+00;  9.4615892E-03;  9.9883022E+00;  4.6494180E-01; -1.0400203E+00;3;  8.6578103E-03;  0.0000000E+00; -4.6394435E-03;  0.0000000E+00;  0.0000000E+00;  0.0000000E+00;0;  5.2022215E-02;  7.8002617E+01;  0.0000000E+00;  2.6427725E-02;  1.0000000E+02;  0.0000000E+00;  9.4667770E+01;  4.2637669E-02;  0.0000000E+00;  9.3845474E-03;  0.0000000E+00;
  5.3279724E+00;  9.9999998E-03; -4.3509525E-09;445;  1.3100541E-01;  0.0000000E+00;  3.9301359E-08;  9.9891777E+00;  4.5537406E-01; -9.6216875E-01;3;  5.8289580E-03;  0.0000000E+00;  8.4284693E-08;  0.0000000E+00;  0.0000000E+00;  0.0000000E+00;0;  4.3724272E-02;  8.0700157E+01;  0.0000000E+00; -5.1776181E-15;  1.0000000E+02;  0.0000000E+00;  9.5401085E+01;  3.5687465E-02;  0.0000000E+00;  8.0368072E-03;  0.0000000E+00;
  5.3386588E+00;  9.9999998E-03;  2.0711617E-01;446;  1.3720791E-01;  0.0000000E+00;  2.1668947E-03;  9.9890585E+00;  4.5581692E-01; -9.7276688E-01;3;  8.4126536E-03;  0.0000000E+00; -2.4567596E-03;  0.0000000E+00;  0.0000000E+00;  0.0000000E+00;0;  4.3895967E-02;  8.0593079E+01;  0.0000000E+00;  3.4363524E-03;  1.0000000E+02;  0.0000000E+00;  9.5342117E+01;  3.5810191E-02;  0.0000000E+00;  8.0857771E-03;  0.0000000E+00;
  5.3448749E+00;  9.9999998E-03;  4.1107434E-01;447;  1.3891864E-01;  0.0000000E+00;  3.8192153E-03;  9.9888258E+00;  4.5659748E-01; -9.9343354E-01;3;  9.4119003E-03;  0.0000000E+00;  4.5309140E-04;  0.0000000E+00;  0.0000000E+00;  0.0000000E+00;0;  4.4703625E-02;  8.0352135E+01;  0.0000000E+00; -2.8594269E-03;  1.0000000E+02;  0.0000000E+00;  9.5296501E+01;  3.6436848E-02;  0.0000000E+00;  8.2667777E-03;  0.0000000E+00;
  5.3366065E+00;  9.9999998E-03;  6.1508822E-01;448;  1.3164288E-01;  0.0000000E+00;  5.0673271E-03;  9.9888134E+00;  4.5692873E-01; -9.9454641E-01;3;  1.1245890E-02;  0.0000000E+00;  1.0579032E-03;  0.0000000E+00;  0.0000000E+00;  0.0000000E+00;0;  4.4978574E-02;  8.0260307E+01;  0.0000000E+00; -1.3369002E-03;  1.0000000E+02;  0.0000000E+00;  9.5267570E+01;  3.6710542E-02;  0.0000000E+00;  8.2680313E-03;  0.0000000E+00;
  5.3400583E+00;  9.9999998E-03;  8.1973547E-01;449;  1.3308762E-01;  0.0000000E+00;  6.7370818E-03;  9.9885521E+00;  4.5791295E-01; -1.0177567E+00;3;  5.8368715E-03;  0.0000000E+00; -1.6833434E-04;  0.0000000E+00;  0.0000000E+00;  0.0000000E+00;0;  4.5896143E-02;  7.9975548E+01;  0.0000000E+00; -1.7380930E-02;  1.0000000E+02;  0.0000000E+00;  9.5191849E+01;  3.7494071E-02;  0.0000000E+00;  8.4020738E-03;  0.0000000E+00;
  5.3280721E+00;  9.9999998E-03;  1.0241988E+00;450;  1.2585515E-01;  0.0000000E+00;  8.3094295E-03;  9.9888048E+00;  4.5725092E-01; -9.9528849E-01;3;  8.8081295E-03;  0.0000000E+00; -5.3654946E-03;  0.0000000E+00;  0.0000000E+00;  0.0000000E+00;0;  4.5075636E-02;  8.0173569E+01;  0.0000000E+00;  2.8376188E-02;  1.0000000E+02;  0.0000000E+00;  9.5237152E+01;  3.6839038E-02;  0.0000000E+00;  8.2365973E-03;  0.0000000E+00;
  5.5546522E+00;  9.9999998E-03; -2.5256201E-08;456;  1.3695218E-01;  0.0000000E+00;  4.2783086E-12;  9.9895840E+00;  4.4746149E-01; -9.2602557E-01;3;  9.3247360E-03;  0.0000000E+00;  4.0419400E-07;  0.0000000E+00;  0.0000000E+00;  0.0000000E+00;0;  3.5848822E-02;  8.3071907E+01;  0.0000000E+00; -1.7496166E-15;  1.0000000E+02;  0.0000000E+00;  9.5993523E+01;  2.9047703E-02;  0.0000000E+00;  6.8011195E-03;  0.0000000E+00;
  5.5598240E+00;  9.9999998E-03;  2.0451179E-01;457;  1.4194208E-01;  0.0000000E+00;  6.0600962E-04;  9.9892826E+00;  4.4816336E-01; -9.5283926E-01;3;  8.4114354E-03;  0.0000000E+00;  4.3474347E-04;  0.0000000E+00;  0.0000000E+00;  0.0000000E+00;0;  3.6718454E-02;  8.2843918E+01;  0.0000000E+00;  7.9843281E-03;  1.0000000E+02;  0.0000000E+00;  9.5951500E+01;  3.0001087E-02;  0.0000000E+00;  6.7173680E-03;  0.0000000E+00;
  5.5597782E+00;  9.9999998E-03;  4.0827739E-01;458;  1.4144847E-01;  0.0000000E+00;  2.2409274E-03;  9.9890451E+00;  4.4893682E-01; -9.7392988E-01;3;  9.7948760E-03;  0.0000000E+00;  9.3606429E-04;  0.0000000E+00;  0.0000000E+00;  0.0000000E+00;0;  3.7537456E-02;  8.2608910E+01;  0.0000000E+00;  1.3935210E-02;  1.0000000E+02;  0.0000000E+00;  9.5888832E+01;  3.0688001E-02;  0.0000000E+00;  6.8494556E-03;  0.0000000E+00;
  5.5560813E+00;  9.9999998E-03;  6.1218590E-01;459;  1.3961516E-01;  0.0000000E+00;  4.0193810E-03;  9.9888134E+00;  4.4933143E-01; -9.9454355E-01;3;  1.0451047E-02;  0.0000000E+00;  4.4496870E-04;  0.0000000E+00;  0.0000000E+00;  0.0000000E+00;0;  3.8489006E-02;  8.2489052E+01;  0.0000000E+00;  5.3701876E-03;  1.0000000E+02;  0.0000000E+00;  9.5854187E+01;  3.1313851E-02;  0.0000000E+00;  7.1751559E-03;  0.0000000E+00;
  5.5562973E+00;  9.9999998E-03;  8.1677103E-01;460;  1.3943619E-01;  0.0000000E+00;  5.7546259E-03;  9.9884109E+00;  4.5041355E-01; -1.0303128E+00;3;  9.9966880E-03;  0.0000000E+00; -1.3394675E-03;  0.0000000E+00;  0.0000000E+00;  0.0000000E+00;0;  3.9861731E-02;  8.2162865E+01;  0.0000000E+00;  4.3121225E-04;  1.0000000E+02;  0.0000000E+00;  9.5766365E+01;  3.2348398E-02;  0.0000000E+00;  7.5133326E-03;  0.0000000E+00;
  5.5421500E+00;  9.9999998E-03;  1.0206110E+00;461;  1.3443257E-01;  0.0000000E+00;  7.1682259E-03;  9.9888039E+00;  4.4798791E-01; -9.9539149E-01;3;  1.1336310E-02;  0.0000000E+00; -6.8180552E-03;  0.0000000E+00;  0.0000000E+00;  0.0000000E+00;0;  3.8801357E-02;  8.2902855E+01;  0.0000000E+00;  4.7608730E-03;  1.0000000E+02;  0.0000000E+00;  9.5948456E+01;  3.1537514E-02;  0.0000000E+00;  7.2638425E-03;  0.0000000E+00;
  5.7666779E+00;  9.9999998E-03; -1.1895278E-08;467;  1.4392804E-01;  0.0000000E+00;  2.6736579E-08;  9.9892292E+00;  4.3939281E-01; -9.5755434E-01;3;  9.4238063E-03;  0.0000000E+00;  4.2421743E-07;  0.0000000E+00;  0.0000000E+00;  0.0000000E+00;0;  2.9864594E-02;  8.5601013E+01;  0.0000000E+00;  1.3386047E-14;  1.0000000E+02;  0.0000000E+00;  9.6603928E+01;  2.4215806E-02;  0.0000000E+00;  5.6487876E-03;  0.0000000E+00;
  5.7640357E+00;  9.9999998E-03;  2.0062371E-01;468;  1.4251041E-01;  0.0000000E+00; -2.4468982E-05;  9.9894361E+00;  4.3884438E-01; -9.3916631E-01;3;  8.8436808E-03;  0.0000000E+00;  4.8172660E-06;  0.0000000E+00;  0.0000000E+00;  0.0000000E+00;0;  2.9365744E-02;  8.5750969E+01;  0.0000000E+00;  2.2455737E-02;  1.0000000E+02;  0.0000000E+00;  9.6679749E+01;  2.3841368E-02;  0.0000000E+00;  5.5243769E-03;  0.0000000E+00;
  5.7643447E+00;  9.9999998E-03;  4.0478590E-01;469;  1.4224976E-01;  0.0000000E+00;  1.4641577E-03;  9.9892359E+00;  4.3936682E-01; -9.5697141E-01;3;  1.1364225E-02;  0.0000000E+00;  7.6974742E-04;  0.0000000E+00;  0.0000000E+00;  0.0000000E+00;0;  2.9973477E-02;  8.5577126E+01;  0.0000000E+00;  4.4682454E-02;  1.0000000E+02;  0.0000000E+00;  9.6641983E+01;  2.4288978E-02;  0.0000000E+00;  5.6844982E-03;  0.0000000E+00;
  5.7647715E+00;  9.9999998E-03;  6.0895616E-01;470;  1.4168610E-01;  0.0000000E+00;  2.8590718E-03;  9.9889975E+00;  4.4015041E-01; -9.7816795E-01;3;  1.1221499E-02;  0.0000000E+00; -6.8737194E-05;  0.0000000E+00;  0.0000000E+00;  0.0000000E+00;0;  3.0579876E-02;  8.5325905E+01;  0.0000000E+00;  2.0511582E-02;  1.0000000E+02;  0.0000000E+00;  9.6577515E+01;  2.4753870E-02;  0.0000000E+00;  5.8260057E-03;  0.0000000E+00;
  5.7611742E+00;  9.9999998E-03;  8.1286973E-01;471;  1.3936470E-01;  0.0000000E+00;  4.0760771E-03;  9.9894056E+00;  4.3967822E-01; -9.4186896E-01;3;  1.0849059E-02;  0.0000000E+00; -5.6285691E-04;  0.0000000E+00;  0.0000000E+00;  0.0000000E+00;0;  2.9581239E-02;  8.5482697E+01;  0.0000000E+00;  7.7632889E-03;  1.0000000E+02;  0.0000000E+00;  9.6615799E+01;  2.4034180E-02;  0.0000000E+00;  5.5470597E-03;  0.0000000E+00;
  5.7548108E+00;  9.9999998E-03;  1.0166491E+00;472;  1.3903649E-01;  0.0000000E+00;  6.1020683E-03;  9.9886684E+00;  4.3845412E-01; -1.0074193E+00;3;  1.2450349E-02;  0.0000000E+00; -4.6941610E-03;  0.0000000E+00;  0.0000000E+00;  0.0000000E+00;0;  3.1910930E-02;  8.5861084E+01;  0.0000000E+00; -7.4252356E-03;  1.0000000E+02;  0.0000000E+00;  9.6713005E+01;  2.5436029E-02;  0.0000000E+00;  6.4749015E-03;  0.0000000E+00;
  5.9666638E+00;  9.9999998E-03;  4.0101066E-01;479;  1.4225782E-01;  0.0000000E+00;  1.4594103E-04;  9.9899521E+00;  4.2805541E-01; -8.9332843E-01;3;  1.0634625E-02;  0.0000000E+00; -9.5385942E-04;  0.0000000E+00;  0.0000000E+00;  0.0000000E+00;0;  2.0668382E-02;  8.9319962E+01;  0.0000000E+00;  3.2942809E-02;  1.0000000E+02;  0.0000000E+00;  9.7565712E+01;  1.6627772E-02;  0.0000000E+00;  4.0406100E-03;  0.0000000E+00;
  5.9668694E+00;  9.9999998E-03;  6.0506755E-01;480;  1.4158972E-01;  0.0000000E+00;  1.4581048E-03;  9.9901237E+00;  4.2839801E-01; -8.7806690E-01;3;  1.1922696E-02;  0.0000000E+00; -9.1181230E-04;  0.0000000E+00;  0.0000000E+00;  0.0000000E+00;0;  2.0413896E-02;  8.9196747E+01;  0.0000000E+00; -2.9050585E-02;  1.0000000E+02;  0.0000000E+00;  9.7546532E+01;  1.6393989E-02;  0.0000000E+00;  4.0199063E-03;  0.0000000E+00;
  5.9685283E+00;  9.9999998E-03;  8.0944043E-01;481;  1.4376877E-01;  0.0000000E+00;  3.5465001E-03;  9.9877977E+00;  4.3047342E-01; -1.0848392E+00;3;  7.3032510E-03;  0.0000000E+00;  4.8158579E-03;  0.0000000E+00;  0.0000000E+00;  0.0000000E+00;0;  2.5209811E-02;  8.8452477E+01;  0.0000000E+00; -2.9068438E-02;  1.0000000E+02;  0.0000000E+00;  9.7377319E+01;  2.0073554E-02;  0.0000000E+00;  5.1362561E-03;  0.0000000E+00;
  5.9724240E+00;  9.9999998E-03;  1.9975954E-01;478;  1.4473385E-01;  0.0000000E+00; -2.1301230E-04;  9.9887390E+00;  4.3073720E-01; -1.0011659E+00;3;  9.2384303E-03;  0.0000000E+00;  4.2883679E-05;  0.0000000E+00;  0.0000000E+00;  0.0000000E+00;0;  2.2876317E-02;  8.8415871E+01;  0.0000000E+00;  1.6122665E-02;  1.0000000E+02;  0.0000000E+00;  9.7316574E+01;  1.8449534E-02;  0.0000000E+00;  4.4267825E-03;  0.0000000E+00;
  5.9748631E+00;  9.9999998E-03; -1.3838042E-08;477;  1.4572322E-01;  0.0000000E+00; -1.8465910E-08;  9.9882717E+00;  4.3180856E-01; -1.0427110E+00;3;  9.3452930E-03;  0.0000000E+00;  1.3122335E-06;  0.0000000E+00;  0.0000000E+00;  0.0000000E+00;0;  2.3713836E-02;  8.8068123E+01;  0.0000000E+00;  1.5142743E-14;  1.0000000E+02;  0.0000000E+00;  9.7208549E+01;  1.9115258E-02;  0.0000000E+00;  4.5985780E-03;  0.0000000E+00;
  6.1730537E+00;  9.9999998E-03;  3.9972383E-01;487;  1.4456099E-01;  0.0000000E+00; -1.8240976E-04;  9.9881535E+00;  4.1994020E-01; -1.0532031E+00;3;  1.1814894E-02;  0.0000000E+00; -1.0568639E-03;  0.0000000E+00;  0.0000000E+00;  0.0000000E+00;0;  1.4865717E-02;  9.2144043E+01;  0.0000000E+00; -7.5802729E-02;  1.0000000E+02;  0.0000000E+00;  9.8232422E+01;  1.1905165E-02;  0.0000000E+00;  2.9605513E-03;  0.0000000E+00;
  6.1764283E+00;  9.9999998E-03;  6.0390323E-01;488;  1.4601362E-01;  0.0000000E+00;  2.0558017E-03;  9.9843636E+00;  4.2315248E-01; -1.3901751E+00;3;  1.0486078E-02;  0.0000000E+00;  5.1604137E-03;  0.0000000E+00;  0.0000000E+00;  0.0000000E+00;0;  1.9367227E-02;  9.0925316E+01;  0.0000000E+00; -6.9218330E-02;  1.0000000E+02;  0.0000000E+00;  9.7971046E+01;  1.4867854E-02;  0.0000000E+00;  4.4993735E-03;  0.0000000E+00;
  6.1775026E+00;  9.9999998E-03;  1.9887778E-01;486;  1.4609803E-01;  0.0000000E+00; -5.4937380E-04;  9.9863787E+00;  4.2283949E-01; -1.2110114E+00;3;  1.1038464E-02;  0.0000000E+00; -4.8469193E-04;  0.0000000E+00;  0.0000000E+00;  0.0000000E+00;0;  1.6867766E-02;  9.1127609E+01;  0.0000000E+00; -1.1479248E-02;  1.0000000E+02;  0.0000000E+00;  9.7938110E+01;  1.3503581E-02;  0.0000000E+00;  3.3641844E-03;  0.0000000E+00;
  6.1798096E+00;  9.9999998E-03; -8.5380858E-09;485;  1.4718820E-01;  0.0000000E+00; -1.2197061E-07;  9.9848824E+00;  4.2440808E-01; -1.3440197E+00;3;  1.1306300E-02;  0.0000000E+00;  1.5087426E-06;  0.0000000E+00;  0.0000000E+00;  0.0000000E+00;0;  1.8496484E-02;  9.0585449E+01;  0.0000000E+00;  1.2456845E-13;  1.0000000E+02;  0.0000000E+00;  9.7769066E+01;  1.4817626E-02;  0.0000000E+00;  3.6788578E-03;  0.0000000E+00;
  6.3817387E+00;  9.9999998E-03; -1.7308498E-08;491;  1.4810820E-01;  0.0000000E+00; -1.0050433E-08;  9.9664145E+00;  4.1630486E-01; -2.9859033E+00;3;  1.2105412E-02;  0.0000000E+00;  3.6954880E-06;  0.0000000E+00;  0.0000000E+00;  0.0000000E+00;0;  1.3955595E-02;  9.3337334E+01;  0.0000000E+00;  7.4350418E-14;  1.0000000E+02;  0.0000000E+00;  9.8263039E+01;  1.1047783E-02;  0.0000000E+00;  2.9078117E-03;  0.0000000E+00;
  6.3785653E+00;  9.9999998E-03;  1.9751863E-01;492;  1.4673738E-01;  0.0000000E+00; -7.8011263E-04;  9.9730082E+00;  4.1392115E-01; -2.3997130E+00;3;  1.2440116E-02;  0.0000000E+00;  1.1901930E-04;  0.0000000E+00;  0.0000000E+00;  0.0000000E+00;0;  1.1458769E-02;  9.4239380E+01;  0.0000000E+00; -7.6601058E-02;  1.0000000E+02;  0.0000000E+00;  9.8571022E+01;  9.0145171E-03;  0.0000000E+00;  2.4442514E-03;  0.0000000E+00;
  6.3786459E+00;  9.9999998E-03;  4.0017512E-01;493;  1.4778621E-01;  0.0000000E+00;  3.3257194E-04;  9.9668970E+00;  4.1446441E-01; -2.9430332E+00;3;  9.9618211E-03;  0.0000000E+00; -3.4828000E-03;  0.0000000E+00;  0.0000000E+00;  0.0000000E+00;0;  1.4337149E-02;  9.3910782E+01;  0.0000000E+00; -1.3379133E-01;  1.0000000E+02;  0.0000000E+00;  9.8537376E+01;  1.1514201E-02;  0.0000000E+00;  2.8229486E-03;  0.0000000E+00;
