TimeStep;Np;Nbound;Nfixed;Nmoving;Nfloat;Nfluid
4.50217;560;165;165;0;0;395

Pos.x;Pos.y;Pos.z;Idp;Vel.x;Vel.y;Vel.z;Rhop;Mass;Press;Type;Acec.x;Acec.y;Acec.z;AceVisc.x;AceVisc.y;AceVisc.z;CellOffSpring;GradVel;Qfxx;Qfxy;Qfxz;Qfyy;Qfyz;Qfzz;StrainDot.x;StrainDot.y;StrainDot.z;VonMises3D;
 -1.0000000E+00;  9.9999998E-03; -2.0000000E+00;0;  0.0000000E+00;  0.0000000E+00;  0.0000000E+00;  1.0000000E+01;  4.0000001E-01;  0.0000000E+00;0;  0.0000000E+00;  0.0000000E+00;  0.0000000E+00;  0.0000000E+00;  0.0000000E+00;  0.0000000E+00;0; -1.3629381E-07;  1.0000000E+02;  0.0000000E+00;  0.0000000E+00;  1.0000000E+02;  0.0000000E+00;  1.0000000E+02;  9.8143936E-08;  0.0000000E+00; -2.3443775E-07;  0.0000000E+00;
 -8.0000001E-01;  9.9999998E-03; -2.0000000E+00;21;  0.0000000E+00;  0.0000000E+00;  0.0000000E+00;  1.0000000E+01;  4.0000001E-01;  0.0000000E+00;0;  0.0000000E+00;  0.0000000E+00;  0.0000000E+00;  0.0000000E+00;  0.0000000E+00;  0.0000000E+00;0; -1.4944672E-07;  1.0000000E+02;  0.0000000E+00;  0.0000000E+00;  1.0000000E+02;  0.0000000E+00;  1.0000000E+02;  3.7078550E-07;  0.0000000E+00; -5.2023222E-07;  0.0000000E+00;
 -6.0000002E-01;  9.9999998E-03; -2.0000000E+00;42;  0.0000000E+00;  0.0000000E+00;  0.0000000E+00;  1.0000000E+01;  4.0000001E-01;  0.0000000E+00;0;  0.0000000E+00;  0.0000000E+00;  0.0000000E+00;  0.0000000E+00;  0.0000000E+00;  0.0000000E+00;0;  1.8173631E-07;  1.0000000E+02;  0.0000000E+00;  0.0000000E+00;  1.0000000E+02;  0.0000000E+00;  1.0000000E+02;  8.1437247E-07;  0.0000000E+00; -6.3263616E-07;  0.0000000E+00;
 -4.0000001E-01;  9.9999998E-03; -2.0000000E+00;63;  0.0000000E+00;  0.0000000E+00;  0.0000000E+00;  1.0000092E+01;  4.0000001E-01;  9.8762587E-03;0;  0.0000000E+00;  0.0000000E+00;  0.0000000E+00;  0.0000000E+00;  0.0000000E+00;  0.0000000E+00;0;  1.3855242E-06;  1.0000000E+02;  0.0000000E+00;  0.0000000E+00;  1.0000000E+02;  0.0000000E+00;  1.0000000E+02;  1.4568260E-06;  0.0000000E+00; -7.1301720E-08;  0.0000000E+00;
 -2.0000000E-01;  9.9999998E-03; -2.0000000E+00;84;  0.0000000E+00;  0.0000000E+00;  0.0000000E+00;  1.0000140E+01;  4.0000001E-01;  1.5135037E-02;0;  0.0000000E+00;  0.0000000E+00;  0.0000000E+00;  0.0000000E+00;  0.0000000E+00;  0.0000000E+00;0;  5.2170744E-06;  1.0000000E+02;  0.0000000E+00;  0.0000000E+00;  1.0000000E+02;  0.0000000E+00;  1.0000000E+02;  3.6303090E-06;  0.0000000E+00;  1.5867654E-06;  0.0000000E+00;
  0.0000000E+00;  9.9999998E-03; -2.0000000E+00;105;  0.0000000E+00;  0.0000000E+00;  0.0000000E+00;  1.0000150E+01;  4.0000001E-01;  1.6161123E-02;0;  0.0000000E+00;  0.0000000E+00;  0.0000000E+00;  0.0000000E+00;  0.0000000E+00;  0.0000000E+00;0;  1.5624071E-05;  1.0000000E+02;  0.0000000E+00;  0.0000000E+00;  1.0000000E+02;  0.0000000E+00;  1.0000000E+02;  1.1496927E-05;  0.0000000E+00;  4.1271442E-06;  0.0000000E+00;
  2.0000000E-01;  9.9999998E-03; -2.0000000E+00;115;  0.0000000E+00;  0.0000000E+00;  0.0000000E+00;  1.0000000E+01;  4.0000001E-01;  0.0000000E+00;0;  0.0000000E+00;  0.0000000E+00;  0.0000000E+00;  0.0000000E+00;  0.0000000E+00;  0.0000000E+00;0;  3.8721268E-05;  1.0000000E+02;  0.0000000E+00;  0.0000000E+00;  1.0000000E+02;  0.0000000E+00;  1.0000000E+02;  3.2434826E-05;  0.0000000E+00;  6.2864433E-06;  0.0000000E+00;
  4.0000001E-01;  9.9999998E-03; -2.0000000E+00;125;  0.0000000E+00;  0.0000000E+00;  0.0000000E+00;  1.0000000E+01;  4.0000001E-01;  0.0000000E+00;0;  0.0000000E+00;  0.0000000E+00;  0.0000000E+00;  0.0000000E+00;  0.0000000E+00;  0.0000000E+00;0;  8.4391504E-05;  1.0000000E+02;  0.0000000E+00;  0.0000000E+00;  1.0000000E+02;  0.0000000E+00;  1.0000000E+02;  7.8137688E-05;  0.0000000E+00;  6.2538170E-06;  0.0000000E+00;
  6.0000002E-01;  9.9999998E-03; -2.0000000E+00;135;  0.0000000E+00;  0.0000000E+00;  0.0000000E+00;  1.0000000E+01;  4.0000001E-01;  0.0000000E+00;0;  0.0000000E+00;  0.0000000E+00;  0.0000000E+00;  0.0000000E+00;  0.0000000E+00;  0.0000000E+00;0;  1.6520968E-04;  1.0000000E+02;  0.0000000E+00;  0.0000000E+00;  1.0000000E+02;  0.0000000E+00;  1.0000000E+02;  1.6275610E-04;  0.0000000E+00;  2.4535900E-06;  0.0000000E+00;
  8.0000001E-01;  9.9999998E-03; -2.0000000E+00;145;  0.0000000E+00;  0.0000000E+00;  0.0000000E+00;  1.0000000E+01;  4.0000001E-01;  0.0000000E+00;0;  0.0000000E+00;  0.0000000E+00;  0.0000000E+00;  0.0000000E+00;  0.0000000E+00;  0.0000000E+00;0;  2.8465525E-04;  1.0000000E+02;  0.0000000E+00;  0.0000000E+00;  1.0000000E+02;  0.0000000E+00;  1.0000000E+02;  2.9106703E-04;  0.0000000E+00; -6.4117799E-06;  0.0000000E+00;
  1.0000000E+00;  9.9999998E-03; -2.0000000E+00;155;  0.0000000E+00;  0.0000000E+00;  0.0000000E+00;  1.0000000E+01;  4.0000001E-01;  0.0000000E+00;0;  0.0000000E+00;  0.0000000E+00;  0.0000000E+00;  0.0000000E+00;  0.0000000E+00;  0.0000000E+00;0;  4.1191955E-04;  1.0000000E+02;  0.0000000E+00;  0.0000000E+00;  1.0000000E+02;  0.0000000E+00;  1.0000000E+02;  4.3373040E-04;  0.0000000E+00; -2.1810843E-05;  0.0000000E+00;
 -1.0000000E+00;  9.9999998E-03; -1.8000000E+00;1;  0.0000000E+00;  0.0000000E+00;  0.0000000E+00;  1.0000000E+01;  4.0000001E-01;  0.0000000E+00;0;  0.0000000E+00;  0.0000000E+00;  0.0000000E+00;  0.0000000E+00;  0.0000000E+00;  0.0000000E+00;0; -2.1613988E-07;  1.0000000E+02;  0.0000000E+00;  0.0000000E+00;  1.0000000E+02;  0.0000000E+00;  1.0000000E+02;  4.0640896E-07;  0.0000000E+00; -6.2254884E-07;  0.0000000E+00;
 -1.0000000E+00;  9.9999998E-03; -1.6000000E+00;2;  0.0000000E+00;  0.0000000E+00;  0.0000000E+00;  1.0000038E+01;  4.0000001E-01;  4.1044205E-03;0;  0.0000000E+00;  0.0000000E+00;  0.0000000E+00;  0.0000000E+00;  0.0000000E+00;  0.0000000E+00;0;  1.5544265E-07;  1.0000000E+02;  0.0000000E+00;  0.0000000E+00;  1.0000000E+02;  0.0000000E+00;  1.0000000E+02;  1.1706093E-06;  0.0000000E+00; -1.0151666E-06;  0.0000000E+00;
 -1.0000000E+00;  9.9999998E-03; -1.4000000E+00;3;  0.0000000E+00;  0.0000000E+00;  0.0000000E+00;  1.0000267E+01;  4.0000001E-01;  2.8730944E-02;0;  0.0000000E+00;  0.0000000E+00;  0.0000000E+00;  0.0000000E+00;  0.0000000E+00;  0.0000000E+00;0;  1.5106717E-06;  1.0000000E+02;  0.0000000E+00;  0.0000000E+00;  1.0000000E+02;  0.0000000E+00;  1.0000000E+02;  2.7536248E-06;  0.0000000E+00; -1.2429531E-06;  0.0000000E+00;
 -1.0000000E+00;  9.9999998E-03; -1.2000000E+00;4;  0.0000000E+00;  0.0000000E+00;  0.0000000E+00;  1.0000500E+01;  4.0000001E-01;  5.3742256E-02;0;  0.0000000E+00;  0.0000000E+00;  0.0000000E+00;  0.0000000E+00;  0.0000000E+00;  0.0000000E+00;0;  4.3929826E-06;  1.0000000E+02;  0.0000000E+00;  0.0000000E+00;  1.0000000E+02;  0.0000000E+00;  1.0000000E+02;  5.6073563E-06;  0.0000000E+00; -1.2143736E-06;  0.0000000E+00;
 -1.0000000E+00;  9.9999998E-03; -1.0000000E+00;5;  0.0000000E+00;  0.0000000E+00;  0.0000000E+00;  1.0000754E+01;  4.0000001E-01;  8.1190571E-02;0;  0.0000000E+00;  0.0000000E+00;  0.0000000E+00;  0.0000000E+00;  0.0000000E+00;  0.0000000E+00;0;  9.1799220E-06;  1.0000000E+02;  0.0000000E+00;  0.0000000E+00;  1.0000000E+02;  0.0000000E+00;  1.0000000E+02;  1.0076902E-05;  0.0000000E+00; -8.9697994E-07;  0.0000000E+00;
 -1.0000000E+00;  9.9999998E-03; -8.0000001E-01;6;  0.0000000E+00;  0.0000000E+00;  0.0000000E+00;  1.0001022E+01;  4.0000001E-01;  1.1004978E-01;0;  0.0000000E+00;  0.0000000E+00;  0.0000000E+00;  0.0000000E+00;  0.0000000E+00;  0.0000000E+00;0;  1.5828813E-05;  1.0000000E+02;  0.0000000E+00;  0.0000000E+00;  1.0000000E+02;  0.0000000E+00;  1.0000000E+02;  1.6142489E-05;  0.0000000E+00; -3.1367534E-07;  0.0000000E+00;
 -1.0000000E+00;  9.9999998E-03; -6.0000002E-01;7;  0.0000000E+00;  0.0000000E+00;  0.0000000E+00;  1.0001011E+01;  4.0000001E-01;  1.0876714E-01;0;  0.0000000E+00;  0.0000000E+00;  0.0000000E+00;  0.0000000E+00;  0.0000000E+00;  0.0000000E+00;0;  2.3614963E-05;  1.0000000E+02;  0.0000000E+00;  0.0000000E+00;  1.0000000E+02;  0.0000000E+00;  1.0000000E+02;  2.3187513E-05;  0.0000000E+00;  4.2744924E-07;  0.0000000E+00;
 -1.0000000E+00;  9.9999998E-03; -4.0000001E-01;8;  0.0000000E+00;  0.0000000E+00;  0.0000000E+00;  1.0000725E+01;  4.0000001E-01;  7.7983990E-02;0;  0.0000000E+00;  0.0000000E+00;  0.0000000E+00;  0.0000000E+00;  0.0000000E+00;  0.0000000E+00;0;  3.1115815E-05;  1.0000000E+02;  0.0000000E+00;  0.0000000E+00;  1.0000000E+02;  0.0000000E+00;  1.0000000E+02;  2.9978337E-05;  0.0000000E+00;  1.1374766E-06;  0.0000000E+00;
 -1.0000000E+00;  9.9999998E-03; -2.0000000E-01;9;  0.0000000E+00;  0.0000000E+00;  0.0000000E+00;  1.0000752E+01;  4.0000001E-01;  8.0934040E-02;0;  0.0000000E+00;  0.0000000E+00;  0.0000000E+00;  0.0000000E+00;  0.0000000E+00;  0.0000000E+00;0;  3.6594796E-05;  1.0000000E+02;  0.0000000E+00;  0.0000000E+00;  1.0000000E+02;  0.0000000E+00;  1.0000000E+02;  3.4962482E-05;  0.0000000E+00;  1.6323136E-06;  0.0000000E+00;
 -8.0000001E-01;  9.9999998E-03; -1.8000000E+00;22;  0.0000000E+00;  0.0000000E+00;  0.0000000E+00;  1.0000087E+01;  4.0000001E-01;  9.3632080E-03;0;  0.0000000E+00;  0.0000000E+00;  0.0000000E+00;  0.0000000E+00;  0.0000000E+00;  0.0000000E+00;0;  1.1236727E-07;  1.0000000E+02;  0.0000000E+00;  0.0000000E+00;  1.0000000E+02;  0.0000000E+00;  1.0000000E+02;  1.2210743E-06;  0.0000000E+00; -1.1087070E-06;  0.0000000E+00;
 -8.0000001E-01;  9.9999998E-03; -1.6000000E+00;23;  0.0000000E+00;  0.0000000E+00;  0.0000000E+00;  1.0000361E+01;  4.0000001E-01;  3.8863726E-02;0;  0.0000000E+00;  0.0000000E+00;  0.0000000E+00;  0.0000000E+00;  0.0000000E+00;  0.0000000E+00;0;  1.3808921E-06;  1.0000000E+02;  0.0000000E+00;  0.0000000E+00;  1.0000000E+02;  0.0000000E+00;  1.0000000E+02;  2.9836601E-06;  0.0000000E+00; -1.6027681E-06;  0.0000000E+00;
 -8.0000001E-01;  9.9999998E-03; -1.4000000E+00;24;  0.0000000E+00;  0.0000000E+00;  0.0000000E+00;  1.0000714E+01;  4.0000001E-01;  7.6829612E-02;0;  0.0000000E+00;  0.0000000E+00;  0.0000000E+00;  0.0000000E+00;  0.0000000E+00;  0.0000000E+00;0;  4.4186236E-06;  1.0000000E+02;  0.0000000E+00;  0.0000000E+00;  1.0000000E+02;  0.0000000E+00;  1.0000000E+02;  6.2512513E-06;  0.0000000E+00; -1.8326280E-06;  0.0000000E+00;
 -8.0000001E-01;  9.9999998E-03; -1.2000000E+00;25;  0.0000000E+00;  0.0000000E+00;  0.0000000E+00;  1.0001216E+01;  4.0000001E-01;  1.3082840E-01;0;  0.0000000E+00;  0.0000000E+00;  0.0000000E+00;  0.0000000E+00;  0.0000000E+00;  0.0000000E+00;0;  1.0023140E-05;  1.0000000E+02;  0.0000000E+00;  0.0000000E+00;  1.0000000E+02;  0.0000000E+00;  1.0000000E+02;  1.1780528E-05;  0.0000000E+00; -1.7573884E-06;  0.0000000E+00;
 -8.0000001E-01;  9.9999998E-03; -1.0000000E+00;26;  0.0000000E+00;  0.0000000E+00;  0.0000000E+00;  1.0001770E+01;  4.0000001E-01;  1.9047074E-01;0;  0.0000000E+00;  0.0000000E+00;  0.0000000E+00;  0.0000000E+00;  0.0000000E+00;  0.0000000E+00;0;  1.8754959E-05;  1.0000000E+02;  0.0000000E+00;  0.0000000E+00;  1.0000000E+02;  0.0000000E+00;  1.0000000E+02;  2.0092088E-05;  0.0000000E+00; -1.3371285E-06;  0.0000000E+00;
 -8.0000001E-01;  9.9999998E-03; -8.0000001E-01;27;  0.0000000E+00;  0.0000000E+00;  0.0000000E+00;  1.0001713E+01;  4.0000001E-01;  1.8431412E-01;0;  0.0000000E+00;  0.0000000E+00;  0.0000000E+00;  0.0000000E+00;  0.0000000E+00;  0.0000000E+00;0;  3.0572824E-05;  1.0000000E+02;  0.0000000E+00;  0.0000000E+00;  1.0000000E+02;  0.0000000E+00;  1.0000000E+02;  3.1122239E-05;  0.0000000E+00; -5.4941302E-07;  0.0000000E+00;
 -8.0000001E-01;  9.9999998E-03; -6.0000002E-01;28;  0.0000000E+00;  0.0000000E+00;  0.0000000E+00;  1.0002049E+01;  4.0000001E-01;  2.2048432E-01;0;  0.0000000E+00;  0.0000000E+00;  0.0000000E+00;  0.0000000E+00;  0.0000000E+00;  0.0000000E+00;0;  4.4381799E-05;  1.0000000E+02;  0.0000000E+00;  0.0000000E+00;  1.0000000E+02;  0.0000000E+00;  1.0000000E+02;  4.3840093E-05;  0.0000000E+00;  5.4170511E-07;  0.0000000E+00;
 -8.0000001E-01;  9.9999998E-03; -4.0000001E-01;29;  0.0000000E+00;  0.0000000E+00;  0.0000000E+00;  1.0002276E+01;  4.0000001E-01;  2.4498257E-01;0;  0.0000000E+00;  0.0000000E+00;  0.0000000E+00;  0.0000000E+00;  0.0000000E+00;  0.0000000E+00;0;  5.7826219E-05;  1.0000000E+02;  0.0000000E+00;  0.0000000E+00;  1.0000000E+02;  0.0000000E+00;  1.0000000E+02;  5.6098244E-05;  0.0000000E+00;  1.7279729E-06;  0.0000000E+00;
 -8.0000001E-01;  9.9999998E-03; -2.0000000E-01;30;  0.0000000E+00;  0.0000000E+00;  0.0000000E+00;  1.0002131E+01;  4.0000001E-01;  2.2933447E-01;0;  0.0000000E+00;  0.0000000E+00;  0.0000000E+00;  0.0000000E+00;  0.0000000E+00;  0.0000000E+00;0;  6.7750138E-05;  1.0000000E+02;  0.0000000E+00;  0.0000000E+00;  1.0000000E+02;  0.0000000E+00;  1.0000000E+02;  6.5071690E-05;  0.0000000E+00;  2.6784485E-06;  0.0000000E+00;
 -6.0000002E-01;  9.9999998E-03; -1.8000000E+00;43;  0.0000000E+00;  0.0000000E+00;  0.0000000E+00;  1.0000278E+01;  4.0000001E-01;  3.0013569E-02;0;  0.0000000E+00;  0.0000000E+00;  0.0000000E+00;  0.0000000E+00;  0.0000000E+00;  0.0000000E+00;0;  1.1764038E-06;  1.0000000E+02;  0.0000000E+00;  0.0000000E+00;  1.0000000E+02;  0.0000000E+00;  1.0000000E+02;  2.2581653E-06;  0.0000000E+00; -1.0817615E-06;  0.0000000E+00;
 -6.0000002E-01;  9.9999998E-03; -1.6000000E+00;44;  0.0000000E+00;  0.0000000E+00;  0.0000000E+00;  1.0000634E+01;  4.0000001E-01;  6.8235978E-02;0;  0.0000000E+00;  0.0000000E+00;  0.0000000E+00;  0.0000000E+00;  0.0000000E+00;  0.0000000E+00;0;  3.7556297E-06;  1.0000000E+02;  0.0000000E+00;  0.0000000E+00;  1.0000000E+02;  0.0000000E+00;  1.0000000E+02;  5.2017981E-06;  0.0000000E+00; -1.4461685E-06;  0.0000000E+00;
 -6.0000002E-01;  9.9999998E-03; -1.4000000E+00;45;  0.0000000E+00;  0.0000000E+00;  0.0000000E+00;  1.0001203E+01;  4.0000001E-01;  1.2941748E-01;0;  0.0000000E+00;  0.0000000E+00;  0.0000000E+00;  0.0000000E+00;  0.0000000E+00;  0.0000000E+00;0;  8.5683305E-06;  1.0000000E+02;  0.0000000E+00;  0.0000000E+00;  1.0000000E+02;  0.0000000E+00;  1.0000000E+02;  1.0261746E-05;  0.0000000E+00; -1.6934151E-06;  0.0000000E+00;
 -6.0000002E-01;  9.9999998E-03; -1.2000000E+00;46;  0.0000000E+00;  0.0000000E+00;  0.0000000E+00;  1.0001933E+01;  4.0000001E-01;  2.0804277E-01;0;  0.0000000E+00;  0.0000000E+00;  0.0000000E+00;  0.0000000E+00;  0.0000000E+00;  0.0000000E+00;0;  1.6356549E-05;  1.0000000E+02;  0.0000000E+00;  0.0000000E+00;  1.0000000E+02;  0.0000000E+00;  1.0000000E+02;  1.8130588E-05;  0.0000000E+00; -1.7740383E-06;  0.0000000E+00;
 -6.0000002E-01;  9.9999998E-03; -1.0000000E+00;47;  0.0000000E+00;  0.0000000E+00;  0.0000000E+00;  1.0002289E+01;  4.0000001E-01;  2.4626517E-01;0;  0.0000000E+00;  0.0000000E+00;  0.0000000E+00;  0.0000000E+00;  0.0000000E+00;  0.0000000E+00;0;  2.7655742E-05;  1.0000000E+02;  0.0000000E+00;  0.0000000E+00;  1.0000000E+02;  0.0000000E+00;  1.0000000E+02;  2.9199744E-05;  0.0000000E+00; -1.5440023E-06;  0.0000000E+00;
 -6.0000002E-01;  9.9999998E-03; -8.0000001E-01;48;  0.0000000E+00;  0.0000000E+00;  0.0000000E+00;  1.0002937E+01;  4.0000001E-01;  3.1604031E-01;0;  0.0000000E+00;  0.0000000E+00;  0.0000000E+00;  0.0000000E+00;  0.0000000E+00;  0.0000000E+00;0;  4.2426211E-05;  1.0000000E+02;  0.0000000E+00;  0.0000000E+00;  1.0000000E+02;  0.0000000E+00;  1.0000000E+02;  4.3281361E-05;  0.0000000E+00; -8.5514966E-07;  0.0000000E+00;
 -6.0000002E-01;  9.9999998E-03; -6.0000002E-01;49;  0.0000000E+00;  0.0000000E+00;  0.0000000E+00;  1.0003564E+01;  4.0000001E-01;  3.8350672E-01;0;  0.0000000E+00;  0.0000000E+00;  0.0000000E+00;  0.0000000E+00;  0.0000000E+00;  0.0000000E+00;0;  5.9669899E-05;  1.0000000E+02;  0.0000000E+00;  0.0000000E+00;  1.0000000E+02;  0.0000000E+00;  1.0000000E+02;  5.9347873E-05;  0.0000000E+00;  3.2202590E-07;  0.0000000E+00;
 -6.0000002E-01;  9.9999998E-03; -4.0000001E-01;50;  0.0000000E+00;  0.0000000E+00;  0.0000000E+00;  1.0003390E+01;  4.0000001E-01;  3.6478031E-01;0;  0.0000000E+00;  0.0000000E+00;  0.0000000E+00;  0.0000000E+00;  0.0000000E+00;  0.0000000E+00;0;  7.6840995E-05;  1.0000000E+02;  0.0000000E+00;  0.0000000E+00;  1.0000000E+02;  0.0000000E+00;  1.0000000E+02;  7.5056356E-05;  0.0000000E+00;  1.7846384E-06;  0.0000000E+00;
 -6.0000002E-01;  9.9999998E-03; -2.0000000E-01;51;  0.0000000E+00;  0.0000000E+00;  0.0000000E+00;  1.0003590E+01;  4.0000001E-01;  3.8620022E-01;0;  0.0000000E+00;  0.0000000E+00;  0.0000000E+00;  0.0000000E+00;  0.0000000E+00;  0.0000000E+00;0;  8.9903944E-05;  1.0000000E+02;  0.0000000E+00;  0.0000000E+00;  1.0000000E+02;  0.0000000E+00;  1.0000000E+02;  8.6838096E-05;  0.0000000E+00;  3.0658521E-06;  0.0000000E+00;
 -4.0000001E-01;  9.9999998E-03; -1.8000000E+00;64;  0.0000000E+00;  0.0000000E+00;  0.0000000E+00;  1.0000381E+01;  4.0000001E-01;  4.0915929E-02;0;  0.0000000E+00;  0.0000000E+00;  0.0000000E+00;  0.0000000E+00;  0.0000000E+00;  0.0000000E+00;0;  4.3331488E-06;  1.0000000E+02;  0.0000000E+00;  0.0000000E+00;  1.0000000E+02;  0.0000000E+00;  1.0000000E+02;  4.1480362E-06;  0.0000000E+00;  1.8511248E-07;  0.0000000E+00;
 -4.0000001E-01;  9.9999998E-03; -1.6000000E+00;65;  0.0000000E+00;  0.0000000E+00;  0.0000000E+00;  1.0000803E+01;  4.0000001E-01;  8.6449325E-02;0;  0.0000000E+00;  0.0000000E+00;  0.0000000E+00;  0.0000000E+00;  0.0000000E+00;  0.0000000E+00;0;  9.7869688E-06;  1.0000000E+02;  0.0000000E+00;  0.0000000E+00;  1.0000000E+02;  0.0000000E+00;  1.0000000E+02;  9.5457635E-06;  0.0000000E+00;  2.4120507E-07;  0.0000000E+00;
 -4.0000001E-01;  9.9999998E-03; -1.4000000E+00;66;  0.0000000E+00;  0.0000000E+00;  0.0000000E+00;  1.0001434E+01;  4.0000001E-01;  1.5430051E-01;0;  0.0000000E+00;  0.0000000E+00;  0.0000000E+00;  0.0000000E+00;  0.0000000E+00;  0.0000000E+00;0;  1.7867926E-05;  1.0000000E+02;  0.0000000E+00;  0.0000000E+00;  1.0000000E+02;  0.0000000E+00;  1.0000000E+02;  1.8024883E-05;  0.0000000E+00; -1.5695785E-07;  0.0000000E+00;
 -4.0000001E-01;  9.9999998E-03; -1.2000000E+00;67;  0.0000000E+00;  0.0000000E+00;  0.0000000E+00;  1.0001693E+01;  4.0000001E-01;  1.8213360E-01;0;  0.0000000E+00;  0.0000000E+00;  0.0000000E+00;  0.0000000E+00;  0.0000000E+00;  0.0000000E+00;0;  2.8246459E-05;  1.0000000E+02;  0.0000000E+00;  0.0000000E+00;  1.0000000E+02;  0.0000000E+00;  1.0000000E+02;  2.9061142E-05;  0.0000000E+00; -8.1468426E-07;  0.0000000E+00;
 -4.0000001E-01;  9.9999998E-03; -1.0000000E+00;68;  0.0000000E+00;  0.0000000E+00;  0.0000000E+00;  1.0002637E+01;  4.0000001E-01;  2.8371796E-01;0;  0.0000000E+00;  0.0000000E+00;  0.0000000E+00;  0.0000000E+00;  0.0000000E+00;  0.0000000E+00;0;  4.0370622E-05;  1.0000000E+02;  0.0000000E+00;  0.0000000E+00;  1.0000000E+02;  0.0000000E+00;  1.0000000E+02;  4.1667772E-05;  0.0000000E+00; -1.2971499E-06;  0.0000000E+00;
 -4.0000001E-01;  9.9999998E-03; -8.0000001E-01;69;  0.0000000E+00;  0.0000000E+00;  0.0000000E+00;  1.0003633E+01;  4.0000001E-01;  3.9094591E-01;0;  0.0000000E+00;  0.0000000E+00;  0.0000000E+00;  0.0000000E+00;  0.0000000E+00;  0.0000000E+00;0;  5.3757140E-05;  1.0000000E+02;  0.0000000E+00;  0.0000000E+00;  1.0000000E+02;  0.0000000E+00;  1.0000000E+02;  5.4980297E-05;  0.0000000E+00; -1.2231584E-06;  0.0000000E+00;
 -4.0000001E-01;  9.9999998E-03; -6.0000002E-01;70;  0.0000000E+00;  0.0000000E+00;  0.0000000E+00;  1.0004120E+01;  4.0000001E-01;  4.4327727E-01;0;  0.0000000E+00;  0.0000000E+00;  0.0000000E+00;  0.0000000E+00;  0.0000000E+00;  0.0000000E+00;0;  6.8141395E-05;  1.0000000E+02;  0.0000000E+00;  0.0000000E+00;  1.0000000E+02;  0.0000000E+00;  1.0000000E+02;  6.8607689E-05;  0.0000000E+00; -4.6629424E-07;  0.0000000E+00;
 -4.0000001E-01;  9.9999998E-03; -4.0000001E-01;71;  0.0000000E+00;  0.0000000E+00;  0.0000000E+00;  1.0004475E+01;  4.0000001E-01;  4.8149967E-01;0;  0.0000000E+00;  0.0000000E+00;  0.0000000E+00;  0.0000000E+00;  0.0000000E+00;  0.0000000E+00;0;  8.2496212E-05;  1.0000000E+02;  0.0000000E+00;  0.0000000E+00;  1.0000000E+02;  0.0000000E+00;  1.0000000E+02;  8.1765233E-05;  0.0000000E+00;  7.3097846E-07;  0.0000000E+00;
 -4.0000001E-01;  9.9999998E-03; -2.0000000E-01;72;  0.0000000E+00;  0.0000000E+00;  0.0000000E+00;  1.0004834E+01;  4.0000001E-01;  5.2010685E-01;0;  0.0000000E+00;  0.0000000E+00;  0.0000000E+00;  0.0000000E+00;  0.0000000E+00;  0.0000000E+00;0;  9.3873357E-05;  1.0000000E+02;  0.0000000E+00;  0.0000000E+00;  1.0000000E+02;  0.0000000E+00;  1.0000000E+02;  9.2078109E-05;  0.0000000E+00;  1.7952453E-06;  0.0000000E+00;
 -2.0000000E-01;  9.9999998E-03; -1.8000000E+00;85;  0.0000000E+00;  0.0000000E+00;  0.0000000E+00;  1.0000424E+01;  4.0000001E-01;  4.5661636E-02;0;  0.0000000E+00;  0.0000000E+00;  0.0000000E+00;  0.0000000E+00;  0.0000000E+00;  0.0000000E+00;0;  1.3912237E-05;  1.0000000E+02;  0.0000000E+00;  0.0000000E+00;  1.0000000E+02;  0.0000000E+00;  1.0000000E+02;  1.0762808E-05;  0.0000000E+00;  3.1494280E-06;  0.0000000E+00;
 -2.0000000E-01;  9.9999998E-03; -1.6000000E+00;86;  0.0000000E+00;  0.0000000E+00;  0.0000000E+00;  1.0000022E+01;  4.0000001E-01;  2.3087345E-03;0;  0.0000000E+00;  0.0000000E+00;  0.0000000E+00;  0.0000000E+00;  0.0000000E+00;  0.0000000E+00;0;  2.7184671E-05;  1.0000000E+02;  0.0000000E+00;  0.0000000E+00;  1.0000000E+02;  0.0000000E+00;  1.0000000E+02;  2.3342298E-05;  0.0000000E+00;  3.8423732E-06;  0.0000000E+00;
 -2.0000000E-01;  9.9999998E-03; -1.4000000E+00;87;  0.0000000E+00;  0.0000000E+00;  0.0000000E+00;  1.0000466E+01;  4.0000001E-01;  5.0150841E-02;0;  0.0000000E+00;  0.0000000E+00;  0.0000000E+00;  0.0000000E+00;  0.0000000E+00;  0.0000000E+00;0;  4.3533961E-05;  1.0000000E+02;  0.0000000E+00;  0.0000000E+00;  1.0000000E+02;  0.0000000E+00;  1.0000000E+02;  4.0377126E-05;  0.0000000E+00;  3.1568361E-06;  0.0000000E+00;
 -2.0000000E-01;  9.9999998E-03; -1.2000000E+00;88;  0.0000000E+00;  0.0000000E+00;  0.0000000E+00;  1.0001040E+01;  4.0000001E-01;  1.1197362E-01;0;  0.0000000E+00;  0.0000000E+00;  0.0000000E+00;  0.0000000E+00;  0.0000000E+00;  0.0000000E+00;0;  5.9867732E-05;  1.0000000E+02;  0.0000000E+00;  0.0000000E+00;  1.0000000E+02;  0.0000000E+00;  1.0000000E+02;  5.8393791E-05;  0.0000000E+00;  1.4739400E-06;  0.0000000E+00;
 -2.0000000E-01;  9.9999998E-03; -1.0000000E+00;89;  0.0000000E+00;  0.0000000E+00;  0.0000000E+00;  1.0001530E+01;  4.0000001E-01;  1.6456147E-01;0;  0.0000000E+00;  0.0000000E+00;  0.0000000E+00;  0.0000000E+00;  0.0000000E+00;  0.0000000E+00;0;  7.2625378E-05;  1.0000000E+02;  0.0000000E+00;  0.0000000E+00;  1.0000000E+02;  0.0000000E+00;  1.0000000E+02;  7.3000898E-05;  0.0000000E+00; -3.7551814E-07;  0.0000000E+00;
 -2.0000000E-01;  9.9999998E-03; -8.0000001E-01;90;  0.0000000E+00;  0.0000000E+00;  0.0000000E+00;  1.0002524E+01;  4.0000001E-01;  2.7166110E-01;0;  0.0000000E+00;  0.0000000E+00;  0.0000000E+00;  0.0000000E+00;  0.0000000E+00;  0.0000000E+00;0;  8.0240781E-05;  1.0000000E+02;  0.0000000E+00;  0.0000000E+00;  1.0000000E+02;  0.0000000E+00;  1.0000000E+02;  8.1873710E-05;  0.0000000E+00; -1.6329271E-06;  0.0000000E+00;
 -2.0000000E-01;  9.9999998E-03; -6.0000002E-01;91;  0.0000000E+00;  0.0000000E+00;  0.0000000E+00;  1.0003485E+01;  4.0000001E-01;  3.7491283E-01;0;  0.0000000E+00;  0.0000000E+00;  0.0000000E+00;  0.0000000E+00;  0.0000000E+00;  0.0000000E+00;0;  8.4461535E-05;  1.0000000E+02;  0.0000000E+00;  0.0000000E+00;  1.0000000E+02;  0.0000000E+00;  1.0000000E+02;  8.6486885E-05;  0.0000000E+00; -2.0253515E-06;  0.0000000E+00;
 -2.0000000E-01;  9.9999998E-03; -4.0000001E-01;92;  0.0000000E+00;  0.0000000E+00;  0.0000000E+00;  1.0004088E+01;  4.0000001E-01;  4.3994218E-01;0;  0.0000000E+00;  0.0000000E+00;  0.0000000E+00;  0.0000000E+00;  0.0000000E+00;  0.0000000E+00;0;  8.7903361E-05;  1.0000000E+02;  0.0000000E+00;  0.0000000E+00;  1.0000000E+02;  0.0000000E+00;  1.0000000E+02;  8.9796515E-05;  0.0000000E+00; -1.8931523E-06;  0.0000000E+00;
 -2.0000000E-01;  9.9999998E-03; -2.0000000E-01;93;  0.0000000E+00;  0.0000000E+00;  0.0000000E+00;  1.0004549E+01;  4.0000001E-01;  4.8945171E-01;0;  0.0000000E+00;  0.0000000E+00;  0.0000000E+00;  0.0000000E+00;  0.0000000E+00;  0.0000000E+00;0;  9.0661168E-05;  1.0000000E+02;  0.0000000E+00;  0.0000000E+00;  1.0000000E+02;  0.0000000E+00;  1.0000000E+02;  9.2485774E-05;  0.0000000E+00; -1.8246074E-06;  0.0000000E+00;
  0.0000000E+00;  9.9999998E-03; -1.8000000E+00;106;  0.0000000E+00;  0.0000000E+00;  0.0000000E+00;  1.0000000E+01;  4.0000001E-01;  0.0000000E+00;0;  0.0000000E+00;  0.0000000E+00;  0.0000000E+00;  0.0000000E+00;  0.0000000E+00;  0.0000000E+00;0;  3.7364527E-05;  1.0000000E+02;  0.0000000E+00;  0.0000000E+00;  1.0000000E+02;  0.0000000E+00;  1.0000000E+02;  3.0191624E-05;  0.0000000E+00;  7.1729032E-06;  0.0000000E+00;
  0.0000000E+00;  9.9999998E-03; -1.6000000E+00;107;  0.0000000E+00;  0.0000000E+00;  0.0000000E+00;  1.0000000E+01;  4.0000001E-01;  0.0000000E+00;0;  0.0000000E+00;  0.0000000E+00;  0.0000000E+00;  0.0000000E+00;  0.0000000E+00;  0.0000000E+00;0;  6.8320078E-05;  1.0000000E+02;  0.0000000E+00;  0.0000000E+00;  1.0000000E+02;  0.0000000E+00;  1.0000000E+02;  5.9620514E-05;  0.0000000E+00;  8.6995651E-06;  0.0000000E+00;
  0.0000000E+00;  9.9999998E-03; -1.4000000E+00;108;  0.0000000E+00;  0.0000000E+00;  0.0000000E+00;  1.0000000E+01;  4.0000001E-01;  0.0000000E+00;0;  0.0000000E+00;  0.0000000E+00;  0.0000000E+00;  0.0000000E+00;  0.0000000E+00;  0.0000000E+00;0;  1.0389344E-04;  1.0000000E+02;  0.0000000E+00;  0.0000000E+00;  1.0000000E+02;  0.0000000E+00;  1.0000000E+02;  9.5865871E-05;  0.0000000E+00;  8.0275622E-06;  0.0000000E+00;
  0.0000000E+00;  9.9999998E-03; -1.2000000E+00;109;  0.0000000E+00;  0.0000000E+00;  0.0000000E+00;  1.0000000E+01;  4.0000001E-01;  0.0000000E+00;0;  0.0000000E+00;  0.0000000E+00;  0.0000000E+00;  0.0000000E+00;  0.0000000E+00;  0.0000000E+00;0;  1.3543914E-04;  1.0000000E+02;  0.0000000E+00;  0.0000000E+00;  1.0000000E+02;  0.0000000E+00;  1.0000000E+02;  1.3003979E-04;  0.0000000E+00;  5.3993544E-06;  0.0000000E+00;
  2.0000000E-01;  9.9999998E-03; -1.8000000E+00;116;  0.0000000E+00;  0.0000000E+00;  0.0000000E+00;  1.0000000E+01;  4.0000001E-01;  0.0000000E+00;0;  0.0000000E+00;  0.0000000E+00;  0.0000000E+00;  0.0000000E+00;  0.0000000E+00;  0.0000000E+00;0;  8.6340980E-05;  1.0000000E+02;  0.0000000E+00;  0.0000000E+00;  1.0000000E+02;  0.0000000E+00;  1.0000000E+02;  7.6082331E-05;  0.0000000E+00;  1.0258649E-05;  0.0000000E+00;
  2.0000000E-01;  9.9999998E-03; -1.6000000E+00;117;  0.0000000E+00;  0.0000000E+00;  0.0000000E+00;  1.0000000E+01;  4.0000001E-01;  0.0000000E+00;0;  0.0000000E+00;  0.0000000E+00;  0.0000000E+00;  0.0000000E+00;  0.0000000E+00;  0.0000000E+00;0;  1.5314428E-04;  1.0000000E+02;  0.0000000E+00;  0.0000000E+00;  1.0000000E+02;  0.0000000E+00;  1.0000000E+02;  1.4048294E-04;  0.0000000E+00;  1.2661339E-05;  0.0000000E+00;
  2.0000000E-01;  9.9999998E-03; -1.4000000E+00;118;  0.0000000E+00;  0.0000000E+00;  0.0000000E+00;  1.0000000E+01;  4.0000001E-01;  0.0000000E+00;0;  0.0000000E+00;  0.0000000E+00;  0.0000000E+00;  0.0000000E+00;  0.0000000E+00;  0.0000000E+00;0;  2.3026952E-04;  1.0000000E+02;  0.0000000E+00;  0.0000000E+00;  1.0000000E+02;  0.0000000E+00;  1.0000000E+02;  2.1740756E-04;  0.0000000E+00;  1.2861956E-05;  0.0000000E+00;
  2.0000000E-01;  9.9999998E-03; -1.2000000E+00;119;  0.0000000E+00;  0.0000000E+00;  0.0000000E+00;  1.0000000E+01;  4.0000001E-01;  0.0000000E+00;0;  0.0000000E+00;  0.0000000E+00;  0.0000000E+00;  0.0000000E+00;  0.0000000E+00;  0.0000000E+00;0;  3.0061803E-04;  1.0000000E+02;  0.0000000E+00;  0.0000000E+00;  1.0000000E+02;  0.0000000E+00;  1.0000000E+02;  2.9018358E-04;  0.0000000E+00;  1.0434438E-05;  0.0000000E+00;
  4.0000001E-01;  9.9999998E-03; -1.8000000E+00;126;  0.0000000E+00;  0.0000000E+00;  0.0000000E+00;  1.0000000E+01;  4.0000001E-01;  0.0000000E+00;0;  0.0000000E+00;  0.0000000E+00;  0.0000000E+00;  0.0000000E+00;  0.0000000E+00;  0.0000000E+00;0;  1.7934335E-04;  1.0000000E+02;  0.0000000E+00;  0.0000000E+00;  1.0000000E+02;  0.0000000E+00;  1.0000000E+02;  1.6969885E-04;  0.0000000E+00;  9.6445056E-06;  0.0000000E+00;
  4.0000001E-01;  9.9999998E-03; -1.6000000E+00;127;  0.0000000E+00;  0.0000000E+00;  0.0000000E+00;  1.0000000E+01;  4.0000001E-01;  0.0000000E+00;0;  0.0000000E+00;  0.0000000E+00;  0.0000000E+00;  0.0000000E+00;  0.0000000E+00;  0.0000000E+00;0;  3.1361042E-04;  1.0000000E+02;  0.0000000E+00;  0.0000000E+00;  1.0000000E+02;  0.0000000E+00;  1.0000000E+02;  3.0128745E-04;  0.0000000E+00;  1.2322982E-05;  0.0000000E+00;
  4.0000001E-01;  9.9999998E-03; -1.4000000E+00;128;  0.0000000E+00;  0.0000000E+00;  0.0000000E+00;  1.0000000E+01;  4.0000001E-01;  0.0000000E+00;0;  0.0000000E+00;  0.0000000E+00;  0.0000000E+00;  0.0000000E+00;  0.0000000E+00;  0.0000000E+00;0;  4.7488592E-04;  1.0000000E+02;  0.0000000E+00;  0.0000000E+00;  1.0000000E+02;  0.0000000E+00;  1.0000000E+02;  4.6102685E-04;  0.0000000E+00;  1.3859069E-05;  0.0000000E+00;
  4.0000001E-01;  9.9999998E-03; -1.2000000E+00;129;  0.0000000E+00;  0.0000000E+00;  0.0000000E+00;  1.0000000E+01;  4.0000001E-01;  0.0000000E+00;0;  0.0000000E+00;  0.0000000E+00;  0.0000000E+00;  0.0000000E+00;  0.0000000E+00;  0.0000000E+00;0;  6.3384604E-04;  1.0000000E+02;  0.0000000E+00;  0.0000000E+00;  1.0000000E+02;  0.0000000E+00;  1.0000000E+02;  6.2076753E-04;  0.0000000E+00;  1.3078510E-05;  0.0000000E+00;
  6.0000002E-01;  9.9999998E-03; -1.8000000E+00;136;  0.0000000E+00;  0.0000000E+00;  0.0000000E+00;  1.0000000E+01;  4.0000001E-01;  0.0000000E+00;0;  0.0000000E+00;  0.0000000E+00;  0.0000000E+00;  0.0000000E+00;  0.0000000E+00;  0.0000000E+00;0;  3.3696537E-04;  1.0000000E+02;  0.0000000E+00;  0.0000000E+00;  1.0000000E+02;  0.0000000E+00;  1.0000000E+02;  3.3387268E-04;  0.0000000E+00;  3.0926872E-06;  0.0000000E+00;
  6.0000002E-01;  9.9999998E-03; -1.6000000E+00;137;  0.0000000E+00;  0.0000000E+00;  0.0000000E+00;  1.0000000E+01;  4.0000001E-01;  0.0000000E+00;0;  0.0000000E+00;  0.0000000E+00;  0.0000000E+00;  0.0000000E+00;  0.0000000E+00;  0.0000000E+00;0;  5.8459537E-04;  1.0000000E+02;  0.0000000E+00;  0.0000000E+00;  1.0000000E+02;  0.0000000E+00;  1.0000000E+02;  5.8016466E-04;  0.0000000E+00;  4.4307158E-06;  0.0000000E+00;
  6.0000002E-01;  9.9999998E-03; -1.4000000E+00;138;  0.0000000E+00;  0.0000000E+00;  0.0000000E+00;  1.0000000E+01;  4.0000001E-01;  0.0000000E+00;0;  0.0000000E+00;  0.0000000E+00;  0.0000000E+00;  0.0000000E+00;  0.0000000E+00;  0.0000000E+00;0;  8.9629675E-04;  1.0000000E+02;  0.0000000E+00;  0.0000000E+00;  1.0000000E+02;  0.0000000E+00;  1.0000000E+02;  8.8994129E-04;  0.0000000E+00;  6.3554685E-06;  0.0000000E+00;
  6.0000002E-01;  9.9999998E-03; -1.2000000E+00;139;  0.0000000E+00;  0.0000000E+00;  0.0000000E+00;  1.0000000E+01;  4.0000001E-01;  0.0000000E+00;0;  0.0000000E+00;  0.0000000E+00;  0.0000000E+00;  0.0000000E+00;  0.0000000E+00;  0.0000000E+00;0;  1.2179012E-03;  1.0000000E+02;  0.0000000E+00;  0.0000000E+00;  1.0000000E+02;  0.0000000E+00;  1.0000000E+02;  1.2101787E-03;  0.0000000E+00;  7.7224777E-06;  0.0000000E+00;
  8.0000001E-01;  9.9999998E-03; -1.8000000E+00;146;  0.0000000E+00;  0.0000000E+00;  0.0000000E+00;  1.0000000E+01;  4.0000001E-01;  0.0000000E+00;0;  0.0000000E+00;  0.0000000E+00;  0.0000000E+00;  0.0000000E+00;  0.0000000E+00;  0.0000000E+00;0;  5.5448653E-04;  1.0000000E+02;  0.0000000E+00;  0.0000000E+00;  1.0000000E+02;  0.0000000E+00;  1.0000000E+02;  5.6469213E-04;  0.0000000E+00; -1.0205586E-05;  0.0000000E+00;
  8.0000001E-01;  9.9999998E-03; -1.6000000E+00;147;  0.0000000E+00;  0.0000000E+00;  0.0000000E+00;  1.0000000E+01;  4.0000001E-01;  0.0000000E+00;0;  0.0000000E+00;  0.0000000E+00;  0.0000000E+00;  0.0000000E+00;  0.0000000E+00;  0.0000000E+00;0;  9.5777254E-04;  1.0000000E+02;  0.0000000E+00;  0.0000000E+00;  1.0000000E+02;  0.0000000E+00;  1.0000000E+02;  9.6964679E-04;  0.0000000E+00; -1.1874221E-05;  0.0000000E+00;
  8.0000001E-01;  9.9999998E-03; -1.4000000E+00;148;  0.0000000E+00;  0.0000000E+00;  0.0000000E+00;  1.0000000E+01;  4.0000001E-01;  0.0000000E+00;0;  0.0000000E+00;  0.0000000E+00;  0.0000000E+00;  0.0000000E+00;  0.0000000E+00;  0.0000000E+00;0;  1.4899386E-03;  1.0000000E+02;  0.0000000E+00;  0.0000000E+00;  1.0000000E+02;  0.0000000E+00;  1.0000000E+02;  1.5015381E-03;  0.0000000E+00; -1.1599495E-05;  0.0000000E+00;
  8.0000001E-01;  9.9999998E-03; -1.2000000E+00;149;  0.0000000E+00;  0.0000000E+00;  0.0000000E+00;  1.0000000E+01;  4.0000001E-01;  0.0000000E+00;0;  0.0000000E+00;  0.0000000E+00;  0.0000000E+00;  0.0000000E+00;  0.0000000E+00;  0.0000000E+00;0;  2.0542347E-03;  1.0000000E+02;  0.0000000E+00;  0.0000000E+00;  1.0000000E+02;  0.0000000E+00;  1.0000000E+02;  2.0632853E-03;  0.0000000E+00; -9.0504918E-06;  0.0000000E+00;
  1.0000000E+00;  9.9999998E-03; -1.8000000E+00;156;  0.0000000E+00;  0.0000000E+00;  0.0000000E+00;  1.0000000E+01;  4.0000001E-01;  0.0000000E+00;0;  0.0000000E+00;  0.0000000E+00;  0.0000000E+00;  0.0000000E+00;  0.0000000E+00;  0.0000000E+00;0;  7.7460275E-04;  1.0000000E+02;  0.0000000E+00;  0.0000000E+00;  1.0000000E+02;  0.0000000E+00;  1.0000000E+02;  8.0400676E-04;  0.0000000E+00; -2.9403987E-05;  0.0000000E+00;
  1.0000000E+00;  9.9999998E-03; -1.6000000E+00;157;  0.0000000E+00;  0.0000000E+00;  0.0000000E+00;  1.0000000E+01;  4.0000001E-01;  0.0000000E+00;0;  0.0000000E+00;  0.0000000E+00;  0.0000000E+00;  0.0000000E+00;  0.0000000E+00;  0.0000000E+00;0;  1.3521583E-03;  1.0000000E+02;  0.0000000E+00;  0.0000000E+00;  1.0000000E+02;  0.0000000E+00;  1.0000000E+02;  1.3864238E-03;  0.0000000E+00; -3.4265566E-05;  0.0000000E+00;
  1.0000000E+00;  9.9999998E-03; -1.4000000E+00;158;  0.0000000E+00;  0.0000000E+00;  0.0000000E+00;  1.0000000E+01;  4.0000001E-01;  0.0000000E+00;0;  0.0000000E+00;  0.0000000E+00;  0.0000000E+00;  0.0000000E+00;  0.0000000E+00;  0.0000000E+00;0;  2.1502564E-03;  1.0000000E+02;  0.0000000E+00;  0.0000000E+00;  1.0000000E+02;  0.0000000E+00;  1.0000000E+02;  2.1870409E-03;  0.0000000E+00; -3.6784484E-05;  0.0000000E+00;
  1.0000000E+00;  9.9999998E-03; -1.2000000E+00;159;  0.0000000E+00;  0.0000000E+00;  0.0000000E+00;  1.0000000E+01;  4.0000001E-01;  0.0000000E+00;0;  0.0000000E+00;  0.0000000E+00;  0.0000000E+00;  0.0000000E+00;  0.0000000E+00;  0.0000000E+00;0;  3.0158949E-03;  1.0000000E+02;  0.0000000E+00;  0.0000000E+00;  1.0000000E+02;  0.0000000E+00;  1.0000000E+02;  3.0492800E-03;  0.0000000E+00; -3.3385120E-05;  0.0000000E+00;
 -1.0000000E+00;  9.9999998E-03;  0.0000000E+00;10;  0.0000000E+00;  0.0000000E+00;  0.0000000E+00;  1.0000764E+01;  4.0000001E-01;  8.2216673E-02;0;  0.0000000E+00;  0.0000000E+00;  0.0000000E+00;  0.0000000E+00;  0.0000000E+00;  0.0000000E+00;0;  3.8613791E-05;  1.0000000E+02;  0.0000000E+00;  0.0000000E+00;  1.0000000E+02;  0.0000000E+00;  1.0000000E+02;  3.6805319E-05;  0.0000000E+00;  1.8084723E-06;  0.0000000E+00;
 -1.0000000E+00;  9.9999998E-03;  2.0000000E-01;11;  0.0000000E+00;  0.0000000E+00;  0.0000000E+00;  1.0000752E+01;  4.0000001E-01;  8.0934040E-02;0;  0.0000000E+00;  0.0000000E+00;  0.0000000E+00;  0.0000000E+00;  0.0000000E+00;  0.0000000E+00;0;  3.6594633E-05;  1.0000000E+02;  0.0000000E+00;  0.0000000E+00;  1.0000000E+02;  0.0000000E+00;  1.0000000E+02;  3.4962311E-05;  0.0000000E+00;  1.6323223E-06;  0.0000000E+00;
 -1.0000000E+00;  9.9999998E-03;  4.0000001E-01;12;  0.0000000E+00;  0.0000000E+00;  0.0000000E+00;  1.0000725E+01;  4.0000001E-01;  7.7983990E-02;0;  0.0000000E+00;  0.0000000E+00;  0.0000000E+00;  0.0000000E+00;  0.0000000E+00;  0.0000000E+00;0;  3.1115491E-05;  1.0000000E+02;  0.0000000E+00;  0.0000000E+00;  1.0000000E+02;  0.0000000E+00;  1.0000000E+02;  2.9978002E-05;  0.0000000E+00;  1.1374882E-06;  0.0000000E+00;
 -1.0000000E+00;  9.9999998E-03;  6.0000002E-01;13;  0.0000000E+00;  0.0000000E+00;  0.0000000E+00;  1.0001011E+01;  4.0000001E-01;  1.0876714E-01;0;  0.0000000E+00;  0.0000000E+00;  0.0000000E+00;  0.0000000E+00;  0.0000000E+00;  0.0000000E+00;0;  2.3614535E-05;  1.0000000E+02;  0.0000000E+00;  0.0000000E+00;  1.0000000E+02;  0.0000000E+00;  1.0000000E+02;  2.3187078E-05;  0.0000000E+00;  4.2745626E-07;  0.0000000E+00;
 -1.0000000E+00;  9.9999998E-03;  8.0000001E-01;14;  0.0000000E+00;  0.0000000E+00;  0.0000000E+00;  1.0001022E+01;  4.0000001E-01;  1.1004978E-01;0;  0.0000000E+00;  0.0000000E+00;  0.0000000E+00;  0.0000000E+00;  0.0000000E+00;  0.0000000E+00;0;  1.5828384E-05;  1.0000000E+02;  0.0000000E+00;  0.0000000E+00;  1.0000000E+02;  0.0000000E+00;  1.0000000E+02;  1.6142059E-05;  0.0000000E+00; -3.1367625E-07;  0.0000000E+00;
 -1.0000000E+00;  9.9999998E-03;  1.0000000E+00;15;  0.0000000E+00;  0.0000000E+00;  0.0000000E+00;  1.0000754E+01;  4.0000001E-01;  8.1190571E-02;0;  0.0000000E+00;  0.0000000E+00;  0.0000000E+00;  0.0000000E+00;  0.0000000E+00;  0.0000000E+00;0;  9.1795446E-06;  1.0000000E+02;  0.0000000E+00;  0.0000000E+00;  1.0000000E+02;  0.0000000E+00;  1.0000000E+02;  1.0076532E-05;  0.0000000E+00; -8.9698756E-07;  0.0000000E+00;
 -1.0000000E+00;  9.9999998E-03;  1.2000000E+00;16;  0.0000000E+00;  0.0000000E+00;  0.0000000E+00;  1.0000500E+01;  4.0000001E-01;  5.3742256E-02;0;  0.0000000E+00;  0.0000000E+00;  0.0000000E+00;  0.0000000E+00;  0.0000000E+00;  0.0000000E+00;0;  4.3927012E-06;  1.0000000E+02;  0.0000000E+00;  0.0000000E+00;  1.0000000E+02;  0.0000000E+00;  1.0000000E+02;  5.6070849E-06;  0.0000000E+00; -1.2143838E-06;  0.0000000E+00;
 -1.0000000E+00;  9.9999998E-03;  1.4000000E+00;17;  0.0000000E+00;  0.0000000E+00;  0.0000000E+00;  1.0000267E+01;  4.0000001E-01;  2.8730944E-02;0;  0.0000000E+00;  0.0000000E+00;  0.0000000E+00;  0.0000000E+00;  0.0000000E+00;  0.0000000E+00;0;  1.5104926E-06;  1.0000000E+02;  0.0000000E+00;  0.0000000E+00;  1.0000000E+02;  0.0000000E+00;  1.0000000E+02;  2.7534545E-06;  0.0000000E+00; -1.2429620E-06;  0.0000000E+00;
 -8.0000001E-01;  9.9999998E-03;  0.0000000E+00;31;  0.0000000E+00;  0.0000000E+00;  0.0000000E+00;  1.0001962E+01;  4.0000001E-01;  2.1112111E-01;0;  0.0000000E+00;  0.0000000E+00;  0.0000000E+00;  0.0000000E+00;  0.0000000E+00;  0.0000000E+00;0;  7.1423579E-05;  1.0000000E+02;  0.0000000E+00;  0.0000000E+00;  1.0000000E+02;  0.0000000E+00;  1.0000000E+02;  6.8374364E-05;  0.0000000E+00;  3.0492185E-06;  0.0000000E+00;
 -8.0000001E-01;  9.9999998E-03;  2.0000000E-01;32;  0.0000000E+00;  0.0000000E+00;  0.0000000E+00;  1.0002131E+01;  4.0000001E-01;  2.2933447E-01;0;  0.0000000E+00;  0.0000000E+00;  0.0000000E+00;  0.0000000E+00;  0.0000000E+00;  0.0000000E+00;0;  6.7749846E-05;  1.0000000E+02;  0.0000000E+00;  0.0000000E+00;  1.0000000E+02;  0.0000000E+00;  1.0000000E+02;  6.5071385E-05;  0.0000000E+00;  2.6784639E-06;  0.0000000E+00;
 -8.0000001E-01;  9.9999998E-03;  4.0000001E-01;33;  0.0000000E+00;  0.0000000E+00;  0.0000000E+00;  1.0002276E+01;  4.0000001E-01;  2.4498257E-01;0;  0.0000000E+00;  0.0000000E+00;  0.0000000E+00;  0.0000000E+00;  0.0000000E+00;  0.0000000E+00;0;  5.7825586E-05;  1.0000000E+02;  0.0000000E+00;  0.0000000E+00;  1.0000000E+02;  0.0000000E+00;  1.0000000E+02;  5.6097593E-05;  0.0000000E+00;  1.7279932E-06;  0.0000000E+00;
 -8.0000001E-01;  9.9999998E-03;  6.0000002E-01;34;  0.0000000E+00;  0.0000000E+00;  0.0000000E+00;  1.0002049E+01;  4.0000001E-01;  2.2048432E-01;0;  0.0000000E+00;  0.0000000E+00;  0.0000000E+00;  0.0000000E+00;  0.0000000E+00;  0.0000000E+00;0;  4.4380984E-05;  1.0000000E+02;  0.0000000E+00;  0.0000000E+00;  1.0000000E+02;  0.0000000E+00;  1.0000000E+02;  4.3839267E-05;  0.0000000E+00;  5.4171824E-07;  0.0000000E+00;
 -8.0000001E-01;  9.9999998E-03;  8.0000001E-01;35;  0.0000000E+00;  0.0000000E+00;  0.0000000E+00;  1.0001713E+01;  4.0000001E-01;  1.8431412E-01;0;  0.0000000E+00;  0.0000000E+00;  0.0000000E+00;  0.0000000E+00;  0.0000000E+00;  0.0000000E+00;0;  3.0571977E-05;  1.0000000E+02;  0.0000000E+00;  0.0000000E+00;  1.0000000E+02;  0.0000000E+00;  1.0000000E+02;  3.1121392E-05;  0.0000000E+00; -5.4941421E-07;  0.0000000E+00;
 -8.0000001E-01;  9.9999998E-03;  1.0000000E+00;36;  0.0000000E+00;  0.0000000E+00;  0.0000000E+00;  1.0001770E+01;  4.0000001E-01;  1.9047074E-01;0;  0.0000000E+00;  0.0000000E+00;  0.0000000E+00;  0.0000000E+00;  0.0000000E+00;  0.0000000E+00;0;  1.8754205E-05;  1.0000000E+02;  0.0000000E+00;  0.0000000E+00;  1.0000000E+02;  0.0000000E+00;  1.0000000E+02;  2.0091347E-05;  0.0000000E+00; -1.3371435E-06;  0.0000000E+00;
 -8.0000001E-01;  9.9999998E-03;  1.2000000E+00;37;  0.0000000E+00;  0.0000000E+00;  0.0000000E+00;  1.0001216E+01;  4.0000001E-01;  1.3082840E-01;0;  0.0000000E+00;  0.0000000E+00;  0.0000000E+00;  0.0000000E+00;  0.0000000E+00;  0.0000000E+00;0;  1.0022554E-05;  1.0000000E+02;  0.0000000E+00;  0.0000000E+00;  1.0000000E+02;  0.0000000E+00;  1.0000000E+02;  1.1779965E-05;  0.0000000E+00; -1.7574104E-06;  0.0000000E+00;
 -8.0000001E-01;  9.9999998E-03;  1.4000000E+00;38;  0.0000000E+00;  0.0000000E+00;  0.0000000E+00;  1.0000714E+01;  4.0000001E-01;  7.6829612E-02;0;  0.0000000E+00;  0.0000000E+00;  0.0000000E+00;  0.0000000E+00;  0.0000000E+00;  0.0000000E+00;0;  4.4182316E-06;  1.0000000E+02;  0.0000000E+00;  0.0000000E+00;  1.0000000E+02;  0.0000000E+00;  1.0000000E+02;  6.2508807E-06;  0.0000000E+00; -1.8326493E-06;  0.0000000E+00;
 -6.0000002E-01;  9.9999998E-03;  0.0000000E+00;52;  0.0000000E+00;  0.0000000E+00;  0.0000000E+00;  1.0003654E+01;  4.0000001E-01;  3.9325470E-01;0;  0.0000000E+00;  0.0000000E+00;  0.0000000E+00;  0.0000000E+00;  0.0000000E+00;  0.0000000E+00;0;  9.4874871E-05;  1.0000000E+02;  0.0000000E+00;  0.0000000E+00;  1.0000000E+02;  0.0000000E+00;  1.0000000E+02;  9.1286798E-05;  0.0000000E+00;  3.5880751E-06;  0.0000000E+00;
 -6.0000002E-01;  9.9999998E-03;  2.0000000E-01;53;  0.0000000E+00;  0.0000000E+00;  0.0000000E+00;  1.0003590E+01;  4.0000001E-01;  3.8620022E-01;0;  0.0000000E+00;  0.0000000E+00;  0.0000000E+00;  0.0000000E+00;  0.0000000E+00;  0.0000000E+00;0;  8.9903479E-05;  1.0000000E+02;  0.0000000E+00;  0.0000000E+00;  1.0000000E+02;  0.0000000E+00;  1.0000000E+02;  8.6837601E-05;  0.0000000E+00;  3.0658762E-06;  0.0000000E+00;
 -6.0000002E-01;  9.9999998E-03;  4.0000001E-01;54;  0.0000000E+00;  0.0000000E+00;  0.0000000E+00;  1.0003390E+01;  4.0000001E-01;  3.6478031E-01;0;  0.0000000E+00;  0.0000000E+00;  0.0000000E+00;  0.0000000E+00;  0.0000000E+00;  0.0000000E+00;0;  7.6840057E-05;  1.0000000E+02;  0.0000000E+00;  0.0000000E+00;  1.0000000E+02;  0.0000000E+00;  1.0000000E+02;  7.5055388E-05;  0.0000000E+00;  1.7846704E-06;  0.0000000E+00;
 -6.0000002E-01;  9.9999998E-03;  6.0000002E-01;55;  0.0000000E+00;  0.0000000E+00;  0.0000000E+00;  1.0003564E+01;  4.0000001E-01;  3.8350672E-01;0;  0.0000000E+00;  0.0000000E+00;  0.0000000E+00;  0.0000000E+00;  0.0000000E+00;  0.0000000E+00;0;  5.9668742E-05;  1.0000000E+02;  0.0000000E+00;  0.0000000E+00;  1.0000000E+02;  0.0000000E+00;  1.0000000E+02;  5.9346698E-05;  0.0000000E+00;  3.2204488E-07;  0.0000000E+00;
 -6.0000002E-01;  9.9999998E-03;  8.0000001E-01;56;  0.0000000E+00;  0.0000000E+00;  0.0000000E+00;  1.0002937E+01;  4.0000001E-01;  3.1604031E-01;0;  0.0000000E+00;  0.0000000E+00;  0.0000000E+00;  0.0000000E+00;  0.0000000E+00;  0.0000000E+00;0;  4.2424985E-05;  1.0000000E+02;  0.0000000E+00;  0.0000000E+00;  1.0000000E+02;  0.0000000E+00;  1.0000000E+02;  4.3280139E-05;  0.0000000E+00; -8.5515524E-07;  0.0000000E+00;
 -6.0000002E-01;  9.9999998E-03;  1.0000000E+00;57;  0.0000000E+00;  0.0000000E+00;  0.0000000E+00;  1.0002288E+01;  4.0000001E-01;  2.4613692E-01;0;  0.0000000E+00;  0.0000000E+00;  0.0000000E+00;  0.0000000E+00;  0.0000000E+00;  0.0000000E+00;0;  2.7654640E-05;  1.0000000E+02;  0.0000000E+00;  0.0000000E+00;  1.0000000E+02;  0.0000000E+00;  1.0000000E+02;  2.9198669E-05;  0.0000000E+00; -1.5440295E-06;  0.0000000E+00;
 -6.0000002E-01;  9.9999998E-03;  1.2000000E+00;58;  0.0000000E+00;  0.0000000E+00;  0.0000000E+00;  1.0001933E+01;  4.0000001E-01;  2.0804277E-01;0;  0.0000000E+00;  0.0000000E+00;  0.0000000E+00;  0.0000000E+00;  0.0000000E+00;  0.0000000E+00;0;  1.6355672E-05;  1.0000000E+02;  0.0000000E+00;  0.0000000E+00;  1.0000000E+02;  0.0000000E+00;  1.0000000E+02;  1.8129751E-05;  0.0000000E+00; -1.7740788E-06;  0.0000000E+00;
 -6.0000002E-01;  9.9999998E-03;  1.4000000E+00;59;  0.0000000E+00;  0.0000000E+00;  0.0000000E+00;  1.0001203E+01;  4.0000001E-01;  1.2941748E-01;0;  0.0000000E+00;  0.0000000E+00;  0.0000000E+00;  0.0000000E+00;  0.0000000E+00;  0.0000000E+00;0;  8.5677302E-06;  1.0000000E+02;  0.0000000E+00;  0.0000000E+00;  1.0000000E+02;  0.0000000E+00;  1.0000000E+02;  1.0261188E-05;  0.0000000E+00; -1.6934571E-06;  0.0000000E+00;
 -4.0000001E-01;  9.9999998E-03;  0.0000000E+00;73;  0.0000000E+00;  0.0000000E+00;  0.0000000E+00;  1.0004947E+01;  4.0000001E-01;  5.3229183E-01;0;  0.0000000E+00;  0.0000000E+00;  0.0000000E+00;  0.0000000E+00;  0.0000000E+00;  0.0000000E+00;0;  9.8311233E-05;  1.0000000E+02;  0.0000000E+00;  0.0000000E+00;  1.0000000E+02;  0.0000000E+00;  1.0000000E+02;  9.6112686E-05;  0.0000000E+00;  2.1985491E-06;  0.0000000E+00;
 -4.0000001E-01;  9.9999998E-03;  2.0000000E-01;74;  0.0000000E+00;  0.0000000E+00;  0.0000000E+00;  1.0004834E+01;  4.0000001E-01;  5.2010685E-01;0;  0.0000000E+00;  0.0000000E+00;  0.0000000E+00;  0.0000000E+00;  0.0000000E+00;  0.0000000E+00;0;  9.3872790E-05;  1.0000000E+02;  0.0000000E+00;  0.0000000E+00;  1.0000000E+02;  0.0000000E+00;  1.0000000E+02;  9.2077513E-05;  0.0000000E+00;  1.7952797E-06;  0.0000000E+00;
 -4.0000001E-01;  9.9999998E-03;  4.0000001E-01;75;  0.0000000E+00;  0.0000000E+00;  0.0000000E+00;  1.0004475E+01;  4.0000001E-01;  4.8149967E-01;0;  0.0000000E+00;  0.0000000E+00;  0.0000000E+00;  0.0000000E+00;  0.0000000E+00;  0.0000000E+00;0;  8.2495164E-05;  1.0000000E+02;  0.0000000E+00;  0.0000000E+00;  1.0000000E+02;  0.0000000E+00;  1.0000000E+02;  8.1764141E-05;  0.0000000E+00;  7.3102109E-07;  0.0000000E+00;
 -4.0000001E-01;  9.9999998E-03;  6.0000002E-01;76;  0.0000000E+00;  0.0000000E+00;  0.0000000E+00;  1.0004120E+01;  4.0000001E-01;  4.4327727E-01;0;  0.0000000E+00;  0.0000000E+00;  0.0000000E+00;  0.0000000E+00;  0.0000000E+00;  0.0000000E+00;0;  6.8140042E-05;  1.0000000E+02;  0.0000000E+00;  0.0000000E+00;  1.0000000E+02;  0.0000000E+00;  1.0000000E+02;  6.8606314E-05;  0.0000000E+00; -4.6627392E-07;  0.0000000E+00;
 -4.0000001E-01;  9.9999998E-03;  8.0000001E-01;77;  0.0000000E+00;  0.0000000E+00;  0.0000000E+00;  1.0003633E+01;  4.0000001E-01;  3.9094591E-01;0;  0.0000000E+00;  0.0000000E+00;  0.0000000E+00;  0.0000000E+00;  0.0000000E+00;  0.0000000E+00;0;  5.3755659E-05;  1.0000000E+02;  0.0000000E+00;  0.0000000E+00;  1.0000000E+02;  0.0000000E+00;  1.0000000E+02;  5.4978835E-05;  0.0000000E+00; -1.2231762E-06;  0.0000000E+00;
 -4.0000001E-01;  9.9999998E-03;  1.0000000E+00;78;  0.0000000E+00;  0.0000000E+00;  0.0000000E+00;  1.0002637E+01;  4.0000001E-01;  2.8371796E-01;0;  0.0000000E+00;  0.0000000E+00;  0.0000000E+00;  0.0000000E+00;  0.0000000E+00;  0.0000000E+00;0;  4.0369268E-05;  1.0000000E+02;  0.0000000E+00;  0.0000000E+00;  1.0000000E+02;  0.0000000E+00;  1.0000000E+02;  4.1666470E-05;  0.0000000E+00; -1.2972006E-06;  0.0000000E+00;
 -4.0000001E-01;  9.9999998E-03;  1.2000000E+00;79;  0.0000000E+00;  0.0000000E+00;  0.0000000E+00;  1.0001693E+01;  4.0000001E-01;  1.8213360E-01;0;  0.0000000E+00;  0.0000000E+00;  0.0000000E+00;  0.0000000E+00;  0.0000000E+00;  0.0000000E+00;0;  2.8245373E-05;  1.0000000E+02;  0.0000000E+00;  0.0000000E+00;  1.0000000E+02;  0.0000000E+00;  1.0000000E+02;  2.9060126E-05;  0.0000000E+00; -8.1475292E-07;  0.0000000E+00;
 -4.0000001E-01;  9.9999998E-03;  1.4000000E+00;80;  0.0000000E+00;  0.0000000E+00;  0.0000000E+00;  1.0001434E+01;  4.0000001E-01;  1.5430051E-01;0;  0.0000000E+00;  0.0000000E+00;  0.0000000E+00;  0.0000000E+00;  0.0000000E+00;  0.0000000E+00;0;  1.7867180E-05;  1.0000000E+02;  0.0000000E+00;  0.0000000E+00;  1.0000000E+02;  0.0000000E+00;  1.0000000E+02;  1.8024206E-05;  0.0000000E+00; -1.5702530E-07;  0.0000000E+00;
 -2.0000000E-01;  9.9999998E-03;  0.0000000E+00;94;  0.0000000E+00;  0.0000000E+00;  0.0000000E+00;  1.0004707E+01;  4.0000001E-01;  5.0651067E-01;0;  0.0000000E+00;  0.0000000E+00;  0.0000000E+00;  0.0000000E+00;  0.0000000E+00;  0.0000000E+00;0;  9.1694419E-05;  1.0000000E+02;  0.0000000E+00;  0.0000000E+00;  1.0000000E+02;  0.0000000E+00;  1.0000000E+02;  9.3539173E-05;  0.0000000E+00; -1.8447568E-06;  0.0000000E+00;
 -2.0000000E-01;  9.9999998E-03;  2.0000000E-01;95;  0.0000000E+00;  0.0000000E+00;  0.0000000E+00;  1.0004549E+01;  4.0000001E-01;  4.8945171E-01;0;  0.0000000E+00;  0.0000000E+00;  0.0000000E+00;  0.0000000E+00;  0.0000000E+00;  0.0000000E+00;0;  9.0660629E-05;  1.0000000E+02;  0.0000000E+00;  0.0000000E+00;  1.0000000E+02;  0.0000000E+00;  1.0000000E+02;  9.2485199E-05;  0.0000000E+00; -1.8245664E-06;  0.0000000E+00;
 -2.0000000E-01;  9.9999998E-03;  4.0000001E-01;96;  0.0000000E+00;  0.0000000E+00;  0.0000000E+00;  1.0004088E+01;  4.0000001E-01;  4.3994218E-01;0;  0.0000000E+00;  0.0000000E+00;  0.0000000E+00;  0.0000000E+00;  0.0000000E+00;  0.0000000E+00;0;  8.7902299E-05;  1.0000000E+02;  0.0000000E+00;  0.0000000E+00;  1.0000000E+02;  0.0000000E+00;  1.0000000E+02;  8.9795401E-05;  0.0000000E+00; -1.8931026E-06;  0.0000000E+00;
 -2.0000000E-01;  9.9999998E-03;  6.0000002E-01;97;  0.0000000E+00;  0.0000000E+00;  0.0000000E+00;  1.0003485E+01;  4.0000001E-01;  3.7491283E-01;0;  0.0000000E+00;  0.0000000E+00;  0.0000000E+00;  0.0000000E+00;  0.0000000E+00;  0.0000000E+00;0;  8.4460109E-05;  1.0000000E+02;  0.0000000E+00;  0.0000000E+00;  1.0000000E+02;  0.0000000E+00;  1.0000000E+02;  8.6485452E-05;  0.0000000E+00; -2.0253399E-06;  0.0000000E+00;
 -2.0000000E-01;  9.9999998E-03;  8.0000001E-01;98;  0.0000000E+00;  0.0000000E+00;  0.0000000E+00;  1.0002524E+01;  4.0000001E-01;  2.7166110E-01;0;  0.0000000E+00;  0.0000000E+00;  0.0000000E+00;  0.0000000E+00;  0.0000000E+00;  0.0000000E+00;0;  8.0239224E-05;  1.0000000E+02;  0.0000000E+00;  0.0000000E+00;  1.0000000E+02;  0.0000000E+00;  1.0000000E+02;  8.1872196E-05;  0.0000000E+00; -1.6329731E-06;  0.0000000E+00;
 -2.0000000E-01;  9.9999998E-03;  1.0000000E+00;99;  0.0000000E+00;  0.0000000E+00;  0.0000000E+00;  1.0001530E+01;  4.0000001E-01;  1.6456147E-01;0;  0.0000000E+00;  0.0000000E+00;  0.0000000E+00;  0.0000000E+00;  0.0000000E+00;  0.0000000E+00;0;  7.2623952E-05;  1.0000000E+02;  0.0000000E+00;  0.0000000E+00;  1.0000000E+02;  0.0000000E+00;  1.0000000E+02;  7.2999559E-05;  0.0000000E+00; -3.7560670E-07;  0.0000000E+00;
 -2.0000000E-01;  9.9999998E-03;  1.2000000E+00;100;  0.0000000E+00;  0.0000000E+00;  0.0000000E+00;  1.0001040E+01;  4.0000001E-01;  1.1197362E-01;0;  0.0000000E+00;  0.0000000E+00;  0.0000000E+00;  0.0000000E+00;  0.0000000E+00;  0.0000000E+00;0;  5.9866576E-05;  1.0000000E+02;  0.0000000E+00;  0.0000000E+00;  1.0000000E+02;  0.0000000E+00;  1.0000000E+02;  5.8392739E-05;  0.0000000E+00;  1.4738347E-06;  0.0000000E+00;
 -2.0000000E-01;  9.9999998E-03;  1.4000000E+00;101;  0.0000000E+00;  0.0000000E+00;  0.0000000E+00;  1.0000466E+01;  4.0000001E-01;  5.0150841E-02;0;  0.0000000E+00;  0.0000000E+00;  0.0000000E+00;  0.0000000E+00;  0.0000000E+00;  0.0000000E+00;0;  4.3533142E-05;  1.0000000E+02;  0.0000000E+00;  0.0000000E+00;  1.0000000E+02;  0.0000000E+00;  1.0000000E+02;  4.0376406E-05;  0.0000000E+00;  3.1567349E-06;  0.0000000E+00;
  0.0000000E+00;  9.9999998E-03;  1.2000000E+00;110;  0.0000000E+00;  0.0000000E+00;  0.0000000E+00;  1.0000000E+01;  4.0000001E-01;  0.0000000E+00;0;  0.0000000E+00;  0.0000000E+00;  0.0000000E+00;  0.0000000E+00;  0.0000000E+00;  0.0000000E+00;0;  1.3543796E-04;  1.0000000E+02;  0.0000000E+00;  0.0000000E+00;  1.0000000E+02;  0.0000000E+00;  1.0000000E+02;  1.3003877E-04;  0.0000000E+00;  5.3991998E-06;  0.0000000E+00;
  0.0000000E+00;  9.9999998E-03;  1.4000000E+00;111;  0.0000000E+00;  0.0000000E+00;  0.0000000E+00;  1.0000000E+01;  4.0000001E-01;  0.0000000E+00;0;  0.0000000E+00;  0.0000000E+00;  0.0000000E+00;  0.0000000E+00;  0.0000000E+00;  0.0000000E+00;0;  1.0389261E-04;  1.0000000E+02;  0.0000000E+00;  0.0000000E+00;  1.0000000E+02;  0.0000000E+00;  1.0000000E+02;  9.5865194E-05;  0.0000000E+00;  8.0274149E-06;  0.0000000E+00;
  2.0000000E-01;  9.9999998E-03;  1.2000000E+00;120;  0.0000000E+00;  0.0000000E+00;  0.0000000E+00;  1.0000000E+01;  4.0000001E-01;  0.0000000E+00;0;  0.0000000E+00;  0.0000000E+00;  0.0000000E+00;  0.0000000E+00;  0.0000000E+00;  0.0000000E+00;0;  3.0061696E-04;  1.0000000E+02;  0.0000000E+00;  0.0000000E+00;  1.0000000E+02;  0.0000000E+00;  1.0000000E+02;  2.9018271E-04;  0.0000000E+00;  1.0434242E-05;  0.0000000E+00;
  2.0000000E-01;  9.9999998E-03;  1.4000000E+00;121;  0.0000000E+00;  0.0000000E+00;  0.0000000E+00;  1.0000000E+01;  4.0000001E-01;  0.0000000E+00;0;  0.0000000E+00;  0.0000000E+00;  0.0000000E+00;  0.0000000E+00;  0.0000000E+00;  0.0000000E+00;0;  2.3026872E-04;  1.0000000E+02;  0.0000000E+00;  0.0000000E+00;  1.0000000E+02;  0.0000000E+00;  1.0000000E+02;  2.1740700E-04;  0.0000000E+00;  1.2861724E-05;  0.0000000E+00;
  4.0000001E-01;  9.9999998E-03;  1.2000000E+00;130;  0.0000000E+00;  0.0000000E+00;  0.0000000E+00;  1.0000000E+01;  4.0000001E-01;  0.0000000E+00;0;  0.0000000E+00;  0.0000000E+00;  0.0000000E+00;  0.0000000E+00;  0.0000000E+00;  0.0000000E+00;0;  6.3384458E-04;  1.0000000E+02;  0.0000000E+00;  0.0000000E+00;  1.0000000E+02;  0.0000000E+00;  1.0000000E+02;  6.2076631E-04;  0.0000000E+00;  1.3078294E-05;  0.0000000E+00;
  4.0000001E-01;  9.9999998E-03;  1.4000000E+00;131;  0.0000000E+00;  0.0000000E+00;  0.0000000E+00;  1.0000000E+01;  4.0000001E-01;  0.0000000E+00;0;  0.0000000E+00;  0.0000000E+00;  0.0000000E+00;  0.0000000E+00;  0.0000000E+00;  0.0000000E+00;0;  4.7488467E-04;  1.0000000E+02;  0.0000000E+00;  0.0000000E+00;  1.0000000E+02;  0.0000000E+00;  1.0000000E+02;  4.6102598E-04;  0.0000000E+00;  1.3858683E-05;  0.0000000E+00;
  6.0000002E-01;  9.9999998E-03;  1.2000000E+00;140;  0.0000000E+00;  0.0000000E+00;  0.0000000E+00;  1.0000000E+01;  4.0000001E-01;  0.0000000E+00;0;  0.0000000E+00;  0.0000000E+00;  0.0000000E+00;  0.0000000E+00;  0.0000000E+00;  0.0000000E+00;0;  1.2178986E-03;  1.0000000E+02;  0.0000000E+00;  0.0000000E+00;  1.0000000E+02;  0.0000000E+00;  1.0000000E+02;  1.2101763E-03;  0.0000000E+00;  7.7222840E-06;  0.0000000E+00;
  6.0000002E-01;  9.9999998E-03;  1.4000000E+00;141;  0.0000000E+00;  0.0000000E+00;  0.0000000E+00;  1.0000000E+01;  4.0000001E-01;  0.0000000E+00;0;  0.0000000E+00;  0.0000000E+00;  0.0000000E+00;  0.0000000E+00;  0.0000000E+00;  0.0000000E+00;0;  8.9629425E-04;  1.0000000E+02;  0.0000000E+00;  0.0000000E+00;  1.0000000E+02;  0.0000000E+00;  1.0000000E+02;  8.8993943E-04;  0.0000000E+00;  6.3548341E-06;  0.0000000E+00;
  8.0000001E-01;  9.9999998E-03;  1.2000000E+00;150;  0.0000000E+00;  0.0000000E+00;  0.0000000E+00;  1.0000000E+01;  4.0000001E-01;  0.0000000E+00;0;  0.0000000E+00;  0.0000000E+00;  0.0000000E+00;  0.0000000E+00;  0.0000000E+00;  0.0000000E+00;0;  2.0542294E-03;  1.0000000E+02;  0.0000000E+00;  0.0000000E+00;  1.0000000E+02;  0.0000000E+00;  1.0000000E+02;  2.0632800E-03;  0.0000000E+00; -9.0506473E-06;  0.0000000E+00;
  8.0000001E-01;  9.9999998E-03;  1.4000000E+00;151;  0.0000000E+00;  0.0000000E+00;  0.0000000E+00;  1.0000000E+01;  4.0000001E-01;  0.0000000E+00;0;  0.0000000E+00;  0.0000000E+00;  0.0000000E+00;  0.0000000E+00;  0.0000000E+00;  0.0000000E+00;0;  1.4899343E-03;  1.0000000E+02;  0.0000000E+00;  0.0000000E+00;  1.0000000E+02;  0.0000000E+00;  1.0000000E+02;  1.5015348E-03;  0.0000000E+00; -1.1600543E-05;  0.0000000E+00;
  1.0000000E+00;  9.9999998E-03;  1.2000000E+00;160;  0.0000000E+00;  0.0000000E+00;  0.0000000E+00;  1.0000000E+01;  4.0000001E-01;  0.0000000E+00;0;  0.0000000E+00;  0.0000000E+00;  0.0000000E+00;  0.0000000E+00;  0.0000000E+00;  0.0000000E+00;0;  3.0158858E-03;  1.0000000E+02;  0.0000000E+00;  0.0000000E+00;  1.0000000E+02;  0.0000000E+00;  1.0000000E+02;  3.0492712E-03;  0.0000000E+00; -3.3385339E-05;  0.0000000E+00;
  1.0000000E+00;  9.9999998E-03;  1.4000000E+00;161;  0.0000000E+00;  0.0000000E+00;  0.0000000E+00;  1.0000000E+01;  4.0000001E-01;  0.0000000E+00;0;  0.0000000E+00;  0.0000000E+00;  0.0000000E+00;  0.0000000E+00;  0.0000000E+00;  0.0000000E+00;0;  2.1502473E-03;  1.0000000E+02;  0.0000000E+00;  0.0000000E+00;  1.0000000E+02;  0.0000000E+00;  1.0000000E+02;  2.1870336E-03;  0.0000000E+00; -3.6786205E-05;  0.0000000E+00;
 -1.0000000E+00;  9.9999998E-03;  1.6000000E+00;18;  0.0000000E+00;  0.0000000E+00;  0.0000000E+00;  1.0000038E+01;  4.0000001E-01;  4.1044205E-03;0;  0.0000000E+00;  0.0000000E+00;  0.0000000E+00;  0.0000000E+00;  0.0000000E+00;  0.0000000E+00;0;  1.5534692E-07;  1.0000000E+02;  0.0000000E+00;  0.0000000E+00;  1.0000000E+02;  0.0000000E+00;  1.0000000E+02;  1.1705184E-06;  0.0000000E+00; -1.0151715E-06;  0.0000000E+00;
 -1.0000000E+00;  9.9999998E-03;  1.8000000E+00;19;  0.0000000E+00;  0.0000000E+00;  0.0000000E+00;  1.0000000E+01;  4.0000001E-01;  0.0000000E+00;0;  0.0000000E+00;  0.0000000E+00;  0.0000000E+00;  0.0000000E+00;  0.0000000E+00;  0.0000000E+00;0; -2.1618175E-07;  1.0000000E+02;  0.0000000E+00;  0.0000000E+00;  1.0000000E+02;  0.0000000E+00;  1.0000000E+02;  4.0636863E-07;  0.0000000E+00; -6.2255037E-07;  0.0000000E+00;
 -1.0000000E+00;  9.9999998E-03;  2.0000000E+00;20;  0.0000000E+00;  0.0000000E+00;  0.0000000E+00;  1.0000000E+01;  4.0000001E-01;  0.0000000E+00;0;  0.0000000E+00;  0.0000000E+00;  0.0000000E+00;  0.0000000E+00;  0.0000000E+00;  0.0000000E+00;0; -1.3630674E-07;  1.0000000E+02;  0.0000000E+00;  0.0000000E+00;  1.0000000E+02;  0.0000000E+00;  1.0000000E+02;  9.8130982E-08;  0.0000000E+00; -2.3443772E-07;  0.0000000E+00;
 -8.0000001E-01;  9.9999998E-03;  1.6000000E+00;39;  0.0000000E+00;  0.0000000E+00;  0.0000000E+00;  1.0000361E+01;  4.0000001E-01;  3.8863726E-02;0;  0.0000000E+00;  0.0000000E+00;  0.0000000E+00;  0.0000000E+00;  0.0000000E+00;  0.0000000E+00;0;  1.3806648E-06;  1.0000000E+02;  0.0000000E+00;  0.0000000E+00;  1.0000000E+02;  0.0000000E+00;  1.0000000E+02;  2.9834478E-06;  0.0000000E+00; -1.6027830E-06;  0.0000000E+00;
 -8.0000001E-01;  9.9999998E-03;  1.8000000E+00;40;  0.0000000E+00;  0.0000000E+00;  0.0000000E+00;  1.0000087E+01;  4.0000001E-01;  9.3632080E-03;0;  0.0000000E+00;  0.0000000E+00;  0.0000000E+00;  0.0000000E+00;  0.0000000E+00;  0.0000000E+00;0;  1.1225654E-07;  1.0000000E+02;  0.0000000E+00;  0.0000000E+00;  1.0000000E+02;  0.0000000E+00;  1.0000000E+02;  1.2209706E-06;  0.0000000E+00; -1.1087141E-06;  0.0000000E+00;
 -8.0000001E-01;  9.9999998E-03;  2.0000000E+00;41;  0.0000000E+00;  0.0000000E+00;  0.0000000E+00;  1.0000000E+01;  4.0000001E-01;  0.0000000E+00;0;  0.0000000E+00;  0.0000000E+00;  0.0000000E+00;  0.0000000E+00;  0.0000000E+00;  0.0000000E+00;0; -1.4948836E-07;  1.0000000E+02;  0.0000000E+00;  0.0000000E+00;  1.0000000E+02;  0.0000000E+00;  1.0000000E+02;  3.7074562E-07;  0.0000000E+00; -5.2023398E-07;  0.0000000E+00;
 -6.0000002E-01;  9.9999998E-03;  1.6000000E+00;60;  0.0000000E+00;  0.0000000E+00;  0.0000000E+00;  1.0000634E+01;  4.0000001E-01;  6.8235978E-02;0;  0.0000000E+00;  0.0000000E+00;  0.0000000E+00;  0.0000000E+00;  0.0000000E+00;  0.0000000E+00;0;  3.7552645E-06;  1.0000000E+02;  0.0000000E+00;  0.0000000E+00;  1.0000000E+02;  0.0000000E+00;  1.0000000E+02;  5.2014652E-06;  0.0000000E+00; -1.4462006E-06;  0.0000000E+00;
 -6.0000002E-01;  9.9999998E-03;  1.8000000E+00;61;  0.0000000E+00;  0.0000000E+00;  0.0000000E+00;  1.0000278E+01;  4.0000001E-01;  3.0013569E-02;0;  0.0000000E+00;  0.0000000E+00;  0.0000000E+00;  0.0000000E+00;  0.0000000E+00;  0.0000000E+00;0;  1.1762156E-06;  1.0000000E+02;  0.0000000E+00;  0.0000000E+00;  1.0000000E+02;  0.0000000E+00;  1.0000000E+02;  2.2579945E-06;  0.0000000E+00; -1.0817789E-06;  0.0000000E+00;
 -6.0000002E-01;  9.9999998E-03;  2.0000000E+00;62;  0.0000000E+00;  0.0000000E+00;  0.0000000E+00;  1.0000000E+01;  4.0000001E-01;  0.0000000E+00;0;  0.0000000E+00;  0.0000000E+00;  0.0000000E+00;  0.0000000E+00;  0.0000000E+00;  0.0000000E+00;0;  1.8165832E-07;  1.0000000E+02;  0.0000000E+00;  0.0000000E+00;  1.0000000E+02;  0.0000000E+00;  1.0000000E+02;  8.1430056E-07;  0.0000000E+00; -6.3264224E-07;  0.0000000E+00;
 -4.0000001E-01;  9.9999998E-03;  1.6000000E+00;81;  0.0000000E+00;  0.0000000E+00;  0.0000000E+00;  1.0000803E+01;  4.0000001E-01;  8.6449325E-02;0;  0.0000000E+00;  0.0000000E+00;  0.0000000E+00;  0.0000000E+00;  0.0000000E+00;  0.0000000E+00;0;  9.7865059E-06;  1.0000000E+02;  0.0000000E+00;  0.0000000E+00;  1.0000000E+02;  0.0000000E+00;  1.0000000E+02;  9.5453561E-06;  0.0000000E+00;  2.4114954E-07;  0.0000000E+00;
 -4.0000001E-01;  9.9999998E-03;  1.8000000E+00;82;  0.0000000E+00;  0.0000000E+00;  0.0000000E+00;  1.0000381E+01;  4.0000001E-01;  4.0915929E-02;0;  0.0000000E+00;  0.0000000E+00;  0.0000000E+00;  0.0000000E+00;  0.0000000E+00;  0.0000000E+00;0;  4.3329001E-06;  1.0000000E+02;  0.0000000E+00;  0.0000000E+00;  1.0000000E+02;  0.0000000E+00;  1.0000000E+02;  4.1478211E-06;  0.0000000E+00;  1.8507889E-07;  0.0000000E+00;
 -4.0000001E-01;  9.9999998E-03;  2.0000000E+00;83;  0.0000000E+00;  0.0000000E+00;  0.0000000E+00;  1.0000092E+01;  4.0000001E-01;  9.8762587E-03;0;  0.0000000E+00;  0.0000000E+00;  0.0000000E+00;  0.0000000E+00;  0.0000000E+00;  0.0000000E+00;0;  1.3854150E-06;  1.0000000E+02;  0.0000000E+00;  0.0000000E+00;  1.0000000E+02;  0.0000000E+00;  1.0000000E+02;  1.4567298E-06;  0.0000000E+00; -7.1314837E-08;  0.0000000E+00;
 -2.0000000E-01;  9.9999998E-03;  1.6000000E+00;102;  0.0000000E+00;  0.0000000E+00;  0.0000000E+00;  1.0000022E+01;  4.0000001E-01;  2.3087345E-03;0;  0.0000000E+00;  0.0000000E+00;  0.0000000E+00;  0.0000000E+00;  0.0000000E+00;  0.0000000E+00;0;  2.7184156E-05;  1.0000000E+02;  0.0000000E+00;  0.0000000E+00;  1.0000000E+02;  0.0000000E+00;  1.0000000E+02;  2.3341865E-05;  0.0000000E+00;  3.8422922E-06;  0.0000000E+00;
 -2.0000000E-01;  9.9999998E-03;  1.8000000E+00;103;  0.0000000E+00;  0.0000000E+00;  0.0000000E+00;  1.0000424E+01;  4.0000001E-01;  4.5661636E-02;0;  0.0000000E+00;  0.0000000E+00;  0.0000000E+00;  0.0000000E+00;  0.0000000E+00;  0.0000000E+00;0;  1.3911947E-05;  1.0000000E+02;  0.0000000E+00;  0.0000000E+00;  1.0000000E+02;  0.0000000E+00;  1.0000000E+02;  1.0762570E-05;  0.0000000E+00;  3.1493773E-06;  0.0000000E+00;
 -2.0000000E-01;  9.9999998E-03;  2.0000000E+00;104;  0.0000000E+00;  0.0000000E+00;  0.0000000E+00;  1.0000140E+01;  4.0000001E-01;  1.5135037E-02;0;  0.0000000E+00;  0.0000000E+00;  0.0000000E+00;  0.0000000E+00;  0.0000000E+00;  0.0000000E+00;0;  5.2169430E-06;  1.0000000E+02;  0.0000000E+00;  0.0000000E+00;  1.0000000E+02;  0.0000000E+00;  1.0000000E+02;  3.6302004E-06;  0.0000000E+00;  1.5867428E-06;  0.0000000E+00;
  0.0000000E+00;  9.9999998E-03;  1.6000000E+00;112;  0.0000000E+00;  0.0000000E+00;  0.0000000E+00;  1.0000000E+01;  4.0000001E-01;  0.0000000E+00;0;  0.0000000E+00;  0.0000000E+00;  0.0000000E+00;  0.0000000E+00;  0.0000000E+00;  0.0000000E+00;0;  6.8319569E-05;  1.0000000E+02;  0.0000000E+00;  0.0000000E+00;  1.0000000E+02;  0.0000000E+00;  1.0000000E+02;  5.9620117E-05;  0.0000000E+00;  8.6994532E-06;  0.0000000E+00;
  0.0000000E+00;  9.9999998E-03;  1.8000000E+00;113;  0.0000000E+00;  0.0000000E+00;  0.0000000E+00;  1.0000000E+01;  4.0000001E-01;  0.0000000E+00;0;  0.0000000E+00;  0.0000000E+00;  0.0000000E+00;  0.0000000E+00;  0.0000000E+00;  0.0000000E+00;0;  3.7364243E-05;  1.0000000E+02;  0.0000000E+00;  0.0000000E+00;  1.0000000E+02;  0.0000000E+00;  1.0000000E+02;  3.0191401E-05;  0.0000000E+00;  7.1728441E-06;  0.0000000E+00;
  0.0000000E+00;  9.9999998E-03;  2.0000000E+00;114;  0.0000000E+00;  0.0000000E+00;  0.0000000E+00;  1.0000150E+01;  4.0000001E-01;  1.6161123E-02;0;  0.0000000E+00;  0.0000000E+00;  0.0000000E+00;  0.0000000E+00;  0.0000000E+00;  0.0000000E+00;0;  1.5623933E-05;  1.0000000E+02;  0.0000000E+00;  0.0000000E+00;  1.0000000E+02;  0.0000000E+00;  1.0000000E+02;  1.1496816E-05;  0.0000000E+00;  4.1271178E-06;  0.0000000E+00;
  2.0000000E-01;  9.9999998E-03;  1.6000000E+00;122;  0.0000000E+00;  0.0000000E+00;  0.0000000E+00;  1.0000000E+01;  4.0000001E-01;  0.0000000E+00;0;  0.0000000E+00;  0.0000000E+00;  0.0000000E+00;  0.0000000E+00;  0.0000000E+00;  0.0000000E+00;0;  1.5314370E-04;  1.0000000E+02;  0.0000000E+00;  0.0000000E+00;  1.0000000E+02;  0.0000000E+00;  1.0000000E+02;  1.4048257E-04;  0.0000000E+00;  1.2661124E-05;  0.0000000E+00;
  2.0000000E-01;  9.9999998E-03;  1.8000000E+00;123;  0.0000000E+00;  0.0000000E+00;  0.0000000E+00;  1.0000000E+01;  4.0000001E-01;  0.0000000E+00;0;  0.0000000E+00;  0.0000000E+00;  0.0000000E+00;  0.0000000E+00;  0.0000000E+00;  0.0000000E+00;0;  8.6340660E-05;  1.0000000E+02;  0.0000000E+00;  0.0000000E+00;  1.0000000E+02;  0.0000000E+00;  1.0000000E+02;  7.6082142E-05;  0.0000000E+00;  1.0258519E-05;  0.0000000E+00;
  2.0000000E-01;  9.9999998E-03;  2.0000000E+00;124;  0.0000000E+00;  0.0000000E+00;  0.0000000E+00;  1.0000000E+01;  4.0000001E-01;  0.0000000E+00;0;  0.0000000E+00;  0.0000000E+00;  0.0000000E+00;  0.0000000E+00;  0.0000000E+00;  0.0000000E+00;0;  3.8721162E-05;  1.0000000E+02;  0.0000000E+00;  0.0000000E+00;  1.0000000E+02;  0.0000000E+00;  1.0000000E+02;  3.2434749E-05;  0.0000000E+00;  6.2864119E-06;  0.0000000E+00;
  4.0000001E-01;  9.9999998E-03;  1.6000000E+00;132;  0.0000000E+00;  0.0000000E+00;  0.0000000E+00;  1.0000000E+01;  4.0000001E-01;  0.0000000E+00;0;  0.0000000E+00;  0.0000000E+00;  0.0000000E+00;  0.0000000E+00;  0.0000000E+00;  0.0000000E+00;0;  3.1360952E-04;  1.0000000E+02;  0.0000000E+00;  0.0000000E+00;  1.0000000E+02;  0.0000000E+00;  1.0000000E+02;  3.0128699E-04;  0.0000000E+00;  1.2322526E-05;  0.0000000E+00;
  4.0000001E-01;  9.9999998E-03;  1.8000000E+00;133;  0.0000000E+00;  0.0000000E+00;  0.0000000E+00;  1.0000000E+01;  4.0000001E-01;  0.0000000E+00;0;  0.0000000E+00;  0.0000000E+00;  0.0000000E+00;  0.0000000E+00;  0.0000000E+00;  0.0000000E+00;0;  1.7934281E-04;  1.0000000E+02;  0.0000000E+00;  0.0000000E+00;  1.0000000E+02;  0.0000000E+00;  1.0000000E+02;  1.6969867E-04;  0.0000000E+00;  9.6441381E-06;  0.0000000E+00;
  4.0000001E-01;  9.9999998E-03;  2.0000000E+00;134;  0.0000000E+00;  0.0000000E+00;  0.0000000E+00;  1.0000000E+01;  4.0000001E-01;  0.0000000E+00;0;  0.0000000E+00;  0.0000000E+00;  0.0000000E+00;  0.0000000E+00;  0.0000000E+00;  0.0000000E+00;0;  8.4391264E-05;  1.0000000E+02;  0.0000000E+00;  0.0000000E+00;  1.0000000E+02;  0.0000000E+00;  1.0000000E+02;  7.8137607E-05;  0.0000000E+00;  6.2536556E-06;  0.0000000E+00;
  6.0000002E-01;  9.9999998E-03;  1.6000000E+00;142;  0.0000000E+00;  0.0000000E+00;  0.0000000E+00;  1.0000000E+01;  4.0000001E-01;  0.0000000E+00;0;  0.0000000E+00;  0.0000000E+00;  0.0000000E+00;  0.0000000E+00;  0.0000000E+00;  0.0000000E+00;0;  5.8459345E-04;  1.0000000E+02;  0.0000000E+00;  0.0000000E+00;  1.0000000E+02;  0.0000000E+00;  1.0000000E+02;  5.8016361E-04;  0.0000000E+00;  4.4298299E-06;  0.0000000E+00;
  6.0000002E-01;  9.9999998E-03;  1.8000000E+00;143;  0.0000000E+00;  0.0000000E+00;  0.0000000E+00;  1.0000000E+01;  4.0000001E-01;  0.0000000E+00;0;  0.0000000E+00;  0.0000000E+00;  0.0000000E+00;  0.0000000E+00;  0.0000000E+00;  0.0000000E+00;0;  3.3696400E-04;  1.0000000E+02;  0.0000000E+00;  0.0000000E+00;  1.0000000E+02;  0.0000000E+00;  1.0000000E+02;  3.3387216E-04;  0.0000000E+00;  3.0918438E-06;  0.0000000E+00;
  6.0000002E-01;  9.9999998E-03;  2.0000000E+00;144;  0.0000000E+00;  0.0000000E+00;  0.0000000E+00;  1.0000000E+01;  4.0000001E-01;  0.0000000E+00;0;  0.0000000E+00;  0.0000000E+00;  0.0000000E+00;  0.0000000E+00;  0.0000000E+00;  0.0000000E+00;0;  1.6520903E-04;  1.0000000E+02;  0.0000000E+00;  0.0000000E+00;  1.0000000E+02;  0.0000000E+00;  1.0000000E+02;  1.6275597E-04;  0.0000000E+00;  2.4530661E-06;  0.0000000E+00;
  8.0000001E-01;  9.9999998E-03;  1.6000000E+00;152;  0.0000000E+00;  0.0000000E+00;  0.0000000E+00;  1.0000000E+01;  4.0000001E-01;  0.0000000E+00;0;  0.0000000E+00;  0.0000000E+00;  0.0000000E+00;  0.0000000E+00;  0.0000000E+00;  0.0000000E+00;0;  9.5776847E-04;  1.0000000E+02;  0.0000000E+00;  0.0000000E+00;  1.0000000E+02;  0.0000000E+00;  1.0000000E+02;  9.6964429E-04;  0.0000000E+00; -1.1875802E-05;  0.0000000E+00;
  8.0000001E-01;  9.9999998E-03;  1.8000000E+00;153;  0.0000000E+00;  0.0000000E+00;  0.0000000E+00;  1.0000000E+01;  4.0000001E-01;  0.0000000E+00;0;  0.0000000E+00;  0.0000000E+00;  0.0000000E+00;  0.0000000E+00;  0.0000000E+00;  0.0000000E+00;0;  5.5448356E-04;  1.0000000E+02;  0.0000000E+00;  0.0000000E+00;  1.0000000E+02;  0.0000000E+00;  1.0000000E+02;  5.6469080E-04;  0.0000000E+00; -1.0207236E-05;  0.0000000E+00;
  8.0000001E-01;  9.9999998E-03;  2.0000000E+00;154;  0.0000000E+00;  0.0000000E+00;  0.0000000E+00;  1.0000000E+01;  4.0000001E-01;  0.0000000E+00;0;  0.0000000E+00;  0.0000000E+00;  0.0000000E+00;  0.0000000E+00;  0.0000000E+00;  0.0000000E+00;0;  2.8465351E-04;  1.0000000E+02;  0.0000000E+00;  0.0000000E+00;  1.0000000E+02;  0.0000000E+00;  1.0000000E+02;  2.9106654E-04;  0.0000000E+00; -6.4130277E-06;  0.0000000E+00;
  1.0000000E+00;  9.9999998E-03;  1.6000000E+00;162;  0.0000000E+00;  0.0000000E+00;  0.0000000E+00;  1.0000000E+01;  4.0000001E-01;  0.0000000E+00;0;  0.0000000E+00;  0.0000000E+00;  0.0000000E+00;  0.0000000E+00;  0.0000000E+00;  0.0000000E+00;0;  1.3521517E-03;  1.0000000E+02;  0.0000000E+00;  0.0000000E+00;  1.0000000E+02;  0.0000000E+00;  1.0000000E+02;  1.3864199E-03;  0.0000000E+00; -3.4268138E-05;  0.0000000E+00;
  1.0000000E+00;  9.9999998E-03;  1.8000000E+00;163;  0.0000000E+00;  0.0000000E+00;  0.0000000E+00;  1.0000000E+01;  4.0000001E-01;  0.0000000E+00;0;  0.0000000E+00;  0.0000000E+00;  0.0000000E+00;  0.0000000E+00;  0.0000000E+00;  0.0000000E+00;0;  7.7459752E-04;  1.0000000E+02;  0.0000000E+00;  0.0000000E+00;  1.0000000E+02;  0.0000000E+00;  1.0000000E+02;  8.0400432E-04;  0.0000000E+00; -2.9406814E-05;  0.0000000E+00;
  1.0000000E+00;  9.9999998E-03;  2.0000000E+00;164;  0.0000000E+00;  0.0000000E+00;  0.0000000E+00;  1.0000000E+01;  4.0000001E-01;  0.0000000E+00;0;  0.0000000E+00;  0.0000000E+00;  0.0000000E+00;  0.0000000E+00;  0.0000000E+00;  0.0000000E+00;0;  4.1191585E-04;  1.0000000E+02;  0.0000000E+00;  0.0000000E+00;  1.0000000E+02;  0.0000000E+00;  1.0000000E+02;  4.3372923E-04;  0.0000000E+00; -2.1813370E-05;  0.0000000E+00;
 -5.0350331E-04;  9.9999998E-03; -1.0001168E+00;165;  1.1924316E-05;  0.0000000E+00; -4.3895037E-05;  9.9987907E+00;  4.0003231E-01; -1.3012269E-01;3;  3.3461221E-03;  0.0000000E+00; -6.3003805E-03;  0.0000000E+00;  0.0000000E+00;  0.0000000E+00;0;  1.5528621E-04;  9.9958229E+01;  0.0000000E+00; -1.0062576E-04;  1.0000000E+02;  0.0000000E+00;  9.9998260E+01;  1.5149517E-04;  0.0000000E+00;  3.7910377E-06;  0.0000000E+00;
 -4.6149539E-04;  9.9999998E-03; -8.0011266E-01;166;  5.6590343E-05;  0.0000000E+00; -5.8543574E-05;  9.9987917E+00;  4.0001106E-01; -1.2999442E-01;3;  3.3227359E-03;  0.0000000E+00; -1.1272750E-02;  0.0000000E+00;  0.0000000E+00;  0.0000000E+00;0;  1.5443515E-04;  9.9965759E+01;  0.0000000E+00; -7.1375543E-05;  1.0000000E+02;  0.0000000E+00;  1.0000000E+02;  1.5566805E-04;  0.0000000E+00; -1.2328928E-06;  0.0000000E+00;
 -3.8600792E-04;  9.9999998E-03; -6.0008115E-01;167;  1.0364577E-04;  0.0000000E+00; -5.3902699E-05;  9.9988050E+00;  3.9997706E-01; -1.2858354E-01;3;  2.2054615E-03;  0.0000000E+00; -6.9481018E-03;  0.0000000E+00;  0.0000000E+00;  0.0000000E+00;0;  1.4320349E-04;  9.9979713E+01;  0.0000000E+00; -2.5868692E-05;  1.0000000E+02;  0.0000000E+00;  9.9998749E+01;  1.4745118E-04;  0.0000000E+00; -4.2476868E-06;  0.0000000E+00;
 -2.7887695E-04;  9.9999998E-03; -4.0002516E-01;168;  1.6405454E-04;  0.0000000E+00; -2.4574703E-05;  9.9987965E+00;  3.9994591E-01; -1.2948138E-01;3;  3.2088379E-03;  0.0000000E+00; -1.3557500E-03;  0.0000000E+00;  0.0000000E+00;  0.0000000E+00;0;  1.2830089E-04;  9.9995247E+01;  0.0000000E+00; -2.9993041E-06;  1.0000000E+02;  0.0000000E+00;  1.0000729E+02;  1.3443969E-04;  0.0000000E+00; -6.1387955E-06;  0.0000000E+00;
 -2.0999841E-04;  9.9999998E-03; -2.0000915E-01;169;  2.0368680E-04;  0.0000000E+00; -9.2124064E-06;  9.9987936E+00;  3.9992213E-01; -1.2980203E-01;3;  5.4218573E-03;  0.0000000E+00;  4.0864651E-04;  0.0000000E+00;  0.0000000E+00;  0.0000000E+00;0;  1.1632732E-04;  1.0000690E+02;  0.0000000E+00;  5.8676898E-07;  1.0000000E+02;  0.0000000E+00;  1.0000815E+02;  1.2389912E-04;  0.0000000E+00; -7.5718085E-06;  0.0000000E+00;
  1.9935940E-01;  9.9999998E-03; -9.9989772E-01;176;  2.1633417E-05;  0.0000000E+00;  1.4577104E-05;  9.9978342E+00;  4.0031791E-01; -2.3305301E-01;3;  7.9316450E-03;  0.0000000E+00; -1.5995998E-02;  0.0000000E+00;  0.0000000E+00;  0.0000000E+00;0;  3.4475146E-04;  9.9798294E+01;  0.0000000E+00; -2.3628223E-04;  1.0000000E+02;  0.0000000E+00;  1.0000108E+02;  3.4087099E-04;  0.0000000E+00;  3.8804619E-06;  0.0000000E+00;
  1.9936174E-01;  9.9999998E-03; -7.9995370E-01;177;  2.2614620E-05;  0.0000000E+00; -1.0051497E-05;  9.9977226E+00;  4.0033704E-01; -2.4504556E-01;3;  1.0325208E-02;  0.0000000E+00; -1.9020481E-02;  0.0000000E+00;  0.0000000E+00;  0.0000000E+00;0;  3.5781480E-04;  9.9779411E+01;  0.0000000E+00; -3.1301475E-04;  1.0000000E+02;  0.0000000E+00;  9.9999870E+01;  3.5943746E-04;  0.0000000E+00; -1.6226556E-06;  0.0000000E+00;
  1.9939551E-01;  9.9999998E-03; -5.9997553E-01;178;  4.6236648E-05;  0.0000000E+00; -1.2778661E-05;  9.9976244E+00;  4.0033388E-01; -2.5562721E-01;3;  1.4653584E-02;  0.0000000E+00; -1.5549177E-02;  0.0000000E+00;  0.0000000E+00;  0.0000000E+00;0;  3.4641122E-04;  9.9778877E+01;  0.0000000E+00; -1.9636920E-04;  1.0000000E+02;  0.0000000E+00;  1.0000382E+02;  3.5343753E-04;  0.0000000E+00; -7.0262931E-06;  0.0000000E+00;
  1.9948702E-01;  9.9999998E-03; -3.9997181E-01;179;  1.0186454E-04;  0.0000000E+00;  2.4235685E-06;  9.9976988E+00;  4.0031031E-01; -2.4761082E-01;3;  1.8056056E-02;  0.0000000E+00; -9.1151642E-03;  0.0000000E+00;  0.0000000E+00;  0.0000000E+00;0;  3.2421062E-04;  9.9790352E+01;  0.0000000E+00; -6.8223482E-05;  1.0000000E+02;  0.0000000E+00;  1.0000862E+02;  3.3521600E-04;  0.0000000E+00; -1.1005368E-05;  0.0000000E+00;
  1.9955353E-01;  9.9999998E-03; -1.9998471E-01;180;  1.4067469E-04;  0.0000000E+00;  2.9941718E-06;  9.9978142E+00;  4.0028220E-01; -2.3516935E-01;3;  2.0502793E-02;  0.0000000E+00; -3.8860799E-03;  0.0000000E+00;  0.0000000E+00;  0.0000000E+00;0;  3.0411305E-04;  9.9803780E+01;  0.0000000E+00; -1.0125724E-05;  1.0000000E+02;  0.0000000E+00;  1.0000826E+02;  3.1768877E-04;  0.0000000E+00; -1.3575721E-05;  0.0000000E+00;
  3.9943001E-01;  9.9999998E-03; -9.9971938E-01;187;  7.6729724E-05;  0.0000000E+00;  1.1599754E-04;  9.9963589E+00;  4.0088952E-01; -3.9177567E-01;3; -2.2980990E-02;  0.0000000E+00; -1.2596074E-01;  0.0000000E+00;  0.0000000E+00;  0.0000000E+00;0;  7.4685685E-04;  9.9482086E+01;  0.0000000E+00;  1.0523812E-03;  1.0000000E+02;  0.0000000E+00;  1.0000108E+02;  7.5150485E-04;  0.0000000E+00; -4.6479909E-06;  0.0000000E+00;
  3.9926293E-01;  9.9999998E-03; -7.9978341E-01;188; -1.2279736E-06;  0.0000000E+00;  7.2980692E-05;  9.9960756E+00;  4.0099570E-01; -4.2223784E-01;3; -2.1582562E-02;  0.0000000E+00; -1.0076768E-01;  0.0000000E+00;  0.0000000E+00;  0.0000000E+00;0;  7.9858955E-04;  9.9422997E+01;  0.0000000E+00; -2.4101690E-04;  1.0000000E+02;  0.0000000E+00;  9.9999763E+01;  8.0386078E-04;  0.0000000E+00; -5.2712167E-06;  0.0000000E+00;
  3.9923838E-01;  9.9999998E-03; -5.9986925E-01;189;  5.9106947E-06;  0.0000000E+00;  3.8879731E-05;  9.9959698E+00;  4.0102372E-01; -4.3365315E-01;3; -2.0202532E-02;  0.0000000E+00; -6.9531530E-02;  0.0000000E+00;  0.0000000E+00;  0.0000000E+00;0;  8.0808473E-04;  9.9401688E+01;  0.0000000E+00; -5.5920129E-04;  1.0000000E+02;  0.0000000E+00;  1.0000908E+02;  8.1751606E-04;  0.0000000E+00; -9.4313054E-06;  0.0000000E+00;
  3.9929777E-01;  9.9999998E-03; -3.9992210E-01;190;  5.6962752E-05;  0.0000000E+00;  2.3758932E-05;  9.9959545E+00;  4.0100893E-01; -4.3525642E-01;3; -2.0547032E-02;  0.0000000E+00; -3.9909963E-02;  0.0000000E+00;  0.0000000E+00;  0.0000000E+00;0;  7.9367700E-04;  9.9406372E+01;  0.0000000E+00; -3.1163282E-04;  1.0000000E+02;  0.0000000E+00;  1.0000834E+02;  8.0680434E-04;  0.0000000E+00; -1.3127325E-05;  0.0000000E+00;
  3.9936146E-01;  9.9999998E-03; -1.9995944E-01;191;  1.0283560E-04;  0.0000000E+00;  1.3924102E-05;  9.9959984E+00;  4.0098342E-01; -4.3057486E-01;3; -2.1025153E-02;  0.0000000E+00; -1.7245967E-02;  0.0000000E+00;  0.0000000E+00;  0.0000000E+00;0;  7.7653915E-04;  9.9418968E+01;  0.0000000E+00; -6.9228539E-05;  1.0000000E+02;  0.0000000E+00;  1.0000819E+02;  7.9184765E-04;  0.0000000E+00; -1.5308517E-05;  0.0000000E+00;
  5.9954137E-01;  9.9999998E-03; -9.9957830E-01;198;  6.0233520E-05;  0.0000000E+00;  2.0461563E-04;  9.9946613E+00;  4.0184084E-01; -5.7441312E-01;3;  3.8461782E-02;  0.0000000E+00; -1.7935883E-01;  0.0000000E+00;  0.0000000E+00;  0.0000000E+00;0;  1.4437640E-03;  9.8963562E+01;  0.0000000E+00;  1.0189808E-02;  1.0000000E+02;  0.0000000E+00;  1.0001407E+02;  1.4746416E-03;  0.0000000E+00; -3.0877636E-05;  0.0000000E+00;
  5.9915900E-01;  9.9999998E-03; -7.9966062E-01;199; -7.4697637E-05;  0.0000000E+00;  1.5003173E-04;  9.9941492E+00;  4.0203935E-01; -6.2950087E-01;3;  1.8653188E-02;  0.0000000E+00; -1.3459665E-01;  0.0000000E+00;  0.0000000E+00;  0.0000000E+00;0;  1.5662170E-03;  9.8862778E+01;  0.0000000E+00;  3.1884655E-03;  1.0000000E+02;  0.0000000E+00;  1.0000898E+02;  1.5832431E-03;  0.0000000E+00; -1.7026119E-05;  0.0000000E+00;
  5.9912646E-01;  9.9999998E-03; -5.9980124E-01;200; -4.5861325E-05;  0.0000000E+00;  8.0693972E-05;  9.9938803E+00;  4.0211731E-01; -6.5842360E-01;3;  5.1105591E-03;  0.0000000E+00; -8.3800912E-02;  0.0000000E+00;  0.0000000E+00;  0.0000000E+00;0;  1.6271864E-03;  9.8821228E+01;  0.0000000E+00; -3.4245910E-04;  1.0000000E+02;  0.0000000E+00;  1.0000618E+02;  1.6373706E-03;  0.0000000E+00; -1.0184111E-05;  0.0000000E+00;
  5.9918725E-01;  9.9999998E-03; -3.9989495E-01;201;  2.2177348E-05;  0.0000000E+00;  3.8180304E-05;  9.9938154E+00;  4.0211809E-01; -6.6541368E-01;3; -1.6783667E-03;  0.0000000E+00; -4.4734444E-02;  0.0000000E+00;  0.0000000E+00;  0.0000000E+00;0;  1.6411548E-03;  9.8822189E+01;  0.0000000E+00; -6.9552218E-04;  1.0000000E+02;  0.0000000E+00;  1.0000400E+02;  1.6495773E-03;  0.0000000E+00; -8.4225667E-06;  0.0000000E+00;
  5.9925574E-01;  9.9999998E-03; -1.9994897E-01;202;  8.3654784E-05;  0.0000000E+00;  1.8876406E-05;  9.9938011E+00;  4.0208876E-01; -6.6695285E-01;3; -6.4087813E-03;  0.0000000E+00; -1.8419970E-02;  0.0000000E+00;  0.0000000E+00;  0.0000000E+00;0;  1.6417939E-03;  9.8836723E+01;  0.0000000E+00; -2.0619808E-04;  1.0000000E+02;  0.0000000E+00;  1.0000248E+02;  1.6497044E-03;  0.0000000E+00; -7.9105748E-06;  0.0000000E+00;
  8.0131125E-01;  9.9999998E-03; -1.0000055E+00;209;  8.3566172E-04;  0.0000000E+00; -4.0088235E-05;  9.9920292E+00;  4.0346411E-01; -8.5758686E-01;3;  1.9517441E-01;  0.0000000E+00; -1.1751546E-01;  0.0000000E+00;  0.0000000E+00;  0.0000000E+00;0;  2.8274315E-03;  9.8131035E+01;  0.0000000E+00;  3.1295843E-02;  1.0000000E+02;  0.0000000E+00;  1.0000219E+02;  2.8185067E-03;  0.0000000E+00;  8.9249515E-06;  0.0000000E+00;
  7.9923403E-01;  9.9999998E-03; -7.9983050E-01;210; -1.4872874E-04;  0.0000000E+00;  8.5774147E-05;  9.9923153E+00;  4.0350610E-01; -8.2680559E-01;3;  9.3746424E-02;  0.0000000E+00; -1.1844520E-01;  0.0000000E+00;  0.0000000E+00;  0.0000000E+00;0;  2.6844686E-03;  9.8109932E+01;  0.0000000E+00;  1.6418518E-02;  1.0000000E+02;  0.0000000E+00;  1.0000629E+02;  2.7004874E-03;  0.0000000E+00; -1.6018654E-05;  0.0000000E+00;
  7.9909062E-01;  9.9999998E-03; -5.9987527E-01;211; -1.2328132E-04;  0.0000000E+00;  6.3190157E-05;  9.9919786E+00;  4.0361080E-01; -8.6303800E-01;3;  2.9029315E-02;  0.0000000E+00; -7.9760090E-02;  0.0000000E+00;  0.0000000E+00;  0.0000000E+00;0;  2.8009962E-03;  9.8062172E+01;  0.0000000E+00;  2.7810158E-03;  1.0000000E+02;  0.0000000E+00;  9.9997978E+01;  2.8037694E-03;  0.0000000E+00; -2.7732494E-06;  0.0000000E+00;
  7.9913592E-01;  9.9999998E-03; -3.9994678E-01;212; -1.3553213E-05;  0.0000000E+00;  1.9730227E-05;  9.9918232E+00;  4.0360379E-01; -8.7971139E-01;3;  8.1268530E-03;  0.0000000E+00; -4.0418610E-02;  0.0000000E+00;  0.0000000E+00;  0.0000000E+00;0;  2.8547342E-03;  9.8068359E+01;  0.0000000E+00; -6.8568200E-04;  1.0000000E+02;  0.0000000E+00;  9.9994041E+01;  2.8482042E-03;  0.0000000E+00;  6.5298705E-06;  0.0000000E+00;
  7.9922247E-01;  9.9999998E-03; -1.9997387E-01;213;  7.0753442E-05;  0.0000000E+00;  8.2672523E-06;  9.9917526E+00;  4.0355662E-01; -8.8734263E-01;3; -8.6506741E-04;  0.0000000E+00; -1.6190359E-02;  0.0000000E+00;  0.0000000E+00;  0.0000000E+00;0;  2.8802722E-03;  9.8090256E+01;  0.0000000E+00; -3.5301154E-04;  1.0000000E+02;  0.0000000E+00;  9.9990891E+01;  2.8700323E-03;  0.0000000E+00;  1.0239955E-05;  0.0000000E+00;
  1.0098023E+00;  9.9999998E-03; -1.0005589E+00;220;  3.0631518E-03;  0.0000000E+00; -1.7028706E-04;  9.9883842E+00;  4.0673360E-01; -1.2496461E+00;3;  2.3943257E-02;  0.0000000E+00;  1.4438109E-02;  0.0000000E+00;  0.0000000E+00;  0.0000000E+00;0;  5.2627278E-03;  9.6540314E+01;  0.0000000E+00;  5.3692181E-03;  1.0000000E+02;  0.0000000E+00;  9.9950638E+01;  5.1912535E-03;  0.0000000E+00;  7.1474329E-05;  0.0000000E+00;
  1.0022824E+00;  9.9999998E-03; -8.0055898E-01;221;  9.5722597E-04;  0.0000000E+00; -2.5544647E-04;  9.9901762E+00;  4.0564302E-01; -1.0568935E+00;3;  1.2562563E-01;  0.0000000E+00;  3.2622874E-02;  0.0000000E+00;  0.0000000E+00;  0.0000000E+00;0;  4.4539557E-03;  9.7093170E+01;  0.0000000E+00;  2.9346047E-02;  1.0000000E+02;  0.0000000E+00;  9.9948929E+01;  4.3502557E-03;  0.0000000E+00;  1.0369993E-04;  0.0000000E+00;
  1.0010415E+00;  9.9999998E-03; -6.0011613E-01;222; -1.6557683E-04;  0.0000000E+00; -4.5501752E-06;  9.9906025E+00;  4.0553257E-01; -1.0109812E+00;3;  4.2816408E-02;  0.0000000E+00; -4.8345834E-02;  0.0000000E+00;  0.0000000E+00;  0.0000000E+00;0;  4.2424710E-03;  9.7127495E+01;  0.0000000E+00;  7.3329774E-03;  1.0000000E+02;  0.0000000E+00;  9.9978180E+01;  4.2202575E-03;  0.0000000E+00;  2.2213293E-05;  0.0000000E+00;
  1.0011704E+00;  9.9999998E-03; -4.0016916E-01;223; -4.2647771E-05;  0.0000000E+00; -2.7102493E-05;  9.9904327E+00;  4.0545547E-01; -1.0292565E+00;3;  1.1191396E-02;  0.0000000E+00; -2.8515935E-02;  0.0000000E+00;  0.0000000E+00;  0.0000000E+00;0;  4.3281973E-03;  9.7162582E+01;  0.0000000E+00; -7.7883009E-04;  1.0000000E+02;  0.0000000E+00;  9.9977783E+01;  4.2961719E-03;  0.0000000E+00;  3.2025415E-05;  0.0000000E+00;
  1.0006706E+00;  9.9999998E-03; -2.0010217E-01;224;  5.7954952E-05;  0.0000000E+00; -2.6817239E-05;  9.9903688E+00;  4.0534449E-01; -1.0361180E+00;3;  1.3331749E-03;  0.0000000E+00; -1.2349918E-02;  0.0000000E+00;  0.0000000E+00;  0.0000000E+00;0;  4.3655965E-03;  9.7210602E+01;  0.0000000E+00; -5.1368464E-04;  1.0000000E+02;  0.0000000E+00;  9.9979660E+01;  4.3295226E-03;  0.0000000E+00;  3.6073787E-05;  0.0000000E+00;
  1.2133888E+00;  9.9999998E-03; -1.0004607E+00;231;  4.1351891E-03;  0.0000000E+00; -1.5856353E-04;  9.9879093E+00;  4.0911222E-01; -1.3005569E+00;3; -6.6210399E-03;  0.0000000E+00;  5.5065475E-02;  0.0000000E+00;  0.0000000E+00;  0.0000000E+00;0;  7.0052166E-03;  9.5423004E+01;  0.0000000E+00; -1.1445479E-03;  1.0000000E+02;  0.0000000E+00;  9.9938202E+01;  6.9070850E-03;  0.0000000E+00;  9.8131699E-05;  0.0000000E+00;
  1.2090524E+00;  9.9999998E-03; -8.0041617E-01;232;  2.7500778E-03;  0.0000000E+00; -1.9972476E-04;  9.9889727E+00;  4.0829027E-01; -1.1861826E+00;3;  6.5874532E-02;  0.0000000E+00;  5.5559456E-02;  0.0000000E+00;  0.0000000E+00;  0.0000000E+00;0;  6.3733282E-03;  9.5832230E+01;  0.0000000E+00;  1.2844433E-02;  1.0000000E+02;  0.0000000E+00;  9.9933472E+01;  6.2434445E-03;  0.0000000E+00;  1.2988370E-04;  0.0000000E+00;
  1.2034719E+00;  9.9999998E-03; -6.0001075E-01;233; -1.2222577E-05;  0.0000000E+00; -1.5246372E-05;  9.9899645E+00;  4.0772533E-01; -1.0795023E+00;3;  5.1481776E-02;  0.0000000E+00; -2.2153698E-02;  0.0000000E+00;  0.0000000E+00;  0.0000000E+00;0;  5.7828468E-03;  9.6083092E+01;  0.0000000E+00;  1.1769311E-02;  1.0000000E+02;  0.0000000E+00;  9.9968742E+01;  5.7419906E-03;  0.0000000E+00;  4.0856215E-05;  0.0000000E+00;
  1.2051275E+00;  9.9999998E-03; -4.0021914E-01;234; -1.1660039E-05;  0.0000000E+00; -1.9189505E-05;  9.9897995E+00;  4.0768096E-01; -1.0972604E+00;3;  1.1035137E-02;  0.0000000E+00; -1.5997887E-02;  0.0000000E+00;  0.0000000E+00;  0.0000000E+00;0;  5.8868332E-03;  9.6109192E+01;  0.0000000E+00; -2.5637320E-03;  1.0000000E+02;  0.0000000E+00;  9.9958237E+01;  5.8360798E-03;  0.0000000E+00;  5.0753406E-05;  0.0000000E+00;
  1.2085710E+00;  9.9999998E-03; -2.0020351E-01;235;  1.4414773E-03;  0.0000000E+00; -1.4946255E-04;  9.9896812E+00;  4.0754059E-01; -1.1099510E+00;3; -2.8806992E-04;  0.0000000E+00; -8.4777446E-03;  0.0000000E+00;  0.0000000E+00;  0.0000000E+00;0;  5.9766481E-03;  9.6166855E+01;  0.0000000E+00; -1.6156351E-03;  1.0000000E+02;  0.0000000E+00;  9.9965263E+01;  5.9080631E-03;  0.0000000E+00;  6.8584995E-05;  0.0000000E+00;
  1.4169651E+00;  9.9999998E-03; -1.0003656E+00;242;  5.2008745E-03;  0.0000000E+00; -1.0708729E-04;  9.9885969E+00;  4.1121802E-01; -1.2261529E+00;3; -3.5454291E-03;  0.0000000E+00;  4.8243307E-02;  0.0000000E+00;  0.0000000E+00;  0.0000000E+00;0;  8.3205700E-03;  9.4466499E+01;  0.0000000E+00; -2.4117532E-03;  1.0000000E+02;  0.0000000E+00;  9.9932129E+01;  8.2359659E-03;  0.0000000E+00;  8.4603693E-05;  0.0000000E+00;
  1.4134077E+00;  9.9999998E-03; -8.0022436E-01;243;  4.2705052E-03;  0.0000000E+00; -9.2728849E-05;  9.9890432E+00;  4.1077486E-01; -1.1781577E+00;3;  3.5405297E-02;  0.0000000E+00;  3.3560771E-02;  0.0000000E+00;  0.0000000E+00;  0.0000000E+00;0;  7.9671200E-03;  9.4680595E+01;  0.0000000E+00;  5.5966517E-03;  1.0000000E+02;  0.0000000E+00;  9.9929604E+01;  7.8716027E-03;  0.0000000E+00;  9.5517680E-05;  0.0000000E+00;
  1.4100350E+00;  9.9999998E-03; -6.0006380E-01;244;  1.9243027E-03;  0.0000000E+00;  1.1280621E-04;  9.9896374E+00;  4.1051424E-01; -1.1143301E+00;3;  2.1347316E-02;  0.0000000E+00; -5.7510138E-03;  0.0000000E+00;  0.0000000E+00;  0.0000000E+00;0;  7.4781482E-03;  9.4801392E+01;  0.0000000E+00; -4.0038879E-04;  1.0000000E+02;  0.0000000E+00;  9.9940475E+01;  7.4880109E-03;  0.0000000E+00; -9.8625169E-06;  0.0000000E+00;
  1.4120456E+00;  9.9999998E-03; -4.0033540E-01;245;  2.2264635E-03;  0.0000000E+00;  2.8148634E-05;  9.9895687E+00;  4.1046426E-01; -1.1216954E+00;3;  2.7530892E-03;  0.0000000E+00; -6.0669570E-03;  0.0000000E+00;  0.0000000E+00;  0.0000000E+00;0;  7.5433655E-03;  9.4832344E+01;  0.0000000E+00; -7.1921232E-03;  1.0000000E+02;  0.0000000E+00;  9.9933022E+01;  7.4905846E-03;  0.0000000E+00;  5.2780721E-05;  0.0000000E+00;
  1.4131743E+00;  9.9999998E-03; -2.0038077E-01;246;  6.0878452E-03;  0.0000000E+00; -5.3577191E-05;  9.9896460E+00;  4.1026443E-01; -1.1133603E+00;3;  1.5773298E-03;  0.0000000E+00; -5.3540673E-03;  0.0000000E+00;  0.0000000E+00;  0.0000000E+00;0;  7.5376732E-03;  9.4905853E+01;  0.0000000E+00; -2.0703217E-03;  1.0000000E+02;  0.0000000E+00;  9.9950264E+01;  7.4633942E-03;  0.0000000E+00;  7.4279087E-05;  0.0000000E+00;
  1.6216635E+00;  9.9999998E-03; -1.0003787E+00;253;  6.5232906E-03;  0.0000000E+00; -7.9691039E-05;  9.9893761E+00;  4.1363132E-01; -1.1415073E+00;3;  2.5059972E-03;  0.0000000E+00;  2.3565892E-02;  0.0000000E+00;  0.0000000E+00;  0.0000000E+00;0;  9.6132690E-03;  9.3398506E+01;  0.0000000E+00; -2.7837718E-03;  1.0000000E+02;  0.0000000E+00;  9.9917221E+01;  9.5331334E-03;  0.0000000E+00;  8.0135447E-05;  0.0000000E+00;
  1.6185771E+00;  9.9999998E-03; -8.0011481E-01;254;  5.6733019E-03;  0.0000000E+00; -6.2868690E-05;  9.9894238E+00;  4.1371578E-01; -1.1364028E+00;3;  1.5436651E-02;  0.0000000E+00;  8.2323086E-03;  0.0000000E+00;  0.0000000E+00;  0.0000000E+00;0;  9.5406920E-03;  9.3360519E+01;  0.0000000E+00; -1.7737263E-04;  1.0000000E+02;  0.0000000E+00;  9.9915222E+01;  9.4364937E-03;  0.0000000E+00;  1.0419798E-04;  0.0000000E+00;
  1.6160177E+00;  9.9999998E-03; -5.9997237E-01;255;  5.3546038E-03;  0.0000000E+00; -8.2272665E-05;  9.9894333E+00;  4.1384754E-01; -1.1353937E+00;3;  6.9906940E-03;  0.0000000E+00; -3.0127882E-03;  0.0000000E+00;  0.0000000E+00;  0.0000000E+00;0;  9.5069669E-03;  9.3305382E+01;  0.0000000E+00; -5.3820140E-03;  1.0000000E+02;  0.0000000E+00;  9.9907883E+01;  9.3840295E-03;  0.0000000E+00;  1.2293695E-04;  0.0000000E+00;
  1.6153220E+00;  9.9999998E-03; -4.0012014E-01;256;  6.4697233E-03;  0.0000000E+00; -1.6199883E-04;  9.9895020E+00;  4.1393980E-01; -1.1280328E+00;3;  2.8810478E-03;  0.0000000E+00; -4.3433569E-03;  0.0000000E+00;  0.0000000E+00;  0.0000000E+00;0;  9.4380723E-03;  9.3264023E+01;  0.0000000E+00; -4.8720748E-03;  1.0000000E+02;  0.0000000E+00;  9.9906975E+01;  9.3133692E-03;  0.0000000E+00;  1.2470306E-04;  0.0000000E+00;
  1.6138830E+00;  9.9999998E-03; -2.0025074E-01;257;  6.3870731E-03;  0.0000000E+00; -2.7829222E-04;  9.9896870E+00;  4.1390836E-01; -1.1081231E+00;3;  1.7702176E-03;  0.0000000E+00; -3.4287486E-03;  0.0000000E+00;  0.0000000E+00;  0.0000000E+00;0;  9.2481505E-03;  9.3261192E+01;  0.0000000E+00; -1.1162970E-03;  1.0000000E+02;  0.0000000E+00;  9.9929695E+01;  9.1416873E-03;  0.0000000E+00;  1.0646366E-04;  0.0000000E+00;
  1.8282801E+00;  9.9999998E-03; -1.0005833E+00;264;  8.2683051E-03;  0.0000000E+00; -8.6828361E-05;  9.9899454E+00;  4.1670653E-01; -1.0784659E+00;3;  4.5053610E-03;  0.0000000E+00;  3.4995358E-03;  0.0000000E+00;  0.0000000E+00;  0.0000000E+00;0;  1.1222291E-02;  9.2070763E+01;  0.0000000E+00; -4.2624674E-03;  1.0000000E+02;  0.0000000E+00;  9.9875519E+01;  1.1111104E-02;  0.0000000E+00;  1.1118720E-04;  0.0000000E+00;
  1.8258276E+00;  9.9999998E-03; -8.0013514E-01;265;  7.9025412E-03;  0.0000000E+00; -1.8212810E-05;  9.9896727E+00;  4.1737691E-01; -1.1077160E+00;3;  5.4649469E-03;  0.0000000E+00; -2.9944442E-03;  0.0000000E+00;  0.0000000E+00;  0.0000000E+00;0;  1.1464822E-02;  9.1774429E+01;  0.0000000E+00; -3.8021447E-03;  1.0000000E+02;  0.0000000E+00;  9.9868614E+01;  1.1359947E-02;  0.0000000E+00;  1.0487567E-04;  0.0000000E+00;
  1.8219094E+00;  9.9999998E-03; -5.9977627E-01;266;  7.4799825E-03;  0.0000000E+00; -2.7117456E-05;  9.9894762E+00;  4.1796055E-01; -1.1288675E+00;3;  2.2699817E-03;  0.0000000E+00; -4.1462258E-03;  0.0000000E+00;  0.0000000E+00;  0.0000000E+00;0;  1.1630600E-02;  9.1524696E+01;  0.0000000E+00; -1.9569076E-03;  1.0000000E+02;  0.0000000E+00;  9.9858582E+01;  1.1488713E-02;  0.0000000E+00;  1.4188656E-04;  0.0000000E+00;
  1.8174772E+00;  9.9999998E-03; -3.9964351E-01;267;  6.7260936E-03;  0.0000000E+00; -1.3939213E-04;  9.9894056E+00;  4.1838682E-01; -1.1364717E+00;3;  1.7274776E-03;  0.0000000E+00; -3.3044214E-03;  0.0000000E+00;  0.0000000E+00;  0.0000000E+00;0;  1.1649645E-02;  9.1332397E+01;  0.0000000E+00; -8.3483977E-04;  1.0000000E+02;  0.0000000E+00;  9.9862495E+01;  1.1495564E-02;  0.0000000E+00;  1.5408099E-04;  0.0000000E+00;
  1.8149412E+00;  9.9999998E-03; -1.9981216E-01;268;  6.3517066E-03;  0.0000000E+00; -1.7307387E-04;  9.9894161E+00;  4.1866198E-01; -1.1354185E+00;3;  1.2029683E-03;  0.0000000E+00; -1.5825911E-03;  0.0000000E+00;  0.0000000E+00;  0.0000000E+00;0;  1.1576076E-02;  9.1201347E+01;  0.0000000E+00; -2.0804345E-04;  1.0000000E+02;  0.0000000E+00;  9.9876442E+01;  1.1471187E-02;  0.0000000E+00;  1.0488941E-04;  0.0000000E+00;
  2.0386724E+00;  9.9999998E-03; -1.0011557E+00;275;  1.0258626E-02;  0.0000000E+00; -1.3134345E-04;  9.9903021E+00;  4.2044908E-01; -1.0360552E+00;3;  3.4926471E-03;  0.0000000E+00; -2.5502187E-03;  0.0000000E+00;  0.0000000E+00;  0.0000000E+00;0;  1.3197482E-02;  9.0537781E+01;  0.0000000E+00; -1.0250479E-02;  1.0000000E+02;  0.0000000E+00;  9.9775955E+01;  1.3032102E-02;  0.0000000E+00;  1.6537933E-04;  0.0000000E+00;
  2.0398300E+00;  9.9999998E-03; -8.0040854E-01;276;  1.0408147E-02;  0.0000000E+00; -2.0229720E-05;  9.9898119E+00;  4.2165309E-01; -1.0884285E+00;3; -2.9122883E-05;  0.0000000E+00; -3.6543752E-03;  0.0000000E+00;  0.0000000E+00;  0.0000000E+00;0;  1.3876456E-02;  9.0022629E+01;  0.0000000E+00; -1.1126552E-02;  1.0000000E+02;  0.0000000E+00;  9.9760895E+01;  1.3698460E-02;  0.0000000E+00;  1.7799583E-04;  0.0000000E+00;
  2.0354145E+00;  9.9999998E-03; -5.9962982E-01;277;  8.5940314E-03;  0.0000000E+00;  7.4296411E-05;  9.9893913E+00;  4.2272055E-01; -1.1334567E+00;3; -6.9248909E-04;  0.0000000E+00; -2.7124665E-03;  0.0000000E+00;  0.0000000E+00;  0.0000000E+00;0;  1.4370356E-02;  8.9570259E+01;  0.0000000E+00; -2.6537864E-03;  1.0000000E+02;  0.0000000E+00;  9.9751694E+01;  1.4191820E-02;  0.0000000E+00;  1.7853551E-04;  0.0000000E+00;
  2.0236478E+00;  9.9999998E-03; -3.9902598E-01;278;  7.2900327E-03;  0.0000000E+00;  5.4540465E-05;  9.9890633E+00;  4.2354101E-01; -1.1689094E+00;3;  3.3830589E-04;  0.0000000E+00; -1.5574080E-03;  0.0000000E+00;  0.0000000E+00;  0.0000000E+00;0;  1.4630654E-02;  8.9215668E+01;  0.0000000E+00; -1.4873977E-04;  1.0000000E+02;  0.0000000E+00;  9.9752670E+01;  1.4453865E-02;  0.0000000E+00;  1.7678957E-04;  0.0000000E+00;
  2.0195713E+00;  9.9999998E-03; -1.9939499E-01;279;  6.3415384E-03;  0.0000000E+00;  1.2136580E-04;  9.9889021E+00;  4.2421427E-01; -1.1862335E+00;3;  7.8459305E-04;  0.0000000E+00; -3.9450073E-04;  0.0000000E+00;  0.0000000E+00;  0.0000000E+00;0;  1.4787827E-02;  8.8945335E+01;  0.0000000E+00; -8.9351546E-05;  1.0000000E+02;  0.0000000E+00;  9.9736259E+01;  1.4662869E-02;  0.0000000E+00;  1.2495754E-04;  0.0000000E+00;
  2.2549598E+00;  9.9999998E-03; -1.0023882E+00;286;  1.6981279E-02;  0.0000000E+00; -2.7632408E-04;  9.9906740E+00;  4.2453653E-01; -9.8746854E-01;3;  8.7864883E-04;  0.0000000E+00; -9.5662882E-04;  0.0000000E+00;  0.0000000E+00;  0.0000000E+00;0;  1.5403268E-02;  8.9002464E+01;  0.0000000E+00; -9.6675884E-03;  1.0000000E+02;  0.0000000E+00;  9.9556313E+01;  1.5114944E-02;  0.0000000E+00;  2.8832330E-04;  0.0000000E+00;
  2.2549233E+00;  9.9999998E-03; -8.0117047E-01;287;  1.7499544E-02;  0.0000000E+00; -7.9213016E-05;  9.9900532E+00;  4.2589489E-01; -1.0532348E+00;3;  2.5907901E-04;  0.0000000E+00; -1.3657991E-03;  0.0000000E+00;  0.0000000E+00;  0.0000000E+00;0;  1.6427182E-02;  8.8437378E+01;  0.0000000E+00; -3.1109706E-03;  1.0000000E+02;  0.0000000E+00;  9.9541512E+01;  1.6100435E-02;  0.0000000E+00;  3.2674673E-04;  0.0000000E+00;
  2.2512503E+00;  9.9999998E-03; -5.9979808E-01;288;  1.6312795E-02;  0.0000000E+00;  9.7818214E-05;  9.9893684E+00;  4.2737594E-01; -1.1259929E+00;3;  3.6542318E-04;  0.0000000E+00; -8.4123504E-04;  0.0000000E+00;  0.0000000E+00;  0.0000000E+00;0;  1.7499110E-02;  8.7824600E+01;  0.0000000E+00; -2.0137540E-04;  1.0000000E+02;  0.0000000E+00;  9.9527908E+01;  1.7138811E-02;  0.0000000E+00;  3.6029905E-04;  0.0000000E+00;
  2.2427890E+00;  9.9999998E-03; -3.9877731E-01;289;  8.8580959E-03;  0.0000000E+00;  3.6126570E-04;  9.9887695E+00;  4.2882594E-01; -1.1900102E+00;3; -2.3655577E-03;  0.0000000E+00; -2.1093771E-04;  0.0000000E+00;  0.0000000E+00;  0.0000000E+00;0;  1.8315321E-02;  8.7255859E+01;  0.0000000E+00; -3.8330985E-04;  1.0000000E+02;  0.0000000E+00;  9.9491768E+01;  1.8025151E-02;  0.0000000E+00;  2.9016944E-04;  0.0000000E+00;
  2.2396722E+00;  9.9999998E-03; -1.9926439E-01;290;  7.4531762E-03;  0.0000000E+00;  2.4905492E-04;  9.9883432E+00;  4.2989999E-01; -1.2353834E+00;3; -1.4120622E-03;  0.0000000E+00; -1.5769303E-05;  0.0000000E+00;  0.0000000E+00;  0.0000000E+00;0;  1.8950382E-02;  8.6853737E+01;  0.0000000E+00; -1.1620210E-04;  1.0000000E+02;  0.0000000E+00;  9.9443184E+01;  1.8641561E-02;  0.0000000E+00;  3.0882019E-04;  0.0000000E+00;
  2.4554079E+00;  9.9999998E-03; -1.0045767E+00;297;  1.6935971E-02;  0.0000000E+00; -5.8857573E-04;  9.9908285E+00;  4.2928928E-01; -9.5538527E-01;3;  1.5745834E-04;  0.0000000E+00;  6.5112516E-05;  0.0000000E+00;  0.0000000E+00;  0.0000000E+00;0;  1.7863438E-02;  8.7408867E+01;  0.0000000E+00;  1.3060394E-03;  1.0000000E+02;  0.0000000E+00;  9.9143478E+01;  1.7319174E-02;  0.0000000E+00;  5.4426381E-04;  0.0000000E+00;
  2.4577513E+00;  9.9999998E-03; -8.0283844E-01;298;  1.7467661E-02;  0.0000000E+00; -2.4138969E-04;  9.9902372E+00;  4.3055549E-01; -1.0167222E+00;3; -1.3895951E-04;  0.0000000E+00;  5.7337482E-05;  0.0000000E+00;  0.0000000E+00;  0.0000000E+00;0;  1.9083492E-02;  8.6904457E+01;  0.0000000E+00;  2.7286846E-04;  1.0000000E+02;  0.0000000E+00;  9.9119583E+01;  1.8502353E-02;  0.0000000E+00;  5.8113888E-04;  0.0000000E+00;
  2.4629061E+00;  9.9999998E-03; -6.0085702E-01;299;  1.7191082E-02;  0.0000000E+00;  1.5257516E-04;  9.9895277E+00;  4.3203726E-01; -1.0900419E+00;3; -5.1368936E-04;  0.0000000E+00;  1.8377673E-06;  0.0000000E+00;  0.0000000E+00;  0.0000000E+00;0;  2.0560673E-02;  8.6322693E+01;  0.0000000E+00;  1.1007197E-04;  1.0000000E+02;  0.0000000E+00;  9.9090660E+01;  1.9933218E-02;  0.0000000E+00;  6.2745478E-04;  0.0000000E+00;
  2.4711230E+00;  9.9999998E-03; -3.9920199E-01;300;  1.7338049E-02;  0.0000000E+00;  3.8594738E-04;  9.9888210E+00;  4.3354431E-01; -1.1625011E+00;3; -5.4500452E-03;  0.0000000E+00; -1.8802522E-05;  0.0000000E+00;  0.0000000E+00;  0.0000000E+00;0;  2.2090087E-02;  8.5768936E+01;  0.0000000E+00;  3.7943108E-05;  1.0000000E+02;  0.0000000E+00;  9.9026878E+01;  2.1360483E-02;  0.0000000E+00;  7.2960329E-04;  0.0000000E+00;
  2.4762657E+00;  9.9999998E-03; -1.9941464E-01;301;  1.6680501E-02;  0.0000000E+00;  2.4477276E-04;  9.9883194E+00;  4.3469512E-01; -1.2139879E+00;3; -8.3655501E-03;  0.0000000E+00; -1.1455335E-04;  0.0000000E+00;  0.0000000E+00;  0.0000000E+00;0;  2.3190429E-02;  8.5371376E+01;  0.0000000E+00;  1.8892202E-05;  1.0000000E+02;  0.0000000E+00;  9.8946190E+01;  2.2394115E-02;  0.0000000E+00;  7.9631445E-04;  0.0000000E+00;
  2.6592789E+00;  9.9999998E-03; -1.0080885E+00;308;  1.6881457E-02;  0.0000000E+00; -1.2198002E-03;  9.9905396E+00;  4.3579853E-01; -9.5840687E-01;3;  2.8488810E-05;  0.0000000E+00;  3.6686831E-04;  0.0000000E+00;  0.0000000E+00;  0.0000000E+00;0;  2.1571821E-02;  8.5418205E+01;  0.0000000E+00;  2.2656287E-03;  1.0000000E+02;  0.0000000E+00;  9.8439171E+01;  2.0455113E-02;  0.0000000E+00;  1.1167084E-03;  0.0000000E+00;
  2.6650100E+00;  9.9999998E-03; -8.0576849E-01;309;  1.7424380E-02;  0.0000000E+00; -7.0307590E-04;  9.9901094E+00;  4.3652916E-01; -1.0010540E+00;3; -1.9153312E-04;  0.0000000E+00;  7.9557474E-05;  0.0000000E+00;  0.0000000E+00;  0.0000000E+00;0;  2.2654478E-02;  8.5146881E+01;  0.0000000E+00;  1.5655520E-03;  1.0000000E+02;  0.0000000E+00;  9.8414314E+01;  2.1484349E-02;  0.0000000E+00;  1.1701285E-03;  0.0000000E+00;
  2.6753078E+00;  9.9999998E-03; -6.0319477E-01;310;  2.0013593E-02;  0.0000000E+00; -9.8338809E-05;  9.9896269E+00;  4.3737221E-01; -1.0480504E+00;3; -2.3206959E-03;  0.0000000E+00;  5.9245620E-04;  0.0000000E+00;  0.0000000E+00;  0.0000000E+00;0;  2.3975650E-02;  8.4833496E+01;  0.0000000E+00;  8.8208518E-04;  1.0000000E+02;  0.0000000E+00;  9.8389160E+01;  2.2721065E-02;  0.0000000E+00;  1.2545853E-03;  0.0000000E+00;
  2.6884291E+00;  9.9999998E-03; -4.0060762E-01;311;  2.5343362E-02;  0.0000000E+00;  3.2749111E-04;  9.9891558E+00;  4.3818212E-01; -1.0932448E+00;3; -2.2302866E-03;  0.0000000E+00;  1.8482908E-04;  0.0000000E+00;  0.0000000E+00;  0.0000000E+00;0;  2.5305312E-02;  8.4542641E+01;  0.0000000E+00;  1.0292108E-04;  1.0000000E+02;  0.0000000E+00;  9.8349281E+01;  2.3862200E-02;  0.0000000E+00;  1.4431122E-03;  0.0000000E+00;
  2.6982183E+00;  9.9999998E-03; -1.9969487E-01;312;  2.8447041E-02;  0.0000000E+00;  2.4351108E-04;  9.9888420E+00;  4.3888000E-01; -1.1229531E+00;3; -2.6670871E-03;  0.0000000E+00;  6.5752181E-05;  0.0000000E+00;  0.0000000E+00;  0.0000000E+00;0;  2.6260039E-02;  8.4339928E+01;  0.0000000E+00;  6.4513956E-06;  1.0000000E+02;  0.0000000E+00;  9.8267601E+01;  2.4664553E-02;  0.0000000E+00;  1.5954865E-03;  0.0000000E+00;
  2.8740940E+00;  9.9999998E-03; -1.0129987E+00;319;  1.6824635E-02;  0.0000000E+00; -2.3878452E-03;  9.9897680E+00;  4.4442910E-01; -9.9667960E-01;3;  7.6735123E-06;  0.0000000E+00;  4.8595876E-04;  0.0000000E+00;  0.0000000E+00;  0.0000000E+00;0;  2.7160268E-02;  8.2978966E+01;  0.0000000E+00; -2.3762356E-03;  1.0000000E+02;  0.0000000E+00;  9.7419746E+01;  2.4859985E-02;  0.0000000E+00;  2.3002829E-03;  0.0000000E+00;
  2.8801615E+00;  9.9999998E-03; -8.1000119E-01;320;  2.0754145E-02;  0.0000000E+00; -1.6791789E-03;  9.9896603E+00;  4.4428807E-01; -1.0060269E+00;3; -1.2865445E-03;  0.0000000E+00;  6.3694501E-04;  0.0000000E+00;  0.0000000E+00;  0.0000000E+00;0;  2.7561747E-02;  8.3028976E+01;  0.0000000E+00; -1.1814410E-03;  1.0000000E+02;  0.0000000E+00;  9.7422882E+01;  2.5213199E-02;  0.0000000E+00;  2.3485471E-03;  0.0000000E+00;
  2.8899815E+00;  9.9999998E-03; -6.0688484E-01;321;  2.5947044E-02;  0.0000000E+00; -8.7725191E-04;  9.9895334E+00;  4.4412789E-01; -1.0164827E+00;3; -1.2790971E-03;  0.0000000E+00;  6.7057949E-04;  0.0000000E+00;  0.0000000E+00;  0.0000000E+00;0;  2.8110296E-02;  8.3073997E+01;  0.0000000E+00;  4.3341373E-05;  1.0000000E+02;  0.0000000E+00;  9.7433937E+01;  2.5698526E-02;  0.0000000E+00;  2.4117695E-03;  0.0000000E+00;
  2.9001582E+00;  9.9999998E-03; -4.0348646E-01;322;  3.0729257E-02;  0.0000000E+00; -1.4092521E-04;  9.9893913E+00;  4.4397655E-01; -1.0282766E+00;3;  4.9034023E-04;  0.0000000E+00;  3.6842559E-04;  0.0000000E+00;  0.0000000E+00;  0.0000000E+00;0;  2.8697260E-02;  8.3111397E+01;  0.0000000E+00;  1.0592601E-04;  1.0000000E+02;  0.0000000E+00;  9.7455467E+01;  2.6151283E-02;  0.0000000E+00;  2.5459761E-03;  0.0000000E+00;
  2.9090865E+00;  9.9999998E-03; -2.0070070E-01;323;  3.4873545E-02;  0.0000000E+00;  1.9071989E-04;  9.9892883E+00;  4.4394964E-01; -1.0365245E+00;3; -2.1013503E-04;  0.0000000E+00;  1.7134330E-04;  0.0000000E+00;  0.0000000E+00;  0.0000000E+00;0;  2.9148765E-02;  8.3141075E+01;  0.0000000E+00;  2.1521006E-05;  1.0000000E+02;  0.0000000E+00;  9.7430916E+01;  2.6458399E-02;  0.0000000E+00;  2.6903653E-03;  0.0000000E+00;
  3.1028397E+00;  9.9999998E-03; -1.0187364E+00;330;  2.6447469E-02;  0.0000000E+00; -4.1848761E-03;  9.9888077E+00;  4.5446083E-01; -1.0475084E+00;3; -3.5643468E-03;  0.0000000E+00;  8.1771234E-04;  0.0000000E+00;  0.0000000E+00;  0.0000000E+00;0;  3.4370489E-02;  8.0318817E+01;  0.0000000E+00; -3.8828957E-03;  1.0000000E+02;  0.0000000E+00;  9.6236427E+01;  3.0142872E-02;  0.0000000E+00;  4.2276159E-03;  0.0000000E+00;
  3.1036713E+00;  9.9999998E-03; -8.1492573E-01;331;  2.6446421E-02;  0.0000000E+00; -3.1914017E-03;  9.9889870E+00;  4.5349315E-01; -1.0305890E+00;3; -3.7200658E-03;  0.0000000E+00;  3.2002968E-04;  0.0000000E+00;  0.0000000E+00;  0.0000000E+00;0;  3.3837713E-02;  8.0612320E+01;  0.0000000E+00; -3.6764336E-03;  1.0000000E+02;  0.0000000E+00;  9.6297195E+01;  2.9706832E-02;  0.0000000E+00;  4.1308799E-03;  0.0000000E+00;
  3.1062098E+00;  9.9999998E-03; -6.1124825E-01;332;  2.8844396E-02;  0.0000000E+00; -2.3378991E-03;  9.9891243E+00;  4.5245108E-01; -1.0173185E+00;3;  8.6903042E-04;  0.0000000E+00;  1.1776207E-03;  0.0000000E+00;  0.0000000E+00;  0.0000000E+00;0;  3.3463664E-02;  8.0935005E+01;  0.0000000E+00; -1.5983691E-03;  1.0000000E+02;  0.0000000E+00;  9.6356621E+01;  2.9277343E-02;  0.0000000E+00;  4.1863206E-03;  0.0000000E+00;
  3.1121249E+00;  9.9999998E-03; -4.0752253E-01;333;  3.3410005E-02;  0.0000000E+00; -1.3245010E-03;  9.9892893E+00;  4.5150080E-01; -1.0010514E+00;3;  1.1618406E-03;  0.0000000E+00;  9.5721229E-04;  0.0000000E+00;  0.0000000E+00;  0.0000000E+00;0;  3.3082739E-02;  8.1225388E+01;  0.0000000E+00; -2.8072618E-04;  1.0000000E+02;  0.0000000E+00;  9.6419701E+01;  2.8970908E-02;  0.0000000E+00;  4.1118287E-03;  0.0000000E+00;
  3.1179428E+00;  9.9999998E-03; -2.0302361E-01;334;  3.6802601E-02;  0.0000000E+00;  1.5478421E-05;  9.9894180E+00;  4.5080256E-01; -9.8817539E-01;3;  1.6849247E-03;  0.0000000E+00;  1.8583916E-05;  0.0000000E+00;  0.0000000E+00;  0.0000000E+00;0;  3.2826252E-02;  8.1430687E+01;  0.0000000E+00; -1.9711810E-05;  1.0000000E+02;  0.0000000E+00;  9.6477715E+01;  2.8778268E-02;  0.0000000E+00;  4.0479833E-03;  0.0000000E+00;
  3.3356783E+00;  9.9999998E-03; -1.0242505E+00;341;  3.7497856E-02;  0.0000000E+00; -6.2080575E-03;  9.9881058E+00;  4.6422744E-01; -1.0833309E+00;3; -2.5073809E-03;  0.0000000E+00;  5.5083138E-04;  0.0000000E+00;  0.0000000E+00;  0.0000000E+00;0;  4.1656684E-02;  7.7836624E+01;  0.0000000E+00;  7.7788165E-04;  1.0000000E+02;  0.0000000E+00;  9.5157646E+01;  3.5294421E-02;  0.0000000E+00;  6.3622645E-03;  0.0000000E+00;
  3.3339043E+00;  9.9999998E-03; -8.1966323E-01;342;  3.6446285E-02;  0.0000000E+00; -4.9321847E-03;  9.9883785E+00;  4.6297526E-01; -1.0586801E+00;3; -2.9327131E-03;  0.0000000E+00;  6.6958129E-04;  0.0000000E+00;  0.0000000E+00;  0.0000000E+00;0;  4.0625993E-02;  7.8191986E+01;  0.0000000E+00; -2.4997786E-05;  1.0000000E+02;  0.0000000E+00;  9.5242058E+01;  3.4491833E-02;  0.0000000E+00;  6.1341594E-03;  0.0000000E+00;
  3.3332152E+00;  9.9999998E-03; -6.1529994E-01;343;  3.6500581E-02;  0.0000000E+00; -3.7834798E-03;  9.9886694E+00;  4.6158364E-01; -1.0322436E+00;3; -2.8848504E-03;  0.0000000E+00;  1.3575676E-03;  0.0000000E+00;  0.0000000E+00;  0.0000000E+00;0;  3.9595980E-02;  7.8590599E+01;  0.0000000E+00; -8.8006425E-05;  1.0000000E+02;  0.0000000E+00;  9.5335861E+01;  3.3596199E-02;  0.0000000E+00;  5.9997807E-03;  0.0000000E+00;
  3.3343382E+00;  9.9999998E-03; -4.1090080E-01;344;  3.7941627E-02;  0.0000000E+00; -2.6306512E-03;  9.9889555E+00;  4.6027127E-01; -1.0060836E+00;3; -2.0553668E-03;  0.0000000E+00; -1.1067288E-03;  0.0000000E+00;  0.0000000E+00;  0.0000000E+00;0;  3.8645711E-02;  7.8965279E+01;  0.0000000E+00;  1.4511943E-04;  1.0000000E+02;  0.0000000E+00;  9.5429871E+01;  3.2786526E-02;  0.0000000E+00;  5.8591855E-03;  0.0000000E+00;
  3.3361466E+00;  9.9999998E-03; -2.0624086E-01;345;  3.9979946E-02;  0.0000000E+00; -1.0368329E-03;  9.9891605E+00;  4.5933345E-01; -9.8725516E-01;3; -7.6848216E-04;  0.0000000E+00;  5.6184639E-05;  0.0000000E+00;  0.0000000E+00;  0.0000000E+00;0;  3.7934240E-02;  7.9238480E+01;  0.0000000E+00;  7.8893463E-05;  1.0000000E+02;  0.0000000E+00;  9.5493263E+01;  3.2227527E-02;  0.0000000E+00;  5.7067135E-03;  0.0000000E+00;
  3.5696042E+00;  9.9999998E-03; -1.0287744E+00;352;  4.8223753E-02;  0.0000000E+00; -7.9140877E-03;  9.9878988E+00;  4.7229704E-01; -1.0869502E+00;3; -1.4403875E-03;  0.0000000E+00; -3.4812267E-04;  0.0000000E+00;  0.0000000E+00;  0.0000000E+00;0;  4.7440827E-02;  7.5840858E+01;  0.0000000E+00;  2.9564595E-03;  1.0000000E+02;  0.0000000E+00;  9.4349495E+01;  3.9455019E-02;  0.0000000E+00;  7.9858070E-03;  0.0000000E+00;
  3.5669682E+00;  9.9999998E-03; -8.2347423E-01;353;  4.6762504E-02;  0.0000000E+00; -6.4393543E-03;  9.9880867E+00;  4.7132078E-01; -1.0701956E+00;3; -2.4552678E-03;  0.0000000E+00;  8.3876343E-04;  0.0000000E+00;  0.0000000E+00;  0.0000000E+00;0;  4.6593480E-02;  7.6103828E+01;  0.0000000E+00;  3.5826210E-03;  1.0000000E+02;  0.0000000E+00;  9.4415962E+01;  3.8789157E-02;  0.0000000E+00;  7.8043225E-03;  0.0000000E+00;
  3.5652089E+00;  9.9999998E-03; -6.1842841E-01;354;  4.6540033E-02;  0.0000000E+00; -5.1223109E-03;  9.9883108E+00;  4.7020617E-01; -1.0501356E+00;3; -2.5471619E-03;  0.0000000E+00;  1.2926147E-03;  0.0000000E+00;  0.0000000E+00;  0.0000000E+00;0;  4.5680963E-02;  7.6406540E+01;  0.0000000E+00;  2.5939872E-03;  1.0000000E+02;  0.0000000E+00;  9.4491730E+01;  3.8001627E-02;  0.0000000E+00;  7.6793372E-03;  0.0000000E+00;
  3.5640922E+00;  9.9999998E-03; -4.1339833E-01;355;  4.6816744E-02;  0.0000000E+00; -3.7030973E-03;  9.9885540E+00;  4.6911958E-01; -1.0283334E+00;3; -2.3699007E-03;  0.0000000E+00; -4.0480061E-04;  0.0000000E+00;  0.0000000E+00;  0.0000000E+00;0;  4.4708055E-02;  7.6702789E+01;  0.0000000E+00;  1.2628625E-03;  1.0000000E+02;  0.0000000E+00;  9.4568420E+01;  3.7224896E-02;  0.0000000E+00;  7.4831583E-03;  0.0000000E+00;
  3.5630147E+00;  9.9999998E-03; -2.0820506E-01;356;  4.7075279E-02;  0.0000000E+00; -2.0373752E-03;  9.9887381E+00;  4.6830273E-01; -1.0118296E+00;3; -2.0944043E-03;  0.0000000E+00;  2.9651890E-05;  0.0000000E+00;  0.0000000E+00;  0.0000000E+00;0;  4.3968521E-02;  7.6928459E+01;  0.0000000E+00;  3.1369878E-04;  1.0000000E+02;  0.0000000E+00;  9.4622635E+01;  3.6626145E-02;  0.0000000E+00;  7.3423740E-03;  0.0000000E+00;
  3.8030584E+00;  9.9999998E-03; -1.0321674E+00;363;  5.8311880E-02;  0.0000000E+00; -9.1295959E-03;  9.9880724E+00;  4.7832397E-01; -1.0648503E+00;3; -2.6923898E-04;  0.0000000E+00; -8.0831646E-04;  0.0000000E+00;  0.0000000E+00;  0.0000000E+00;0;  5.1304612E-02;  7.4373566E+01;  0.0000000E+00;  1.4866000E-03;  1.0000000E+02;  0.0000000E+00;  9.3803581E+01;  4.2328164E-02;  0.0000000E+00;  8.9764493E-03;  0.0000000E+00;
  3.8012145E+00;  9.9999998E-03; -8.2621598E-01;364;  5.7514451E-02;  0.0000000E+00; -7.5052809E-03;  9.9881325E+00;  4.7787422E-01; -1.0595078E+00;3; -1.2144784E-03;  0.0000000E+00;  7.3940185E-04;  0.0000000E+00;  0.0000000E+00;  0.0000000E+00;0;  5.0989397E-02;  7.4490562E+01;  0.0000000E+00;  3.2552597E-03;  1.0000000E+02;  0.0000000E+00;  9.3833603E+01;  4.2053919E-02;  0.0000000E+00;  8.9354757E-03;  0.0000000E+00;
  3.7996471E+00;  9.9999998E-03; -6.2040758E-01;365;  5.7465713E-02;  0.0000000E+00; -5.9685004E-03;  9.9882174E+00;  4.7732615E-01; -1.0519785E+00;3; -1.4633618E-03;  0.0000000E+00;  1.0149153E-03;  0.0000000E+00;  0.0000000E+00;  0.0000000E+00;0;  5.0571438E-02;  7.4633255E+01;  0.0000000E+00;  2.6634182E-03;  1.0000000E+02;  0.0000000E+00;  9.3870613E+01;  4.1696385E-02;  0.0000000E+00;  8.8750543E-03;  0.0000000E+00;
  3.7978544E+00;  9.9999998E-03; -4.1448295E-01;366;  5.7308871E-02;  0.0000000E+00; -4.4661607E-03;  9.9883232E+00;  4.7675225E-01; -1.0425370E+00;3; -1.7324757E-03;  0.0000000E+00; -2.3660815E-04;  0.0000000E+00;  0.0000000E+00;  0.0000000E+00;0;  5.0110668E-02;  7.4782043E+01;  0.0000000E+00;  1.2326166E-03;  1.0000000E+02;  0.0000000E+00;  9.3911926E+01;  4.1306164E-02;  0.0000000E+00;  8.8045020E-03;  0.0000000E+00;
  3.7953165E+00;  9.9999998E-03; -2.0810047E-01;367;  5.6504566E-02;  0.0000000E+00; -2.6168383E-03;  9.9884167E+00;  4.7628677E-01; -1.0342791E+00;3; -2.2521536E-03;  0.0000000E+00; -2.0253419E-06;  0.0000000E+00;  0.0000000E+00;  0.0000000E+00;0;  4.9660973E-02;  7.4903687E+01;  0.0000000E+00;  2.6775678E-04;  1.0000000E+02;  0.0000000E+00;  9.3943558E+01;  4.0962867E-02;  0.0000000E+00;  8.6981067E-03;  0.0000000E+00;
  4.0933948E+00;  9.9999998E-03; -1.0347236E+00;374;  6.7699529E-02;  0.0000000E+00; -1.0235912E-02;  9.9883728E+00;  2.4152236E-01; -1.0350760E+00;3;  4.7451793E-04;  0.0000000E+00; -1.6372808E-03;  0.0000000E+00;  0.0000000E+00;  0.0000000E+00;1;  5.4596879E-02;  2.9292902E+02;  0.0000000E+00; -5.3515574E-03;  1.0000000E+02;  0.0000000E+00;  9.3416740E+01;  4.4692058E-02;  0.0000000E+00;  9.9048223E-03;  0.0000000E+00;
  4.0929976E+00;  9.9999998E-03; -8.2819486E-01;375;  6.7963302E-02;  0.0000000E+00; -8.3530620E-03;  9.9883575E+00;  2.4149992E-01; -1.0364579E+00;3;  2.6092716E-04;  0.0000000E+00; -1.0613017E-03;  0.0000000E+00;  0.0000000E+00;  0.0000000E+00;1;  5.4621480E-02;  2.9297299E+02;  0.0000000E+00; -1.3724790E-02;  1.0000000E+02;  0.0000000E+00;  9.3420250E+01;  4.4791579E-02;  0.0000000E+00;  9.8299030E-03;  0.0000000E+00;
  4.0924478E+00;  9.9999998E-03; -6.2161964E-01;376;  6.8380184E-02;  0.0000000E+00; -6.4049591E-03;  9.9883471E+00;  2.4146456E-01; -1.0373629E+00;3;  1.0795757E-04;  0.0000000E+00;  3.5066030E-04;  0.0000000E+00;  0.0000000E+00;  0.0000000E+00;1;  5.4626346E-02;  2.9304309E+02;  0.0000000E+00; -1.0904549E-02;  1.0000000E+02;  0.0000000E+00;  9.3425041E+01;  4.4891007E-02;  0.0000000E+00;  9.7353403E-03;  0.0000000E+00;
  4.0913844E+00;  9.9999998E-03; -4.1460797E-01;377;  6.8427883E-02;  0.0000000E+00; -4.5833238E-03;  9.9883108E+00;  2.4140815E-01; -1.0406055E+00;3; -2.5824454E-04;  0.0000000E+00; -1.5865148E-04;  0.0000000E+00;  0.0000000E+00;  0.0000000E+00;1;  5.4780118E-02;  2.9314215E+02;  0.0000000E+00; -4.4132550E-03;  1.0000000E+02;  0.0000000E+00;  9.3436752E+01;  4.4970755E-02;  0.0000000E+00;  9.8093618E-03;  0.0000000E+00;
  4.0892982E+00;  9.9999998E-03; -2.0645179E-01;378;  6.7692600E-02;  0.0000000E+00; -2.5299126E-03;  9.9882917E+00;  2.4135154E-01; -1.0423152E+00;3; -9.3200675E-04;  0.0000000E+00;  5.8397418E-04;  0.0000000E+00;  0.0000000E+00;  0.0000000E+00;1;  5.4841418E-02;  2.9324426E+02;  0.0000000E+00; -7.7173178E-04;  1.0000000E+02;  0.0000000E+00;  9.3447701E+01;  4.5012221E-02;  0.0000000E+00;  9.8291961E-03;  0.0000000E+00;
  4.2108722E+00;  9.9999998E-03; -2.0513606E-01;389;  7.9732098E-02;  0.0000000E+00; -2.1381555E-03;  9.9882917E+00;  2.4379410E-01; -1.0417758E+00;3; -1.0364369E-04;  0.0000000E+00;  3.5763442E-04;  0.0000000E+00;  0.0000000E+00;  0.0000000E+00;1;  5.6319907E-02;  2.8849445E+02;  0.0000000E+00;  6.2985659E-05;  1.0000000E+02;  0.0000000E+00;  9.3091103E+01;  4.6212915E-02;  0.0000000E+00;  1.0106992E-02;  0.0000000E+00;
  4.2095494E+00;  9.9999998E-03; -6.2269032E-01;538;  7.8606188E-02;  0.0000000E+00; -6.5388926E-03;  9.9883862E+00;  2.4374372E-01; -1.0334007E+00;3;  5.6429318E-04;  0.0000000E+00;  6.5036002E-04; -4.3160208E+08; -4.3160208E+08; -4.3160208E+08;1;  5.5847339E-02;  2.8863425E+02;  0.0000000E+00; -2.1084705E-03;  1.0000000E+02;  0.0000000E+00;  9.3085526E+01;  4.5859348E-02;  0.0000000E+00;  9.9879894E-03;  0.0000000E+00;
  4.2105565E+00;  9.9999998E-03; -4.1485530E-01;539;  7.9407297E-02;  0.0000000E+00; -4.5003025E-03;  9.9883337E+00;  2.4377349E-01; -1.0380644E+00;3;  3.3305257E-04;  0.0000000E+00; -7.9899031E-04; -4.3160208E+08; -4.3160208E+08; -4.3160208E+08;1;  5.6116544E-02;  2.8855374E+02;  0.0000000E+00; -9.0112683E-04;  1.0000000E+02;  0.0000000E+00;  9.3088463E+01;  4.6058595E-02;  0.0000000E+00;  1.0057948E-02;  0.0000000E+00;
  4.2075047E+00;  9.9999998E-03; -1.0367190E+00;544;  7.6835014E-02;  0.0000000E+00; -1.0426556E-02;  9.9884729E+00;  2.4367952E-01; -1.0256644E+00;3;  5.9659907E-04;  0.0000000E+00; -5.0842098E-04; -4.3160208E+08; -4.3160208E+08; -4.3160208E+08;1;  5.5413626E-02;  2.8876736E+02;  0.0000000E+00;  7.8329991E-04;  1.0000000E+02;  0.0000000E+00;  9.3093353E+01;  4.5466438E-02;  0.0000000E+00;  9.9471863E-03;  0.0000000E+00;
  4.2085133E+00;  9.9999998E-03; -8.2978499E-01;545;  7.7693492E-02;  0.0000000E+00; -8.5380124E-03;  9.9884272E+00;  2.4370404E-01; -1.0297449E+00;3;  5.9108558E-04;  0.0000000E+00; -6.4712128E-04; -4.3160208E+08; -4.3160208E+08; -4.3160208E+08;1;  5.5661086E-02;  2.8871545E+02;  0.0000000E+00; -2.1010141E-03;  1.0000000E+02;  0.0000000E+00;  9.3090683E+01;  4.5653861E-02;  0.0000000E+00;  1.0007224E-02;  0.0000000E+00;
  3.9771318E+00;  9.9999998E-03; -1.0346842E+00;549;  6.7664668E-02;  0.0000000E+00; -9.6007716E-03;  9.9883528E+00;  2.4149005E-01; -1.0376869E+00;3;  2.1225442E-04;  0.0000000E+00; -5.4736662E-04; -4.3160208E+08; -4.3160208E+08; -4.3160208E+08;1;  5.2898504E-02;  2.9299063E+02;  0.0000000E+00; -4.6545207E-03;  1.0000000E+02;  0.0000000E+00;  9.3421722E+01;  4.3759692E-02;  0.0000000E+00;  9.1388104E-03;  0.0000000E+00;
  3.9767435E+00;  9.9999998E-03; -8.2816917E-01;550;  6.7908511E-02;  0.0000000E+00; -7.9616308E-03;  9.9882898E+00;  2.4146678E-01; -1.0432661E+00;3; -2.3997753E-04;  0.0000000E+00;  2.5575643E-03; -4.3160208E+08; -4.3160208E+08; -4.3160208E+08;1;  5.3162497E-02;  2.9303995E+02;  0.0000000E+00; -1.2637729E-02;  1.0000000E+02;  0.0000000E+00;  9.3423401E+01;  4.3777041E-02;  0.0000000E+00;  9.3854563E-03;  0.0000000E+00;
  3.9761846E+00;  9.9999998E-03; -6.2161344E-01;553;  6.8320848E-02;  0.0000000E+00; -6.3684150E-03;  9.9882765E+00;  2.4142841E-01; -1.0444924E+00;3; -4.5509561E-04;  0.0000000E+00;  1.4601978E-03; -4.3160208E+08; -4.3160208E+08; -4.3160208E+08;1;  5.3282067E-02;  2.9311432E+02;  0.0000000E+00; -1.0278372E-02;  1.0000000E+02;  0.0000000E+00;  9.3428932E+01;  4.3765917E-02;  0.0000000E+00;  9.5161479E-03;  0.0000000E+00;
  3.9751170E+00;  9.9999998E-03; -4.1461042E-01;555;  6.8364590E-02;  0.0000000E+00; -4.6760021E-03;  9.9882870E+00;  2.4136856E-01; -1.0435458E+00;3; -8.8074739E-04;  0.0000000E+00; -1.0226208E-03; -4.3160208E+08; -4.3160208E+08; -4.3160208E+08;1;  5.3226642E-02;  2.9321783E+02;  0.0000000E+00; -4.2215958E-03;  1.0000000E+02;  0.0000000E+00;  9.3442947E+01;  4.3720495E-02;  0.0000000E+00;  9.5061483E-03;  0.0000000E+00;
  3.9730394E+00;  9.9999998E-03; -2.0645547E-01;557;  6.7620635E-02;  0.0000000E+00; -2.6120651E-03;  9.9883070E+00;  2.4130939E-01; -1.0418116E+00;3; -1.6551305E-03;  0.0000000E+00; -2.8117833E-04; -4.3160208E+08; -4.3160208E+08; -4.3160208E+08;1;  5.3103086E-02;  2.9332489E+02;  0.0000000E+00; -7.4629748E-04;  1.0000000E+02;  0.0000000E+00;  9.3454895E+01;  4.3650791E-02;  0.0000000E+00;  9.4522936E-03;  0.0000000E+00;
  4.3237472E+00;  9.9999998E-03; -1.0367786E+00;385;  7.6893635E-02;  0.0000000E+00; -1.0551753E-02;  9.9885216E+00;  2.4374625E-01; -1.0210491E+00;3;  7.4149342E-04;  0.0000000E+00; -2.4323035E-03;  0.0000000E+00;  0.0000000E+00;  0.0000000E+00;1;  5.6289781E-02;  2.8864072E+02;  0.0000000E+00; -2.4932469E-03;  1.0000000E+02;  0.0000000E+00;  9.3083946E+01;  4.6332620E-02;  0.0000000E+00;  9.9571599E-03;  0.0000000E+00;
  4.3247628E+00;  9.9999998E-03; -8.2984006E-01;386;  7.7766702E-02;  0.0000000E+00; -8.6831152E-03;  9.9884357E+00;  2.4377100E-01; -1.0286818E+00;3;  8.2421018E-04;  0.0000000E+00;  1.2274008E-03;  0.0000000E+00;  0.0000000E+00;  0.0000000E+00;1;  5.6661941E-02;  2.8859250E+02;  0.0000000E+00; -3.8793643E-03;  1.0000000E+02;  0.0000000E+00;  9.3079315E+01;  4.6498854E-02;  0.0000000E+00;  1.0163086E-02;  0.0000000E+00;
  4.3257999E+00;  9.9999998E-03; -6.2271291E-01;387;  7.8699499E-02;  0.0000000E+00; -6.7134514E-03;  9.9883919E+00;  2.4380736E-01; -1.0325499E+00;3;  9.0189197E-04;  0.0000000E+00;  2.2178356E-04;  0.0000000E+00;  0.0000000E+00;  0.0000000E+00;1;  5.6928974E-02;  2.8851270E+02;  0.0000000E+00; -2.6406804E-03;  1.0000000E+02;  0.0000000E+00;  9.3076706E+01;  4.6690166E-02;  0.0000000E+00;  1.0238807E-02;  0.0000000E+00;
  4.3268232E+00;  9.9999998E-03; -4.1484708E-01;388;  7.9546042E-02;  0.0000000E+00; -4.4292696E-03;  9.9883537E+00;  2.4383785E-01; -1.0359409E+00;3;  8.6414634E-04;  0.0000000E+00; -5.4268155E-04;  0.0000000E+00;  0.0000000E+00;  0.0000000E+00;1;  5.7127226E-02;  2.8843320E+02;  0.0000000E+00; -9.4011961E-04;  1.0000000E+02;  0.0000000E+00;  9.3078735E+01;  4.6885543E-02;  0.0000000E+00;  1.0241683E-02;  0.0000000E+00;
  4.4484406E+00;  9.9999998E-03; -2.0613743E-01;400;  9.2222080E-02;  0.0000000E+00; -1.7612320E-03;  9.9882946E+00;  2.4576950E-01; -1.0409799E+00;3;  1.8593605E-03;  0.0000000E+00;  1.2624527E-03;  0.0000000E+00;  0.0000000E+00;  0.0000000E+00;1;  5.8231581E-02;  2.8475702E+02;  0.0000000E+00;  8.1726757E-05;  1.0000000E+02;  0.0000000E+00;  9.2803940E+01;  4.7766883E-02;  0.0000000E+00;  1.0464698E-02;  0.0000000E+00;
  4.5550451E+00;  9.9999998E-03; -8.3133006E-01;397;  8.7340727E-02;  0.0000000E+00; -9.0358360E-03;  9.9883156E+00;  2.4591795E-01; -1.0390083E+00;3;  1.2146069E-03;  0.0000000E+00;  2.1448242E-05;  0.0000000E+00;  0.0000000E+00;  0.0000000E+00;1;  5.8518708E-02;  2.8449902E+02;  0.0000000E+00;  8.6095193E-03;  1.0000000E+02;  0.0000000E+00;  9.2775627E+01;  4.7964703E-02;  0.0000000E+00;  1.0554004E-02;  0.0000000E+00;
  4.5577970E+00;  9.9999998E-03; -6.2409073E-01;398;  8.8655151E-02;  0.0000000E+00; -6.9890623E-03;  9.9883127E+00;  2.4586147E-01; -1.0392709E+00;3;  1.4319918E-03;  0.0000000E+00; -2.0620966E-04;  0.0000000E+00;  0.0000000E+00;  0.0000000E+00;1;  5.8545467E-02;  2.8459940E+02;  0.0000000E+00;  1.9487822E-03;  1.0000000E+02;  0.0000000E+00;  9.2784492E+01;  4.7993440E-02;  0.0000000E+00;  1.0552025E-02;  0.0000000E+00;
  4.4449706E+00;  9.9999998E-03; -4.1605175E-01;399;  9.0229698E-02;  0.0000000E+00; -4.3463837E-03;  9.9883404E+00;  2.4577627E-01; -1.0369558E+00;3;  1.3937764E-03;  0.0000000E+00; -3.7708416E-04;  0.0000000E+00;  0.0000000E+00;  0.0000000E+00;1;  5.7987396E-02;  2.8474722E+02;  0.0000000E+00; -7.1464427E-05;  1.0000000E+02;  0.0000000E+00;  9.2802628E+01;  4.7633473E-02;  0.0000000E+00;  1.0353922E-02;  0.0000000E+00;
  4.5530710E+00;  9.9999998E-03; -1.0384378E+00;396;  8.6631596E-02;  0.0000000E+00; -1.0954663E-02;  9.9883461E+00;  2.4598558E-01; -1.0363069E+00;3;  1.5830270E-03;  0.0000000E+00; -1.3414240E-03;  0.0000000E+00;  0.0000000E+00;  0.0000000E+00;1;  5.8351308E-02;  2.8437198E+02;  0.0000000E+00;  2.2385158E-02;  1.0000000E+02;  0.0000000E+00;  9.2766724E+01;  4.7945604E-02;  0.0000000E+00;  1.0405705E-02;  0.0000000E+00;
  4.7880340E+00;  9.9999998E-03; -1.0393703E+00;407;  9.7839884E-02;  0.0000000E+00; -1.1056752E-02;  9.9880667E+00;  2.4763371E-01; -1.0610276E+00;3;  2.1794131E-03;  0.0000000E+00; -8.2465506E-04;  0.0000000E+00;  0.0000000E+00;  0.0000000E+00;1;  5.9467770E-02;  2.8127634E+02;  0.0000000E+00;  4.6572078E-02;  1.0000000E+02;  0.0000000E+00;  9.2539085E+01;  4.8853286E-02;  0.0000000E+00;  1.0614485E-02;  0.0000000E+00;
  4.7890363E+00;  9.9999998E-03; -8.3235782E-01;408;  9.7985759E-02;  0.0000000E+00; -9.1655450E-03;  9.9880848E+00;  2.4744584E-01; -1.0593845E+00;3;  1.7301107E-03;  0.0000000E+00;  3.2934864E-04;  0.0000000E+00;  0.0000000E+00;  0.0000000E+00;1;  5.9371002E-02;  2.8163080E+02;  0.0000000E+00;  1.7037028E-02;  1.0000000E+02;  0.0000000E+00;  9.2563477E+01;  4.8660412E-02;  0.0000000E+00;  1.0710589E-02;  0.0000000E+00;
  4.7914257E+00;  9.9999998E-03; -6.2543148E-01;409;  9.9181458E-02;  0.0000000E+00; -7.2533200E-03;  9.9881420E+00;  2.4722441E-01; -1.0542961E+00;3;  2.1110680E-03;  0.0000000E+00; -1.1528821E-03;  0.0000000E+00;  0.0000000E+00;  0.0000000E+00;1;  5.9109900E-02;  2.8204291E+02;  0.0000000E+00;  7.5438530E-03;  1.0000000E+02;  0.0000000E+00;  9.2594009E+01;  4.8423193E-02;  0.0000000E+00;  1.0686707E-02;  0.0000000E+00;
  4.7952328E+00;  9.9999998E-03; -4.1818038E-01;410;  1.0128738E-01;  0.0000000E+00; -5.0907810E-03;  9.9882078E+00;  2.4702723E-01; -1.0484654E+00;3;  3.0382662E-03;  0.0000000E+00;  1.1403214E-04;  0.0000000E+00;  0.0000000E+00;  0.0000000E+00;1;  5.8748551E-02;  2.8242401E+02;  0.0000000E+00;  4.0988042E-03;  1.0000000E+02;  0.0000000E+00;  9.2618294E+01;  4.8155546E-02;  0.0000000E+00;  1.0593003E-02;  0.0000000E+00;
  4.7999563E+00;  9.9999998E-03; -2.0984602E-01;411;  1.0426959E-01;  0.0000000E+00; -2.6821573E-03;  9.9882507E+00;  2.4689502E-01; -1.0446481E+00;3;  4.5129638E-03;  0.0000000E+00;  5.4552208E-04;  0.0000000E+00;  0.0000000E+00;  0.0000000E+00;1;  5.8510326E-02;  2.8269263E+02;  0.0000000E+00;  1.0196214E-03;  1.0000000E+02;  0.0000000E+00;  9.2630096E+01;  4.7922045E-02;  0.0000000E+00;  1.0588282E-02;  0.0000000E+00;
  5.0428424E+00;  9.9999998E-03; -1.0388910E+00;418;  1.1394335E-01;  0.0000000E+00; -1.0693486E-02;  9.9878721E+00;  2.4748726E-01; -1.0782472E+00;3;  2.3854815E-03;  0.0000000E+00;  8.8810816E-04;  0.0000000E+00;  0.0000000E+00;  0.0000000E+00;1;  5.8097895E-02;  2.8155106E+02;  0.0000000E+00; -1.9185925E-03;  1.0000000E+02;  0.0000000E+00;  9.2555832E+01;  4.7658421E-02;  0.0000000E+00;  1.0439473E-02;  0.0000000E+00;
  5.0389352E+00;  9.9999998E-03; -8.3212179E-01;419;  1.1351881E-01;  0.0000000E+00; -8.8233761E-03;  9.9879532E+00;  2.4722633E-01; -1.0710406E+00;3;  3.1312972E-03;  0.0000000E+00; -1.5573787E-05;  0.0000000E+00;  0.0000000E+00;  0.0000000E+00;1;  5.7783611E-02;  2.8204495E+02;  0.0000000E+00; -2.9464134E-03;  1.0000000E+02;  0.0000000E+00;  9.2590263E+01;  4.7390919E-02;  0.0000000E+00;  1.0392693E-02;  0.0000000E+00;
  5.0347524E+00;  9.9999998E-03; -6.2569571E-01;420;  1.1283696E-01;  0.0000000E+00; -7.1833483E-03;  9.9880352E+00;  2.4690685E-01; -1.0637811E+00;3;  3.4760328E-03;  0.0000000E+00; -1.7075327E-03;  0.0000000E+00;  0.0000000E+00;  0.0000000E+00;1;  5.7486165E-02;  2.8264749E+02;  0.0000000E+00; -1.3741597E-02;  1.0000000E+02;  0.0000000E+00;  9.2633163E+01;  4.7046125E-02;  0.0000000E+00;  1.0440039E-02;  0.0000000E+00;
  5.0330653E+00;  9.9999998E-03; -4.1951624E-01;421;  1.1272170E-01;  0.0000000E+00; -5.2718325E-03;  9.9881601E+00;  2.4661194E-01; -1.0526528E+00;3;  3.6910339E-03;  0.0000000E+00;  6.0615834E-04;  0.0000000E+00;  0.0000000E+00;  0.0000000E+00;1;  5.6866039E-02;  2.8323090E+02;  0.0000000E+00; -5.0117574E-03;  1.0000000E+02;  0.0000000E+00;  9.2665634E+01;  4.6599977E-02;  0.0000000E+00;  1.0266063E-02;  0.0000000E+00;
  5.0325589E+00;  9.9999998E-03; -2.1350411E-01;422;  1.1327595E-01;  0.0000000E+00; -3.8332134E-03;  9.9882526E+00;  2.4638015E-01; -1.0444390E+00;3;  4.3199467E-03;  0.0000000E+00; -2.0070634E-04;  0.0000000E+00;  0.0000000E+00;  0.0000000E+00;1;  5.6436982E-02;  2.8369595E+02;  0.0000000E+00; -2.2088595E-04;  1.0000000E+02;  0.0000000E+00;  9.2689301E+01;  4.6169784E-02;  0.0000000E+00;  1.0267198E-02;  0.0000000E+00;
  5.3116188E+00;  9.9999998E-03; -1.0366944E+00;429;  1.3387699E-01;  0.0000000E+00; -9.4934683E-03;  9.9879351E+00;  2.4508019E-01; -1.0726618E+00;3;  6.3334098E-03;  0.0000000E+00;  1.7748890E-03;  0.0000000E+00;  0.0000000E+00;  0.0000000E+00;1;  5.2890915E-02;  2.8611142E+02;  0.0000000E+00; -2.5972733E-01;  1.0000000E+02;  0.0000000E+00;  9.2880676E+01;  4.3583464E-02;  0.0000000E+00;  9.3074515E-03;  0.0000000E+00;
  5.3039131E+00;  9.9999998E-03; -8.2993382E-01;430;  1.2842394E-01;  0.0000000E+00; -7.8845816E-03;  9.9881105E+00;  2.4450068E-01; -1.0570295E+00;3;  4.4778618E-03;  0.0000000E+00;  6.4101670E-04;  0.0000000E+00;  0.0000000E+00;  0.0000000E+00;1;  5.2407749E-02;  2.8722580E+02;  0.0000000E+00;  1.8370911E-01;  1.0000000E+02;  0.0000000E+00;  9.2961395E+01;  4.2875737E-02;  0.0000000E+00;  9.5320139E-03;  0.0000000E+00;
  5.2927742E+00;  9.9999998E-03; -6.2379932E-01;431;  1.3110061E-01;  0.0000000E+00; -6.0445284E-03;  9.9882364E+00;  2.4403490E-01; -1.0458487E+00;3;  6.5341685E-03;  0.0000000E+00; -1.3680297E-03;  0.0000000E+00;  0.0000000E+00;  0.0000000E+00;1;  5.2089024E-02;  2.8813248E+02;  0.0000000E+00; -2.0842825E-04;  1.0000000E+02;  0.0000000E+00;  9.3024910E+01;  4.2765833E-02;  0.0000000E+00;  9.3231918E-03;  0.0000000E+00;
  5.2843552E+00;  9.9999998E-03; -4.1803032E-01;432;  1.2908967E-01;  0.0000000E+00; -4.5592017E-03;  9.9883680E+00;  2.4367546E-01; -1.0341378E+00;3;  5.3665615E-03;  0.0000000E+00;  6.2983535E-04;  0.0000000E+00;  0.0000000E+00;  0.0000000E+00;1;  5.1676355E-02;  2.8884628E+02;  0.0000000E+00; -6.9334641E-02;  1.0000000E+02;  0.0000000E+00;  9.3070351E+01;  4.2329215E-02;  0.0000000E+00;  9.3471417E-03;  0.0000000E+00;
  5.2737427E+00;  9.9999998E-03; -2.1281479E-01;433;  1.2420294E-01;  0.0000000E+00; -3.0883027E-03;  9.9884748E+00;  2.4345046E-01; -1.0246527E+00;3;  2.6168819E-03;  0.0000000E+00; -3.4495271E-05;  0.0000000E+00;  0.0000000E+00;  0.0000000E+00;1;  5.1419809E-02;  2.8929999E+02;  0.0000000E+00; -3.2303311E-02;  1.0000000E+02;  0.0000000E+00;  9.3098083E+01;  4.2111475E-02;  0.0000000E+00;  9.3083326E-03;  0.0000000E+00;
  5.4579372E+00;  9.9999998E-03; -1.0326363E+00;440;  1.3382135E-01;  0.0000000E+00; -8.6924750E-03;  9.9882631E+00;  4.7903460E-01; -1.0434585E+00;3;  6.3852426E-03;  0.0000000E+00;  3.3040845E-03;  0.0000000E+00;  0.0000000E+00;  0.0000000E+00;0;  4.7915488E-02;  7.4275871E+01;  0.0000000E+00;  2.2800405E-02;  1.0000000E+02;  0.0000000E+00;  9.3651474E+01;  3.9310101E-02;  0.0000000E+00;  8.6053889E-03;  0.0000000E+00;
  5.4752960E+00;  9.9999998E-03; -8.2649535E-01;441;  1.3689655E-01;  0.0000000E+00; -6.9880597E-03;  9.9882879E+00;  4.7979966E-01; -1.0412854E+00;3;  1.8647843E-03;  0.0000000E+00;  6.6947323E-05;  0.0000000E+00;  0.0000000E+00;  0.0000000E+00;0;  4.7457475E-02;  7.4079765E+01;  0.0000000E+00; -1.0822040E-02;  1.0000000E+02;  0.0000000E+00;  9.3600204E+01;  3.8768131E-02;  0.0000000E+00;  8.6893430E-03;  0.0000000E+00;
  5.4743147E+00;  9.9999998E-03; -6.2024081E-01;442;  1.4383750E-01;  0.0000000E+00; -5.3146905E-03;  9.9883013E+00;  4.7855780E-01; -1.0400666E+00;3;  1.0804586E-02;  0.0000000E+00;  1.8823348E-04;  0.0000000E+00;  0.0000000E+00;  0.0000000E+00;0;  4.7407471E-02;  7.4392700E+01;  0.0000000E+00;  7.6533449E-03;  1.0000000E+02;  0.0000000E+00;  9.3690018E+01;  3.8824655E-02;  0.0000000E+00;  8.5828137E-03;  0.0000000E+00;
  5.4881992E+00;  9.9999998E-03; -4.1471022E-01;443;  1.4708947E-01;  0.0000000E+00; -3.7331469E-03;  9.9885683E+00;  4.7778776E-01; -1.0163261E+00;3;  5.4445835E-03;  0.0000000E+00; -1.7168646E-04;  0.0000000E+00;  0.0000000E+00;  0.0000000E+00;0;  4.5957822E-02;  7.4588692E+01;  0.0000000E+00;  6.8655872E-04;  1.0000000E+02;  0.0000000E+00;  9.3750496E+01;  3.7578203E-02;  0.0000000E+00;  8.3796186E-03;  0.0000000E+00;
  5.4792953E+00;  9.9999998E-03; -2.0831971E-01;444;  1.4296368E-01;  0.0000000E+00; -9.0009550E-04;  9.9888868E+00;  4.7651589E-01; -9.8802865E-01;3;  1.8664260E-03;  0.0000000E+00; -7.2097464E-04;  0.0000000E+00;  0.0000000E+00;  0.0000000E+00;0;  4.4906519E-02;  7.4914238E+01;  0.0000000E+00;  6.1670309E-03;  1.0000000E+02;  0.0000000E+00;  9.3847389E+01;  3.6863752E-02;  0.0000000E+00;  8.0427658E-03;  0.0000000E+00;
  5.6806598E+00;  9.9999998E-03; -1.0277319E+00;451;  1.4191823E-01;  0.0000000E+00; -7.3328991E-03;  9.9884310E+00;  4.6617430E-01; -1.0285643E+00;3;  6.3429289E-03;  0.0000000E+00;  5.1109008E-03;  0.0000000E+00;  0.0000000E+00;  0.0000000E+00;0;  4.0551897E-02;  7.7661430E+01;  0.0000000E+00; -6.8042418E-03;  1.0000000E+02;  0.0000000E+00;  9.4580513E+01;  3.3205487E-02;  0.0000000E+00;  7.3464108E-03;  0.0000000E+00;
  5.6997581E+00;  9.9999998E-03; -8.2238537E-01;452;  1.4653313E-01;  0.0000000E+00; -5.8205235E-03;  9.9881420E+00;  4.6905085E-01; -1.0542120E+00;3;  3.9853798E-03;  0.0000000E+00;  6.9746637E-04;  0.0000000E+00;  0.0000000E+00;  0.0000000E+00;0;  4.1071583E-02;  7.6875305E+01;  0.0000000E+00;  2.9129745E-04;  1.0000000E+02;  0.0000000E+00;  9.4375252E+01;  3.3502623E-02;  0.0000000E+00;  7.5689591E-03;  0.0000000E+00;
  5.7001343E+00;  9.9999998E-03; -6.1614150E-01;453;  1.4786941E-01;  0.0000000E+00; -4.1044946E-03;  9.9884233E+00;  4.6735674E-01; -1.0292001E+00;3;  7.0704571E-03;  0.0000000E+00;  4.8602070E-04;  0.0000000E+00;  0.0000000E+00;  0.0000000E+00;0;  4.0086992E-02;  7.7329590E+01;  0.0000000E+00;  2.0399317E-02;  1.0000000E+02;  0.0000000E+00;  9.4505951E+01;  3.2764565E-02;  0.0000000E+00;  7.3224287E-03;  0.0000000E+00;
  5.7056317E+00;  9.9999998E-03; -4.1082844E-01;454;  1.4969122E-01;  0.0000000E+00; -2.5149263E-03;  9.9886866E+00;  4.6652427E-01; -1.0058308E+00;3;  5.8350093E-03;  0.0000000E+00; -1.1874330E-03;  0.0000000E+00;  0.0000000E+00;  0.0000000E+00;0;  3.8995408E-02;  7.7559547E+01;  0.0000000E+00;  2.8278559E-02;  1.0000000E+02;  0.0000000E+00;  9.4568642E+01;  3.1915683E-02;  0.0000000E+00;  7.0797238E-03;  0.0000000E+00;
  5.7045860E+00;  9.9999998E-03; -2.0566863E-01;455;  1.4646904E-01;  0.0000000E+00; -1.5534938E-03;  9.9890995E+00;  4.6517459E-01; -9.6910763E-01;3;  1.7897788E-03;  0.0000000E+00;  6.4683240E-04;  0.0000000E+00;  0.0000000E+00;  0.0000000E+00;0;  3.7588120E-02;  7.7936035E+01;  0.0000000E+00;  1.4444052E-02;  1.0000000E+02;  0.0000000E+00;  9.4665932E+01;  3.0578848E-02;  0.0000000E+00;  7.0092734E-03;  0.0000000E+00;
  5.8983626E+00;  9.9999998E-03; -1.0223601E+00;462;  1.4709544E-01;  0.0000000E+00; -5.9444620E-03;  9.9883595E+00;  4.5290381E-01; -1.0349220E+00;3;  1.0135151E-02;  0.0000000E+00;  7.5583211E-03;  0.0000000E+00;  0.0000000E+00;  0.0000000E+00;0;  3.2958582E-02;  8.1411804E+01;  0.0000000E+00; -1.9697338E-02;  1.0000000E+02;  0.0000000E+00;  9.5587112E+01;  2.6878895E-02;  0.0000000E+00;  6.0796849E-03;  0.0000000E+00;
  5.9047599E+00;  9.9999998E-03; -8.1689590E-01;463;  1.4715114E-01;  0.0000000E+00; -4.2778980E-03;  9.9890347E+00;  4.5320874E-01; -9.7488260E-01;3;  5.6360038E-03;  0.0000000E+00; -3.6942807E-04;  0.0000000E+00;  0.0000000E+00;  0.0000000E+00;0;  3.0989194E-02;  8.1333916E+01;  0.0000000E+00; -4.4144583E-03;  1.0000000E+02;  0.0000000E+00;  9.5563454E+01;  2.5184829E-02;  0.0000000E+00;  5.8043650E-03;  0.0000000E+00;
  5.9111118E+00;  9.9999998E-03; -6.1175984E-01;464;  1.5019429E-01;  0.0000000E+00; -2.8936616E-03;  9.9885054E+00;  4.5422992E-01; -1.0219389E+00;3;  7.2746389E-03;  0.0000000E+00;  3.2904302E-04;  0.0000000E+00;  0.0000000E+00;  0.0000000E+00;0;  3.2201294E-02;  8.1029358E+01;  0.0000000E+00;  3.7735429E-02;  1.0000000E+02;  0.0000000E+00;  9.5481438E+01;  2.6299223E-02;  0.0000000E+00;  5.9020710E-03;  0.0000000E+00;
  5.9111357E+00;  9.9999998E-03; -4.0630406E-01;465;  1.5057938E-01;  0.0000000E+00; -1.6688234E-03;  9.9887390E+00;  4.5311645E-01; -1.0011663E+00;3;  7.8257769E-03;  0.0000000E+00;  2.0560436E-04;  0.0000000E+00;  0.0000000E+00;  0.0000000E+00;0;  3.1562004E-02;  8.1361511E+01;  0.0000000E+00;  6.8243295E-02;  1.0000000E+02;  0.0000000E+00;  9.5563461E+01;  2.5692288E-02;  0.0000000E+00;  5.8697150E-03;  0.0000000E+00;
  5.9105654E+00;  9.9999998E-03; -2.0083806E-01;466;  1.5015748E-01;  0.0000000E+00; -3.1324488E-04;  9.9890671E+00;  4.5220423E-01; -9.7196805E-01;3;  7.4526635E-03;  0.0000000E+00;  2.8280914E-04;  0.0000000E+00;  0.0000000E+00;  0.0000000E+00;0;  3.0659366E-02;  8.1640579E+01;  0.0000000E+00;  3.2644100E-02;  1.0000000E+02;  0.0000000E+00;  9.5627747E+01;  2.4967654E-02;  0.0000000E+00;  5.6917132E-03;  0.0000000E+00;
  4.9264255E+00;  9.9999998E-03; -1.0390393E+00;494;  1.1330049E-01;  0.0000000E+00; -1.0895496E-02;  9.9879026E+00;  2.4766131E-01; -1.0755637E+00;3;  1.5759506E-03;  0.0000000E+00; -6.0385099E-04; -4.3160208E+08; -4.3160208E+08; -4.3160208E+08;1;  5.9284717E-02;  2.8122400E+02;  0.0000000E+00; -1.2072129E-03;  1.0000000E+02;  0.0000000E+00;  9.2533638E+01;  4.8757352E-02;  0.0000000E+00;  1.0527367E-02;  0.0000000E+00;
  4.6717048E+00;  9.9999998E-03; -1.0394205E+00;496;  9.7478263E-02;  0.0000000E+00; -1.1057371E-02;  9.9881773E+00;  2.4762447E-01; -1.0512223E+00;3;  1.7830024E-03;  0.0000000E+00; -1.4287938E-03; -4.3160208E+08; -4.3160208E+08; -4.3160208E+08;1;  5.9268739E-02;  2.8129800E+02;  0.0000000E+00;  5.5187814E-02;  1.0000000E+02;  0.0000000E+00;  9.2540833E+01;  4.8717417E-02;  0.0000000E+00;  1.0551323E-02;  0.0000000E+00;
  4.6727014E+00;  9.9999998E-03; -8.3237112E-01;498;  9.7611107E-02;  0.0000000E+00; -9.1611585E-03;  9.9881706E+00;  2.4744548E-01; -1.0518047E+00;3;  1.4050927E-03;  0.0000000E+00;  3.0255615E-04; -4.3160208E+08; -4.3160208E+08; -4.3160208E+08;1;  5.9299946E-02;  2.8163364E+02;  0.0000000E+00;  1.9941205E-02;  1.0000000E+02;  0.0000000E+00;  9.2564346E+01;  4.8604511E-02;  0.0000000E+00;  1.0695435E-02;  0.0000000E+00;
  4.9225225E+00;  9.9999998E-03; -8.3223724E-01;500;  1.1284487E-01;  0.0000000E+00; -9.1638658E-03;  9.9879293E+00;  2.4739015E-01; -1.0731797E+00;3;  2.1455423E-03;  0.0000000E+00;  4.3868655E-05; -4.3160208E+08; -4.3160208E+08; -4.3160208E+08;1;  5.9232462E-02;  2.8173468E+02;  0.0000000E+00; -7.4065779E-03;  1.0000000E+02;  0.0000000E+00;  9.2569008E+01;  4.8476379E-02;  0.0000000E+00;  1.0756082E-02;  0.0000000E+00;
  4.6750917E+00;  9.9999998E-03; -6.2539959E-01;502;  9.8802097E-02;  0.0000000E+00; -7.2425418E-03;  9.9881935E+00;  2.4723580E-01; -1.0497894E+00;3;  1.7007168E-03;  0.0000000E+00; -1.2097294E-03; -4.3160208E+08; -4.3160208E+08; -4.3160208E+08;1;  5.9206657E-02;  2.8201913E+02;  0.0000000E+00;  8.2827825E-03;  1.0000000E+02;  0.0000000E+00;  9.2594231E+01;  4.8482161E-02;  0.0000000E+00;  1.0724494E-02;  0.0000000E+00;
  4.9183698E+00;  9.9999998E-03; -6.2576312E-01;504;  1.1227142E-01;  0.0000000E+00; -7.3359543E-03;  9.9880314E+00;  2.4706098E-01; -1.0641185E+00;3;  2.6657113E-03;  0.0000000E+00; -7.2055485E-04; -4.3160208E+08; -4.3160208E+08; -4.3160208E+08;1;  5.8776196E-02;  2.8235693E+02;  0.0000000E+00; -1.7578395E-02;  1.0000000E+02;  0.0000000E+00;  9.2612511E+01;  4.8117053E-02;  0.0000000E+00;  1.0659144E-02;  0.0000000E+00;
  4.6789131E+00;  9.9999998E-03; -4.1804913E-01;506;  1.0093135E-01;  0.0000000E+00; -4.6546254E-03;  9.9882555E+00;  2.4705264E-01; -1.0442755E+00;3;  2.5101569E-03;  0.0000000E+00;  4.0151546E-05; -4.3160208E+08; -4.3160208E+08; -4.3160208E+08;1;  5.8882453E-02;  2.8236646E+02;  0.0000000E+00;  4.3721572E-03;  1.0000000E+02;  0.0000000E+00;  9.2618950E+01;  4.8359893E-02;  0.0000000E+00;  1.0522559E-02;  0.0000000E+00;
  4.6836538E+00;  9.9999998E-03; -2.0971410E-01;508;  1.0394616E-01;  0.0000000E+00; -2.1266763E-03;  9.9882555E+00;  2.4694146E-01; -1.0442730E+00;3;  3.9942847E-03;  0.0000000E+00;  1.6935421E-03; -4.3160208E+08; -4.3160208E+08; -4.3160208E+08;1;  5.8871537E-02;  2.8260187E+02;  0.0000000E+00;  1.1009164E-03;  1.0000000E+02;  0.0000000E+00;  9.2625015E+01;  4.8269887E-02;  0.0000000E+00;  1.0601653E-02;  0.0000000E+00;
  4.9167743E+00;  9.9999998E-03; -4.1945675E-01;511;  1.1246496E-01;  0.0000000E+00; -5.0975480E-03;  9.9881601E+00;  2.4675903E-01; -1.0526723E+00;3;  3.4390711E-03;  0.0000000E+00;  3.9778260E-04; -4.3160208E+08; -4.3160208E+08; -4.3160208E+08;1;  5.8134589E-02;  2.8294501E+02;  0.0000000E+00; -6.5756403E-03;  1.0000000E+02;  0.0000000E+00;  9.2648758E+01;  4.7703143E-02;  0.0000000E+00;  1.0431445E-02;  0.0000000E+00;
  4.9163384E+00;  9.9999998E-03; -2.1342158E-01;513;  1.1328909E-01;  0.0000000E+00; -3.4313705E-03;  9.9882231E+00;  2.4653645E-01; -1.0470549E+00;3;  4.4096895E-03;  0.0000000E+00;  8.8851829E-04; -4.3160208E+08; -4.3160208E+08; -4.3160208E+08;1;  5.7830475E-02;  2.8340515E+02;  0.0000000E+00; -5.4813933E-04;  1.0000000E+02;  0.0000000E+00;  9.2666260E+01;  4.7334138E-02;  0.0000000E+00;  1.0496338E-02;  0.0000000E+00;
  4.4367681E+00;  9.9999998E-03; -1.0384045E+00;516;  8.6329825E-02;  0.0000000E+00; -1.0790493E-02;  9.9884453E+00;  2.4590822E-01; -1.0276375E+00;3;  1.0930422E-03;  0.0000000E+00; -2.0365580E-03; -4.3160208E+08; -4.3160208E+08; -4.3160208E+08;1;  5.7428472E-02;  2.8452200E+02;  0.0000000E+00;  3.1214332E-02;  1.0000000E+02;  0.0000000E+00;  9.2778038E+01;  4.7224525E-02;  0.0000000E+00;  1.0203947E-02;  0.0000000E+00;
  4.4387589E+00;  9.9999998E-03; -8.3129376E-01;518;  8.7125212E-02;  0.0000000E+00; -8.9045735E-03;  9.9883766E+00;  2.4585196E-01; -1.0337307E+00;3;  1.0212967E-03;  0.0000000E+00;  8.5584598E-04; -4.3160208E+08; -4.3160208E+08; -4.3160208E+08;1;  5.7746701E-02;  2.8462677E+02;  0.0000000E+00;  1.2310996E-02;  1.0000000E+02;  0.0000000E+00;  9.2784752E+01;  4.7341388E-02;  0.0000000E+00;  1.0405313E-02;  0.0000000E+00;
  4.4415064E+00;  9.9999998E-03; -6.2404102E-01;520;  8.8432297E-02;  0.0000000E+00; -6.8678092E-03;  9.9883537E+00;  2.4580671E-01; -1.0357413E+00;3;  1.1551700E-03;  0.0000000E+00; -7.6190929E-04; -4.3160208E+08; -4.3160208E+08; -4.3160208E+08;1;  5.7904959E-02;  2.8470218E+02;  0.0000000E+00;  2.8639974E-03;  1.0000000E+02;  0.0000000E+00;  9.2793800E+01;  4.7481421E-02;  0.0000000E+00;  1.0423535E-02;  0.0000000E+00;
  4.5612702E+00;  9.9999998E-03; -4.1610366E-01;523;  9.0525612E-02;  0.0000000E+00; -4.5473729E-03;  9.9883184E+00;  2.4581876E-01; -1.0387378E+00;3;  1.9247624E-03;  0.0000000E+00; -4.5632673E-04; -4.3160208E+08; -4.3160208E+08; -4.3160208E+08;1;  5.8522046E-02;  2.8467014E+02;  0.0000000E+00; -2.1288024E-04;  1.0000000E+02;  0.0000000E+00;  9.2794754E+01;  4.8028238E-02;  0.0000000E+00;  1.0493807E-02;  0.0000000E+00;
  4.5647707E+00;  9.9999998E-03; -2.0618327E-01;525;  9.2660569E-02;  0.0000000E+00; -1.9620592E-03;  9.9882965E+00;  2.4580242E-01; -1.0406960E+00;3;  2.8571468E-03;  0.0000000E+00;  9.2169788E-04; -4.3160208E+08; -4.3160208E+08; -4.3160208E+08;1;  5.8638789E-02;  2.8470151E+02;  0.0000000E+00;  6.1681370E-05;  1.0000000E+02;  0.0000000E+00;  9.2796906E+01;  4.8061244E-02;  0.0000000E+00;  1.0577545E-02;  0.0000000E+00;
  5.1953464E+00;  9.9999998E-03; -1.0367672E+00;527;  1.3356070E-01;  0.0000000E+00; -1.0299558E-02;  9.9877377E+00;  2.4535950E-01; -1.0902085E+00;3;  3.8775364E-03;  0.0000000E+00;  1.9541387E-03; -4.3160208E+08; -4.3160208E+08; -4.3160208E+08;1;  5.6267284E-02;  2.8556964E+02;  0.0000000E+00; -2.6496944E-01;  1.0000000E+02;  0.0000000E+00;  9.2841660E+01;  4.6007864E-02;  0.0000000E+00;  1.0259422E-02;  0.0000000E+00;
  5.1876192E+00;  9.9999998E-03; -8.3023518E-01;529;  1.2783198E-01;  0.0000000E+00; -8.2949521E-03;  9.9879875E+00;  2.4476400E-01; -1.0680054E+00;3;  5.7596859E-04;  0.0000000E+00; -9.8062865E-04; -4.3160208E+08; -4.3160208E+08; -4.3160208E+08;1;  5.5293288E-02;  2.8671378E+02;  0.0000000E+00;  1.7136131E-01;  1.0000000E+02;  0.0000000E+00;  9.2924896E+01;  4.5406211E-02;  0.0000000E+00;  9.8870778E-03;  0.0000000E+00;
  5.1764092E+00;  9.9999998E-03; -6.2395209E-01;531;  1.3021091E-01;  0.0000000E+00; -6.8977671E-03;  9.9880524E+00;  2.4425068E-01; -1.0622301E+00;3;  3.3451836E-03;  0.0000000E+00; -8.0712570E-04; -4.3160208E+08; -4.3160208E+08; -4.3160208E+08;1;  5.5225290E-02;  2.8770184E+02;  0.0000000E+00; -6.8679149E-03;  1.0000000E+02;  0.0000000E+00;  9.2995811E+01;  4.5130674E-02;  0.0000000E+00;  1.0094618E-02;  0.0000000E+00;
  5.1680298E+00;  9.9999998E-03; -4.1813952E-01;533;  1.2856707E-01;  0.0000000E+00; -5.3263563E-03;  9.9882126E+00;  2.4387327E-01; -1.0479758E+00;3;  4.2169332E-03;  0.0000000E+00; -4.4241347E-04; -4.3160208E+08; -4.3160208E+08; -4.3160208E+08;1;  5.4603402E-02;  2.8845770E+02;  0.0000000E+00; -7.2883576E-02;  1.0000000E+02;  0.0000000E+00;  9.3041916E+01;  4.4649340E-02;  0.0000000E+00;  9.9540614E-03;  0.0000000E+00;
  4.3271461E+00;  9.9999998E-03; -2.0512663E-01;536;  7.9960078E-02;  0.0000000E+00; -2.0536210E-03;  9.9883041E+00;  2.4386109E-01; -1.0403407E+00;3;  7.9462712E-04;  0.0000000E+00;  8.0676319E-04; -4.3160208E+08; -4.3160208E+08; -4.3160208E+08;1;  5.7372779E-02;  2.8837283E+02;  0.0000000E+00;  8.2248836E-05;  1.0000000E+02;  0.0000000E+00;  9.3079788E+01;  4.7042441E-02;  0.0000000E+00;  1.0330338E-02;  0.0000000E+00;
  5.1574912E+00;  9.9999998E-03; -2.1291672E-01;540;  1.2416152E-01;  0.0000000E+00; -3.6873606E-03;  9.9883451E+00;  2.4363045E-01; -1.0362123E+00;3;  3.2407730E-03;  0.0000000E+00; -1.0096227E-03; -4.3160208E+08; -4.3160208E+08; -4.3160208E+08;1;  5.4165512E-02;  2.8894870E+02;  0.0000000E+00; -3.3426654E-02;  1.0000000E+02;  0.0000000E+00;  9.3071144E+01;  4.4320602E-02;  0.0000000E+00;  9.8449085E-03;  0.0000000E+00;
  6.1133547E+00;  9.9999998E-03; -4.0104359E-01;475;  1.5037088E-01;  0.0000000E+00; -7.3330710E-05;  9.9895153E+00;  4.3724209E-01; -9.3211806E-01;3;  8.0977557E-03;  0.0000000E+00;  6.8906043E-04;  0.0000000E+00;  0.0000000E+00;  0.0000000E+00;0;  2.1879092E-02;  8.6256310E+01;  0.0000000E+00;  5.1982995E-02;  1.0000000E+02;  0.0000000E+00;  9.6820518E+01;  1.7835634E-02;  0.0000000E+00;  4.0434580E-03;  0.0000000E+00;
  6.1130056E+00;  9.9999998E-03; -6.0636759E-01;474;  1.4985657E-01;  0.0000000E+00; -1.3757133E-03;  9.9896383E+00;  4.3749821E-01; -9.2120188E-01;3;  7.3675830E-03;  0.0000000E+00;  6.2511116E-04;  0.0000000E+00;  0.0000000E+00;  0.0000000E+00;0;  2.1634862E-02;  8.6162598E+01;  0.0000000E+00; -3.9397445E-02;  1.0000000E+02;  0.0000000E+00;  9.6813316E+01;  1.7670393E-02;  0.0000000E+00;  3.9644684E-03;  0.0000000E+00;
  6.1168919E+00;  9.9999998E-03; -8.1262934E-01;473;  1.5166838E-01;  0.0000000E+00; -3.6542749E-03;  9.9874420E+00;  4.4162172E-01; -1.1164750E+00;3;  7.0922002E-03;  0.0000000E+00;  1.5878193E-03;  0.0000000E+00;  0.0000000E+00;  0.0000000E+00;0;  2.6018845E-02;  8.4816994E+01;  0.0000000E+00; -4.3797854E-02;  1.0000000E+02;  0.0000000E+00;  9.6481712E+01;  2.0727944E-02;  0.0000000E+00;  5.2909018E-03;  0.0000000E+00;
  6.1215553E+00;  9.9999998E-03; -1.9956453E-01;476;  1.5263556E-01;  0.0000000E+00;  1.9928039E-04;  9.9883156E+00;  4.4096667E-01; -1.0387897E+00;3;  7.2893915E-03;  0.0000000E+00; -6.8553723E-05;  0.0000000E+00;  0.0000000E+00;  0.0000000E+00;0;  2.3958195E-02;  8.5078728E+01;  0.0000000E+00;  2.3687553E-02;  1.0000000E+02;  0.0000000E+00;  9.6487389E+01;  1.9483948E-02;  0.0000000E+00;  4.4742464E-03;  0.0000000E+00;
  6.3221211E+00;  9.9999998E-03; -3.9949021E-01;483;  1.5257785E-01;  0.0000000E+00;  2.5519743E-04;  9.9877911E+00;  4.2640167E-01; -1.0854219E+00;3;  8.7400489E-03;  0.0000000E+00;  5.7112612E-04;  0.0000000E+00;  0.0000000E+00;  0.0000000E+00;0;  1.5561526E-02;  8.9861290E+01;  0.0000000E+00; -1.0188556E-01;  1.0000000E+02;  0.0000000E+00;  9.7691132E+01;  1.2645275E-02;  0.0000000E+00;  2.9162501E-03;  0.0000000E+00;
  6.3276505E+00;  9.9999998E-03; -6.0536611E-01;482;  1.5457635E-01;  0.0000000E+00; -1.8783140E-03;  9.9838676E+00;  4.3174484E-01; -1.4342639E+00;3;  2.1949179E-02;  0.0000000E+00;  8.6398255E-03;  0.0000000E+00;  0.0000000E+00;  0.0000000E+00;0;  2.0503519E-02;  8.7976158E+01;  0.0000000E+00; -8.3910756E-02;  1.0000000E+02;  0.0000000E+00;  9.7257484E+01;  1.6204897E-02;  0.0000000E+00;  4.2986213E-03;  0.0000000E+00;
  6.3280993E+00;  9.9999998E-03; -1.9826421E-01;484;  1.5410033E-01;  0.0000000E+00;  6.5206771E-04;  9.9859238E+00;  4.3020484E-01; -1.2514437E+00;3;  8.4344596E-03;  0.0000000E+00;  3.1673349E-04;  0.0000000E+00;  0.0000000E+00;  0.0000000E+00;0;  1.7628979E-02;  8.8582924E+01;  0.0000000E+00; -1.5454355E-02;  1.0000000E+02;  0.0000000E+00;  9.7323303E+01;  1.4304386E-02;  0.0000000E+00;  3.3245927E-03;  0.0000000E+00;
  6.5311232E+00;  9.9999998E-03; -4.0053922E-01;489;  1.5592779E-01;  0.0000000E+00; -1.9346124E-04;  9.9645624E+00;  4.2056701E-01; -3.1505475E+00;3;  6.2261149E-04;  0.0000000E+00; -1.3809577E-03;  0.0000000E+00;  0.0000000E+00;  0.0000000E+00;0;  1.4717639E-02;  9.1659134E+01;  0.0000000E+00; -1.5047491E-01;  1.0000000E+02;  0.0000000E+00;  9.8010025E+01;  1.2068531E-02;  0.0000000E+00;  2.6491089E-03;  0.0000000E+00;
  6.5300703E+00;  9.9999998E-03; -1.9673389E-01;490;  1.5500738E-01;  0.0000000E+00;  7.4693677E-04;  9.9715223E+00;  4.1888589E-01; -2.5318205E+00;3;  1.0283917E-02;  0.0000000E+00;  3.1286012E-04;  0.0000000E+00;  0.0000000E+00;  0.0000000E+00;0;  1.2314949E-02;  9.2406372E+01;  0.0000000E+00; -9.9945210E-02;  1.0000000E+02;  0.0000000E+00;  9.8132553E+01;  9.8862229E-03;  0.0000000E+00;  2.4287265E-03;  0.0000000E+00;
 -1.8368926E-04;  9.9999998E-03;  4.5132068E-10;170;  2.1818250E-04;  0.0000000E+00; -1.3651617E-10;  9.9988146E+00;  3.9991176E-01; -1.2755744E-01;3;  6.3020252E-03;  0.0000000E+00; -3.8370217E-08;  0.0000000E+00;  0.0000000E+00;  0.0000000E+00;0;  1.1170794E-04;  1.0001171E+02;  0.0000000E+00;  2.3447863E-16;  1.0000000E+02;  0.0000000E+00;  1.0000816E+02;  1.1985217E-04;  0.0000000E+00; -8.1442377E-06;  0.0000000E+00;
 -2.0999854E-04;  9.9999998E-03;  2.0000915E-01;171;  2.0368591E-04;  0.0000000E+00;  9.2122218E-06;  9.9987936E+00;  3.9992213E-01; -1.2980203E-01;3;  5.4219468E-03;  0.0000000E+00; -4.0876190E-04;  0.0000000E+00;  0.0000000E+00;  0.0000000E+00;0;  1.1632685E-04;  1.0000690E+02;  0.0000000E+00;  5.8681212E-07;  1.0000000E+02;  0.0000000E+00;  1.0000815E+02;  1.2389862E-04;  0.0000000E+00; -7.5717708E-06;  0.0000000E+00;
 -2.7887739E-04;  9.9999998E-03;  4.0002516E-01;172;  1.6405253E-04;  0.0000000E+00;  2.4574972E-05;  9.9987965E+00;  3.9994591E-01; -1.2948138E-01;3;  3.2089965E-03;  0.0000000E+00;  1.3556104E-03;  0.0000000E+00;  0.0000000E+00;  0.0000000E+00;0;  1.2830002E-04;  9.9995247E+01;  0.0000000E+00; -2.9992627E-06;  1.0000000E+02;  0.0000000E+00;  1.0000729E+02;  1.3443876E-04;  0.0000000E+00; -6.1387473E-06;  0.0000000E+00;
 -3.8600931E-04;  9.9999998E-03;  6.0008115E-01;173;  1.0364257E-04;  0.0000000E+00;  5.3903321E-05;  9.9988050E+00;  3.9997706E-01; -1.2858354E-01;3;  2.2056680E-03;  0.0000000E+00;  6.9480496E-03;  0.0000000E+00;  0.0000000E+00;  0.0000000E+00;0;  1.4320231E-04;  9.9979713E+01;  0.0000000E+00; -2.5868596E-05;  1.0000000E+02;  0.0000000E+00;  9.9998749E+01;  1.4744999E-04;  0.0000000E+00; -4.2476777E-06;  0.0000000E+00;
 -4.6149679E-04;  9.9999998E-03;  8.0011266E-01;174;  5.6587327E-05;  0.0000000E+00;  5.8543643E-05;  9.9987917E+00;  4.0001106E-01; -1.2999442E-01;3;  3.3228649E-03;  0.0000000E+00;  1.1272744E-02;  0.0000000E+00;  0.0000000E+00;  0.0000000E+00;0;  1.5443389E-04;  9.9965759E+01;  0.0000000E+00; -7.1375543E-05;  1.0000000E+02;  0.0000000E+00;  1.0000000E+02;  1.5566684E-04;  0.0000000E+00; -1.2329565E-06;  0.0000000E+00;
 -5.0350523E-04;  9.9999998E-03;  1.0001168E+00;175;  1.1922220E-05;  0.0000000E+00;  4.3894932E-05;  9.9987907E+00;  4.0003231E-01; -1.3012269E-01;3;  3.3461610E-03;  0.0000000E+00;  6.3004526E-03;  0.0000000E+00;  0.0000000E+00;  0.0000000E+00;0;  1.5528487E-04;  9.9958229E+01;  0.0000000E+00; -1.0062549E-04;  1.0000000E+02;  0.0000000E+00;  9.9998260E+01;  1.5149396E-04;  0.0000000E+00;  3.7909085E-06;  0.0000000E+00;
  1.9957811E-01;  9.9999998E-03;  1.6007592E-10;181;  1.5537426E-04;  0.0000000E+00; -6.9927571E-11;  9.9978485E+00;  4.0026948E-01; -2.3151387E-01;3;  2.1537887E-02;  0.0000000E+00; -6.0040253E-09;  0.0000000E+00;  0.0000000E+00;  0.0000000E+00;0;  2.9622225E-04;  9.9809624E+01;  0.0000000E+00; -4.5034280E-16;  1.0000000E+02;  0.0000000E+00;  1.0000920E+02;  3.1072472E-04;  0.0000000E+00; -1.4502463E-05;  0.0000000E+00;
  1.9955353E-01;  9.9999998E-03;  1.9998471E-01;182;  1.4067396E-04;  0.0000000E+00; -2.9943028E-06;  9.9978142E+00;  4.0028220E-01; -2.3516935E-01;3;  2.0502869E-02;  0.0000000E+00;  3.8860491E-03;  0.0000000E+00;  0.0000000E+00;  0.0000000E+00;0;  3.0411273E-04;  9.9803780E+01;  0.0000000E+00; -1.0125631E-05;  1.0000000E+02;  0.0000000E+00;  1.0000826E+02;  3.1768839E-04;  0.0000000E+00; -1.3575665E-05;  0.0000000E+00;
  1.9948702E-01;  9.9999998E-03;  3.9997181E-01;183;  1.0186281E-04;  0.0000000E+00; -2.4234610E-06;  9.9976988E+00;  4.0031031E-01; -2.4761082E-01;3;  1.8056180E-02;  0.0000000E+00;  9.1151055E-03;  0.0000000E+00;  0.0000000E+00;  0.0000000E+00;0;  3.2420986E-04;  9.9790352E+01;  0.0000000E+00; -6.8223337E-05;  1.0000000E+02;  0.0000000E+00;  1.0000862E+02;  3.3521513E-04;  0.0000000E+00; -1.1005272E-05;  0.0000000E+00;
  1.9939551E-01;  9.9999998E-03;  5.9997553E-01;184;  4.6233559E-05;  0.0000000E+00;  1.2779426E-05;  9.9976244E+00;  4.0033388E-01; -2.5562721E-01;3;  1.4653733E-02;  0.0000000E+00;  1.5549127E-02;  0.0000000E+00;  0.0000000E+00;  0.0000000E+00;0;  3.4641020E-04;  9.9778877E+01;  0.0000000E+00; -1.9636886E-04;  1.0000000E+02;  0.0000000E+00;  1.0000382E+02;  3.5343642E-04;  0.0000000E+00; -7.0262186E-06;  0.0000000E+00;
  1.9936174E-01;  9.9999998E-03;  7.9995370E-01;185;  2.2611493E-05;  0.0000000E+00;  1.0052100E-05;  9.9977226E+00;  4.0033704E-01; -2.4504556E-01;3;  1.0325363E-02;  0.0000000E+00;  1.9020455E-02;  0.0000000E+00;  0.0000000E+00;  0.0000000E+00;0;  3.5781358E-04;  9.9779411E+01;  0.0000000E+00; -3.1301461E-04;  1.0000000E+02;  0.0000000E+00;  9.9999870E+01;  3.5943624E-04;  0.0000000E+00; -1.6226572E-06;  0.0000000E+00;
  1.9935940E-01;  9.9999998E-03;  9.9989772E-01;186;  2.1630312E-05;  0.0000000E+00; -1.4576559E-05;  9.9978342E+00;  4.0031791E-01; -2.3305301E-01;3;  7.9317261E-03;  0.0000000E+00;  1.5995933E-02;  0.0000000E+00;  0.0000000E+00;  0.0000000E+00;0;  3.4475012E-04;  9.9798302E+01;  0.0000000E+00; -2.3628058E-04;  1.0000000E+02;  0.0000000E+00;  1.0000108E+02;  3.4086974E-04;  0.0000000E+00;  3.8803787E-06;  0.0000000E+00;
  3.9938247E-01;  9.9999998E-03; -1.1132809E-10;192;  1.1781610E-04;  0.0000000E+00;  1.1116619E-10;  9.9960241E+00;  4.0097240E-01; -4.2775312E-01;3; -2.1076931E-02;  0.0000000E+00;  1.7613189E-08;  0.0000000E+00;  0.0000000E+00;  0.0000000E+00;0;  7.6959305E-04;  9.9425224E+01;  0.0000000E+00; -1.0103334E-15;  1.0000000E+02;  0.0000000E+00;  1.0000818E+02;  7.8559882E-04;  0.0000000E+00; -1.6005752E-05;  0.0000000E+00;
  3.9936146E-01;  9.9999998E-03;  1.9995944E-01;193;  1.0283492E-04;  0.0000000E+00; -1.3924022E-05;  9.9959984E+00;  4.0098342E-01; -4.3057486E-01;3; -2.1025144E-02;  0.0000000E+00;  1.7245945E-02;  0.0000000E+00;  0.0000000E+00;  0.0000000E+00;0;  7.7653880E-04;  9.9418968E+01;  0.0000000E+00; -6.9228656E-05;  1.0000000E+02;  0.0000000E+00;  1.0000819E+02;  7.9184712E-04;  0.0000000E+00; -1.5308342E-05;  0.0000000E+00;
  3.9929777E-01;  9.9999998E-03;  3.9992210E-01;194;  5.6961122E-05;  0.0000000E+00; -2.3758581E-05;  9.9959545E+00;  4.0100893E-01; -4.3525642E-01;3; -2.0547006E-02;  0.0000000E+00;  3.9909899E-02;  0.0000000E+00;  0.0000000E+00;  0.0000000E+00;0;  7.9367589E-04;  9.9406372E+01;  0.0000000E+00; -3.1163328E-04;  1.0000000E+02;  0.0000000E+00;  1.0000834E+02;  8.0680294E-04;  0.0000000E+00; -1.3127046E-05;  0.0000000E+00;
  3.9923838E-01;  9.9999998E-03;  5.9986925E-01;195;  5.9084850E-06;  0.0000000E+00; -3.8879432E-05;  9.9959698E+00;  4.0102372E-01; -4.3365315E-01;3; -2.0202560E-02;  0.0000000E+00;  6.9531448E-02;  0.0000000E+00;  0.0000000E+00;  0.0000000E+00;0;  8.0808334E-04;  9.9401688E+01;  0.0000000E+00; -5.5920152E-04;  1.0000000E+02;  0.0000000E+00;  1.0000908E+02;  8.1751437E-04;  0.0000000E+00; -9.4310180E-06;  0.0000000E+00;
  3.9926293E-01;  9.9999998E-03;  7.9978341E-01;196; -1.2302709E-06;  0.0000000E+00; -7.2980620E-05;  9.9960756E+00;  4.0099570E-01; -4.2223784E-01;3; -2.1582589E-02;  0.0000000E+00;  1.0076758E-01;  0.0000000E+00;  0.0000000E+00;  0.0000000E+00;0;  7.9858775E-04;  9.9422997E+01;  0.0000000E+00; -2.4101559E-04;  1.0000000E+02;  0.0000000E+00;  9.9999763E+01;  8.0385874E-04;  0.0000000E+00; -5.2710056E-06;  0.0000000E+00;
  3.9943001E-01;  9.9999998E-03;  9.9971938E-01;197;  7.6726908E-05;  0.0000000E+00; -1.1599744E-04;  9.9963589E+00;  4.0088952E-01; -3.9177567E-01;3; -2.2980915E-02;  0.0000000E+00;  1.2596071E-01;  0.0000000E+00;  0.0000000E+00;  0.0000000E+00;0;  7.4685487E-04;  9.9482086E+01;  0.0000000E+00;  1.0523839E-03;  1.0000000E+02;  0.0000000E+00;  1.0000108E+02;  7.5150281E-04;  0.0000000E+00; -4.6479618E-06;  0.0000000E+00;
  5.9927535E-01;  9.9999998E-03; -3.8695930E-10;203;  1.0296181E-04;  0.0000000E+00;  2.2376331E-10;  9.9937963E+00;  4.0207404E-01; -6.6746587E-01;3; -7.5711785E-03;  0.0000000E+00;  4.7486790E-08;  0.0000000E+00;  0.0000000E+00;  0.0000000E+00;0;  1.6415806E-03;  9.8844284E+01;  0.0000000E+00; -2.2281128E-15;  1.0000000E+02;  0.0000000E+00;  1.0000217E+02;  1.6492010E-03;  0.0000000E+00; -7.6204656E-06;  0.0000000E+00;
  5.9925574E-01;  9.9999998E-03;  1.9994897E-01;204;  8.3654231E-05;  0.0000000E+00; -1.8875988E-05;  9.9938011E+00;  4.0208876E-01; -6.6695285E-01;3; -6.4087724E-03;  0.0000000E+00;  1.8420018E-02;  0.0000000E+00;  0.0000000E+00;  0.0000000E+00;0;  1.6417927E-03;  9.8836723E+01;  0.0000000E+00; -2.0619902E-04;  1.0000000E+02;  0.0000000E+00;  1.0000249E+02;  1.6497029E-03;  0.0000000E+00; -7.9101619E-06;  0.0000000E+00;
  5.9918725E-01;  9.9999998E-03;  3.9989495E-01;205;  2.2176055E-05;  0.0000000E+00; -3.8179816E-05;  9.9938154E+00;  4.0211809E-01; -6.6541368E-01;3; -1.6783734E-03;  0.0000000E+00;  4.4734467E-02;  0.0000000E+00;  0.0000000E+00;  0.0000000E+00;0;  1.6411539E-03;  9.8822189E+01;  0.0000000E+00; -6.9552171E-04;  1.0000000E+02;  0.0000000E+00;  1.0000400E+02;  1.6495758E-03;  0.0000000E+00; -8.4218791E-06;  0.0000000E+00;
  5.9912646E-01;  9.9999998E-03;  5.9980124E-01;206; -4.5863057E-05;  0.0000000E+00; -8.0693528E-05;  9.9938803E+00;  4.0211731E-01; -6.5842360E-01;3;  5.1104706E-03;  0.0000000E+00;  8.3800919E-02;  0.0000000E+00;  0.0000000E+00;  0.0000000E+00;0;  1.6271834E-03;  9.8821236E+01;  0.0000000E+00; -3.4246137E-04;  1.0000000E+02;  0.0000000E+00;  1.0000618E+02;  1.6373667E-03;  0.0000000E+00; -1.0183310E-05;  0.0000000E+00;
  5.9915900E-01;  9.9999998E-03;  7.9966062E-01;207; -7.4699747E-05;  0.0000000E+00; -1.5003142E-04;  9.9941492E+00;  4.0203935E-01; -6.2950087E-01;3;  1.8653138E-02;  0.0000000E+00;  1.3459656E-01;  0.0000000E+00;  0.0000000E+00;  0.0000000E+00;0;  1.5662152E-03;  9.8862778E+01;  0.0000000E+00;  3.1884669E-03;  1.0000000E+02;  0.0000000E+00;  1.0000898E+02;  1.5832406E-03;  0.0000000E+00; -1.7025450E-05;  0.0000000E+00;
  5.9954137E-01;  9.9999998E-03;  9.9957830E-01;208;  6.0230850E-05;  0.0000000E+00; -2.0461546E-04;  9.9946613E+00;  4.0184084E-01; -5.7441312E-01;3;  3.8461778E-02;  0.0000000E+00;  1.7935885E-01;  0.0000000E+00;  0.0000000E+00;  0.0000000E+00;0;  1.4437606E-03;  9.8963554E+01;  0.0000000E+00;  1.0189803E-02;  1.0000000E+02;  0.0000000E+00;  1.0001407E+02;  1.4746380E-03;  0.0000000E+00; -3.0877374E-05;  0.0000000E+00;
  7.9928160E-01;  9.9999998E-03; -7.0939843E-10;214;  1.0080246E-04;  0.0000000E+00;  3.2927155E-10;  9.9917259E+00;  4.0353751E-01; -8.9022839E-01;3; -3.1568531E-03;  0.0000000E+00;  4.2743306E-08;  0.0000000E+00;  0.0000000E+00;  0.0000000E+00;0;  2.8900686E-03;  9.8100624E+01;  0.0000000E+00;  7.7048981E-16;  1.0000000E+02;  0.0000000E+00;  9.9990776E+01;  2.8782564E-03;  0.0000000E+00;  1.1812202E-05;  0.0000000E+00;
  7.9922247E-01;  9.9999998E-03;  1.9997387E-01;215;  7.0752918E-05;  0.0000000E+00; -8.2665438E-06;  9.9917526E+00;  4.0355662E-01; -8.8734263E-01;3; -8.6507230E-04;  0.0000000E+00;  1.6190400E-02;  0.0000000E+00;  0.0000000E+00;  0.0000000E+00;0;  2.8802704E-03;  9.8090256E+01;  0.0000000E+00; -3.5301349E-04;  1.0000000E+02;  0.0000000E+00;  9.9990891E+01;  2.8700295E-03;  0.0000000E+00;  1.0240739E-05;  0.0000000E+00;
  7.9913592E-01;  9.9999998E-03;  3.9994678E-01;216; -1.3554368E-05;  0.0000000E+00; -1.9729221E-05;  9.9918232E+00;  4.0360379E-01; -8.7971139E-01;3;  8.1268298E-03;  0.0000000E+00;  4.0418644E-02;  0.0000000E+00;  0.0000000E+00;  0.0000000E+00;0;  2.8547319E-03;  9.8068352E+01;  0.0000000E+00; -6.8568619E-04;  1.0000000E+02;  0.0000000E+00;  9.9994034E+01;  2.8482005E-03;  0.0000000E+00;  6.5312497E-06;  0.0000000E+00;
  7.9909062E-01;  9.9999998E-03;  5.9987527E-01;217; -1.2328294E-04;  0.0000000E+00; -6.3189444E-05;  9.9919786E+00;  4.0361080E-01; -8.6303800E-01;3;  2.9029252E-02;  0.0000000E+00;  7.9760209E-02;  0.0000000E+00;  0.0000000E+00;  0.0000000E+00;0;  2.8009925E-03;  9.8062164E+01;  0.0000000E+00;  2.7810149E-03;  1.0000000E+02;  0.0000000E+00;  9.9997978E+01;  2.8037641E-03;  0.0000000E+00; -2.7716324E-06;  0.0000000E+00;
  7.9923403E-01;  9.9999998E-03;  7.9983050E-01;218; -1.4873057E-04;  0.0000000E+00; -8.5773616E-05;  9.9923153E+00;  4.0350610E-01; -8.2680559E-01;3;  9.3746334E-02;  0.0000000E+00;  1.1844545E-01;  0.0000000E+00;  0.0000000E+00;  0.0000000E+00;0;  2.6844630E-03;  9.8109940E+01;  0.0000000E+00;  1.6418530E-02;  1.0000000E+02;  0.0000000E+00;  1.0000629E+02;  2.7004802E-03;  0.0000000E+00; -1.6017220E-05;  0.0000000E+00;
  8.0131125E-01;  9.9999998E-03;  1.0000055E+00;219;  8.3565671E-04;  0.0000000E+00;  4.0088642E-05;  9.9920292E+00;  4.0346411E-01; -8.5758686E-01;3;  1.9517444E-01;  0.0000000E+00;  1.1751562E-01;  0.0000000E+00;  0.0000000E+00;  0.0000000E+00;0;  2.8274243E-03;  9.8131042E+01;  0.0000000E+00;  3.1295836E-02;  1.0000000E+02;  0.0000000E+00;  1.0000219E+02;  2.8184985E-03;  0.0000000E+00;  8.9258701E-06;  0.0000000E+00;
  1.0012548E+00;  9.9999998E-03;  3.0532110E-09;225;  1.1188484E-04;  0.0000000E+00; -2.9978345E-10;  9.9903383E+00;  4.0530923E-01; -1.0394522E+00;3; -1.3158474E-03;  0.0000000E+00;  1.3848563E-08;  0.0000000E+00;  0.0000000E+00;  0.0000000E+00;0;  4.3849833E-03;  9.7226219E+01;  0.0000000E+00;  2.8633256E-15;  1.0000000E+02;  0.0000000E+00;  9.9980736E+01;  4.3471642E-03;  0.0000000E+00;  3.7819267E-05;  0.0000000E+00;
  1.0006706E+00;  9.9999998E-03;  2.0010217E-01;226;  5.7954396E-05;  0.0000000E+00;  2.6817828E-05;  9.9903688E+00;  4.0534449E-01; -1.0361180E+00;3;  1.3331771E-03;  0.0000000E+00;  1.2349959E-02;  0.0000000E+00;  0.0000000E+00;  0.0000000E+00;0;  4.3655941E-03;  9.7210594E+01;  0.0000000E+00; -5.1368651E-04;  1.0000000E+02;  0.0000000E+00;  9.9979660E+01;  4.3295193E-03;  0.0000000E+00;  3.6074933E-05;  0.0000000E+00;
  1.0011704E+00;  9.9999998E-03;  4.0016916E-01;227; -4.2648684E-05;  0.0000000E+00;  2.7103599E-05;  9.9904327E+00;  4.0545547E-01; -1.0292565E+00;3;  1.1191407E-02;  0.0000000E+00;  2.8516067E-02;  0.0000000E+00;  0.0000000E+00;  0.0000000E+00;0;  4.3281922E-03;  9.7162590E+01;  0.0000000E+00; -7.7882910E-04;  1.0000000E+02;  0.0000000E+00;  9.9977783E+01;  4.2961645E-03;  0.0000000E+00;  3.2027583E-05;  0.0000000E+00;
  1.0010415E+00;  9.9999998E-03;  6.0011613E-01;228; -1.6557831E-04;  0.0000000E+00;  4.5509264E-06;  9.9906025E+00;  4.0553257E-01; -1.0109812E+00;3;  4.2816348E-02;  0.0000000E+00;  4.8346024E-02;  0.0000000E+00;  0.0000000E+00;  0.0000000E+00;0;  4.2424640E-03;  9.7127487E+01;  0.0000000E+00;  7.3329499E-03;  1.0000000E+02;  0.0000000E+00;  9.9978180E+01;  4.2202477E-03;  0.0000000E+00;  2.2216122E-05;  0.0000000E+00;
  1.0022824E+00;  9.9999998E-03;  8.0055898E-01;229;  9.5721841E-04;  0.0000000E+00;  2.5544511E-04;  9.9901762E+00;  4.0564302E-01; -1.0568935E+00;3;  1.2562577E-01;  0.0000000E+00; -3.2622643E-02;  0.0000000E+00;  0.0000000E+00;  0.0000000E+00;0;  4.4539440E-03;  9.7093178E+01;  0.0000000E+00;  2.9346026E-02;  1.0000000E+02;  0.0000000E+00;  9.9948921E+01;  4.3502422E-03;  0.0000000E+00;  1.0370190E-04;  0.0000000E+00;
  1.0098023E+00;  9.9999998E-03;  1.0005589E+00;230;  3.0631458E-03;  0.0000000E+00;  1.7028314E-04;  9.9883842E+00;  4.0673360E-01; -1.2496461E+00;3;  2.3942912E-02;  0.0000000E+00; -1.4438615E-02;  0.0000000E+00;  0.0000000E+00;  0.0000000E+00;0;  5.2627162E-03;  9.6540314E+01;  0.0000000E+00;  5.3691855E-03;  1.0000000E+02;  0.0000000E+00;  9.9950645E+01;  5.1912423E-03;  0.0000000E+00;  7.1473893E-05;  0.0000000E+00;
  1.2096934E+00;  9.9999998E-03; -2.3570790E-09;236;  2.5003478E-03;  0.0000000E+00; -3.6950381E-09;  9.9897060E+00;  4.0745518E-01; -1.1072568E+00;3; -3.1449043E-03;  0.0000000E+00;  2.2699112E-08;  0.0000000E+00;  0.0000000E+00;  0.0000000E+00;0;  5.9696608E-03;  9.6202812E+01;  0.0000000E+00; -2.4395332E-15;  1.0000000E+02;  0.0000000E+00;  9.9968880E+01;  5.9081097E-03;  0.0000000E+00;  6.1550883E-05;  0.0000000E+00;
  1.2085710E+00;  9.9999998E-03;  2.0020351E-01;237;  1.4414826E-03;  0.0000000E+00;  1.4945965E-04;  9.9896812E+00;  4.0754059E-01; -1.1099510E+00;3; -2.8808072E-04;  0.0000000E+00;  8.4777735E-03;  0.0000000E+00;  0.0000000E+00;  0.0000000E+00;0;  5.9766429E-03;  9.6166847E+01;  0.0000000E+00; -1.6156269E-03;  1.0000000E+02;  0.0000000E+00;  9.9965263E+01;  5.9080571E-03;  0.0000000E+00;  6.8586000E-05;  0.0000000E+00;
  1.2051276E+00;  9.9999998E-03;  4.0021914E-01;238; -1.1660632E-05;  0.0000000E+00;  1.9189049E-05;  9.9897995E+00;  4.0768096E-01; -1.0972604E+00;3;  1.1035135E-02;  0.0000000E+00;  1.5997853E-02;  0.0000000E+00;  0.0000000E+00;  0.0000000E+00;0;  5.8868276E-03;  9.6109192E+01;  0.0000000E+00; -2.5637411E-03;  1.0000000E+02;  0.0000000E+00;  9.9958237E+01;  5.8360719E-03;  0.0000000E+00;  5.0755847E-05;  0.0000000E+00;
  1.2034719E+00;  9.9999998E-03;  6.0001075E-01;239; -1.2224033E-05;  0.0000000E+00;  1.5245281E-05;  9.9899645E+00;  4.0772533E-01; -1.0795023E+00;3;  5.1481631E-02;  0.0000000E+00;  2.2153564E-02;  0.0000000E+00;  0.0000000E+00;  0.0000000E+00;0;  5.7828422E-03;  9.6083076E+01;  0.0000000E+00;  1.1769260E-02;  1.0000000E+02;  0.0000000E+00;  9.9968742E+01;  5.7419827E-03;  0.0000000E+00;  4.0859410E-05;  0.0000000E+00;
  1.2090524E+00;  9.9999998E-03;  8.0041617E-01;240;  2.7500738E-03;  0.0000000E+00;  1.9972236E-04;  9.9889727E+00;  4.0829027E-01; -1.1861826E+00;3;  6.5874361E-02;  0.0000000E+00; -5.5559602E-02;  0.0000000E+00;  0.0000000E+00;  0.0000000E+00;0;  6.3733202E-03;  9.5832245E+01;  0.0000000E+00;  1.2844390E-02;  1.0000000E+02;  0.0000000E+00;  9.9933472E+01;  6.2434338E-03;  0.0000000E+00;  1.2988652E-04;  0.0000000E+00;
  1.2133888E+00;  9.9999998E-03;  1.0004607E+00;241;  4.1352087E-03;  0.0000000E+00;  1.5856352E-04;  9.9879093E+00;  4.0911222E-01; -1.3005569E+00;3; -6.6211037E-03;  0.0000000E+00; -5.5065822E-02;  0.0000000E+00;  0.0000000E+00;  0.0000000E+00;0;  7.0052156E-03;  9.5422989E+01;  0.0000000E+00; -1.1445519E-03;  1.0000000E+02;  0.0000000E+00;  9.9938202E+01;  6.9070812E-03;  0.0000000E+00;  9.8134449E-05;  0.0000000E+00;
  1.4125785E+00;  9.9999998E-03; -1.6192576E-09;247;  6.2108776E-03;  0.0000000E+00; -3.1129435E-09;  9.9897566E+00;  4.1017064E-01; -1.1015047E+00;3;  1.0624536E-03;  0.0000000E+00; -5.2460409E-09;  0.0000000E+00;  0.0000000E+00;  0.0000000E+00;0;  7.4534304E-03;  9.4941437E+01;  0.0000000E+00;  2.4743296E-15;  1.0000000E+02;  0.0000000E+00;  9.9962906E+01;  7.3803258E-03;  0.0000000E+00;  7.3104653E-05;  0.0000000E+00;
  1.4131743E+00;  9.9999998E-03;  2.0038077E-01;248;  6.0878298E-03;  0.0000000E+00;  5.3571781E-05;  9.9896460E+00;  4.1026443E-01; -1.1133603E+00;3;  1.5773330E-03;  0.0000000E+00;  5.3540776E-03;  0.0000000E+00;  0.0000000E+00;  0.0000000E+00;0;  7.5376718E-03;  9.4905861E+01;  0.0000000E+00; -2.0703133E-03;  1.0000000E+02;  0.0000000E+00;  9.9950279E+01;  7.4633923E-03;  0.0000000E+00;  7.4279618E-05;  0.0000000E+00;
  1.4120456E+00;  9.9999998E-03;  4.0033540E-01;249;  2.2264563E-03;  0.0000000E+00; -2.8152514E-05;  9.9895687E+00;  4.1046426E-01; -1.1216954E+00;3;  2.7531805E-03;  0.0000000E+00;  6.0669957E-03;  0.0000000E+00;  0.0000000E+00;  0.0000000E+00;0;  7.5433617E-03;  9.4832344E+01;  0.0000000E+00; -7.1921134E-03;  1.0000000E+02;  0.0000000E+00;  9.9933022E+01;  7.4905795E-03;  0.0000000E+00;  5.2782132E-05;  0.0000000E+00;
  1.4100350E+00;  9.9999998E-03;  6.0006380E-01;250;  1.9242989E-03;  0.0000000E+00; -1.1280888E-04;  9.9896374E+00;  4.1051424E-01; -1.1143301E+00;3;  2.1347493E-02;  0.0000000E+00;  5.7510841E-03;  0.0000000E+00;  0.0000000E+00;  0.0000000E+00;0;  7.4781375E-03;  9.4801399E+01;  0.0000000E+00; -4.0037601E-04;  1.0000000E+02;  0.0000000E+00;  9.9940475E+01;  7.4879974E-03;  0.0000000E+00; -9.8599976E-06;  0.0000000E+00;
  1.4134077E+00;  9.9999998E-03;  8.0022436E-01;251;  4.2704958E-03;  0.0000000E+00;  9.2691393E-05;  9.9890432E+00;  4.1077486E-01; -1.1781577E+00;3;  3.5405312E-02;  0.0000000E+00; -3.3560447E-02;  0.0000000E+00;  0.0000000E+00;  0.0000000E+00;0;  7.9670809E-03;  9.4680618E+01;  0.0000000E+00;  5.5966498E-03;  1.0000000E+02;  0.0000000E+00;  9.9929611E+01;  7.8715896E-03;  0.0000000E+00;  9.5491057E-05;  0.0000000E+00;
  1.4169651E+00;  9.9999998E-03;  1.0003656E+00;252;  5.2008373E-03;  0.0000000E+00;  1.0718508E-04;  9.9885969E+00;  4.1121805E-01; -1.2261529E+00;3; -3.5454554E-03;  0.0000000E+00; -4.8242871E-02;  0.0000000E+00;  0.0000000E+00;  0.0000000E+00;0;  8.3206566E-03;  9.4466492E+01;  0.0000000E+00; -2.4117727E-03;  1.0000000E+02;  0.0000000E+00;  9.9932129E+01;  8.2359407E-03;  0.0000000E+00;  8.4715604E-05;  0.0000000E+00;
  1.6132711E+00;  9.9999998E-03;  7.8368396E-09;258;  6.1958395E-03;  0.0000000E+00; -1.6449210E-09;  9.9897709E+00;  4.1388214E-01; -1.0991603E+00;3;  1.1808835E-03;  0.0000000E+00; -6.0066554E-08;  0.0000000E+00;  0.0000000E+00;  0.0000000E+00;0;  9.1399308E-03;  9.3262672E+01;  0.0000000E+00; -7.0456798E-15;  1.0000000E+02;  0.0000000E+00;  9.9944244E+01;  9.0669189E-03;  0.0000000E+00;  7.3011950E-05;  0.0000000E+00;
  1.6138830E+00;  9.9999998E-03;  2.0025074E-01;259;  6.3870638E-03;  0.0000000E+00;  2.7828926E-04;  9.9896870E+00;  4.1390836E-01; -1.1081231E+00;3;  1.7702229E-03;  0.0000000E+00;  3.4287041E-03;  0.0000000E+00;  0.0000000E+00;  0.0000000E+00;0;  9.2481459E-03;  9.3261192E+01;  0.0000000E+00; -1.1162939E-03;  1.0000000E+02;  0.0000000E+00;  9.9929695E+01;  9.1416817E-03;  0.0000000E+00;  1.0646389E-04;  0.0000000E+00;
  1.6153220E+00;  9.9999998E-03;  4.0012014E-01;260;  6.4697145E-03;  0.0000000E+00;  1.6199739E-04;  9.9895020E+00;  4.1393980E-01; -1.1280328E+00;3;  2.8810354E-03;  0.0000000E+00;  4.3433169E-03;  0.0000000E+00;  0.0000000E+00;  0.0000000E+00;0;  9.4380677E-03;  9.3264015E+01;  0.0000000E+00; -4.8720748E-03;  1.0000000E+02;  0.0000000E+00;  9.9906975E+01;  9.3133636E-03;  0.0000000E+00;  1.2470403E-04;  0.0000000E+00;
  1.6160177E+00;  9.9999998E-03;  5.9997237E-01;261;  5.3545674E-03;  0.0000000E+00;  8.2272745E-05;  9.9894333E+00;  4.1384757E-01; -1.1353937E+00;3;  6.9908681E-03;  0.0000000E+00;  3.0126947E-03;  0.0000000E+00;  0.0000000E+00;  0.0000000E+00;0;  9.5069623E-03;  9.3305397E+01;  0.0000000E+00; -5.3819865E-03;  1.0000000E+02;  0.0000000E+00;  9.9907883E+01;  9.3840221E-03;  0.0000000E+00;  1.2293980E-04;  0.0000000E+00;
  1.6185771E+00;  9.9999998E-03;  8.0011481E-01;262;  5.6732814E-03;  0.0000000E+00;  6.2867592E-05;  9.9894238E+00;  4.1371581E-01; -1.1364028E+00;3;  1.5436902E-02;  0.0000000E+00; -8.2324203E-03;  0.0000000E+00;  0.0000000E+00;  0.0000000E+00;0;  9.5406882E-03;  9.3360504E+01;  0.0000000E+00; -1.7731881E-04;  1.0000000E+02;  0.0000000E+00;  9.9915222E+01;  9.4364872E-03;  0.0000000E+00;  1.0420113E-04;  0.0000000E+00;
  1.6216635E+00;  9.9999998E-03;  1.0003787E+00;263;  6.5232716E-03;  0.0000000E+00;  7.9680140E-05;  9.9893761E+00;  4.1363132E-01; -1.1415073E+00;3;  2.5061576E-03;  0.0000000E+00; -2.3565855E-02;  0.0000000E+00;  0.0000000E+00;  0.0000000E+00;0;  9.6132476E-03;  9.3398514E+01;  0.0000000E+00; -2.7837576E-03;  1.0000000E+02;  0.0000000E+00;  9.9917221E+01;  9.5331240E-03;  0.0000000E+00;  8.0123638E-05;  0.0000000E+00;
  1.8143485E+00;  9.9999998E-03;  1.3696345E-09;269;  6.1074616E-03;  0.0000000E+00;  1.5597473E-09;  9.9894505E+00;  4.1875508E-01; -1.1317178E+00;3;  9.1786718E-04;  0.0000000E+00; -4.0959208E-08;  0.0000000E+00;  0.0000000E+00;  0.0000000E+00;0;  1.1531090E-02;  9.1153320E+01;  0.0000000E+00; -7.4411243E-15;  1.0000000E+02;  0.0000000E+00;  9.9884224E+01;  1.1457833E-02;  0.0000000E+00;  7.3257535E-05;  0.0000000E+00;
  1.8149410E+00;  9.9999998E-03;  1.9981216E-01;270;  6.3516963E-03;  0.0000000E+00;  1.7307287E-04;  9.9894161E+00;  4.1866195E-01; -1.1354185E+00;3;  1.2030227E-03;  0.0000000E+00;  1.5825962E-03;  0.0000000E+00;  0.0000000E+00;  0.0000000E+00;0;  1.1576077E-02;  9.1201347E+01;  0.0000000E+00; -2.0804252E-04;  1.0000000E+02;  0.0000000E+00;  9.9876442E+01;  1.1471188E-02;  0.0000000E+00;  1.0488887E-04;  0.0000000E+00;
  1.8174772E+00;  9.9999998E-03;  3.9964351E-01;271;  6.7260680E-03;  0.0000000E+00;  1.3939253E-04;  9.9894056E+00;  4.1838682E-01; -1.1364717E+00;3;  1.7275858E-03;  0.0000000E+00;  3.3044347E-03;  0.0000000E+00;  0.0000000E+00;  0.0000000E+00;0;  1.1649646E-02;  9.1332390E+01;  0.0000000E+00; -8.3483785E-04;  1.0000000E+02;  0.0000000E+00;  9.9862495E+01;  1.1495565E-02;  0.0000000E+00;  1.5408061E-04;  0.0000000E+00;
  1.8219094E+00;  9.9999998E-03;  5.9977627E-01;272;  7.4799466E-03;  0.0000000E+00;  2.7118580E-05;  9.9894762E+00;  4.1796061E-01; -1.1288675E+00;3;  2.2701791E-03;  0.0000000E+00;  4.1462486E-03;  0.0000000E+00;  0.0000000E+00;  0.0000000E+00;0;  1.1630608E-02;  9.1524681E+01;  0.0000000E+00; -1.9568924E-03;  1.0000000E+02;  0.0000000E+00;  9.9858582E+01;  1.1488720E-02;  0.0000000E+00;  1.4188782E-04;  0.0000000E+00;
  1.8258276E+00;  9.9999998E-03;  8.0013514E-01;273;  7.9025058E-03;  0.0000000E+00;  1.8215751E-05;  9.9896727E+00;  4.1737700E-01; -1.1077160E+00;3;  5.4651396E-03;  0.0000000E+00;  2.9944160E-03;  0.0000000E+00;  0.0000000E+00;  0.0000000E+00;0;  1.1464838E-02;  9.1774437E+01;  0.0000000E+00; -3.8020967E-03;  1.0000000E+02;  0.0000000E+00;  9.9868622E+01;  1.1359956E-02;  0.0000000E+00;  1.0488188E-04;  0.0000000E+00;
  1.8282801E+00;  9.9999998E-03;  1.0005833E+00;274;  8.2682520E-03;  0.0000000E+00;  8.6830398E-05;  9.9899454E+00;  4.1670653E-01; -1.0784659E+00;3;  4.5055118E-03;  0.0000000E+00; -3.4996234E-03;  0.0000000E+00;  0.0000000E+00;  0.0000000E+00;0;  1.1222299E-02;  9.2070763E+01;  0.0000000E+00; -4.2624539E-03;  1.0000000E+02;  0.0000000E+00;  9.9875519E+01;  1.1111106E-02;  0.0000000E+00;  1.1119378E-04;  0.0000000E+00;
  2.0186501E+00;  9.9999998E-03;  7.1832168E-10;280;  6.1717080E-03;  0.0000000E+00;  4.5705746E-09;  9.9888287E+00;  4.2444494E-01; -1.1940979E+00;3;  7.0624467E-04;  0.0000000E+00; -2.0717968E-08;  0.0000000E+00;  0.0000000E+00;  0.0000000E+00;0;  1.4864319E-02;  8.8845894E+01;  0.0000000E+00; -3.1312850E-14;  1.0000000E+02;  0.0000000E+00;  9.9738617E+01;  1.4746042E-02;  0.0000000E+00;  1.1827715E-04;  0.0000000E+00;
  2.0195713E+00;  9.9999998E-03;  1.9939499E-01;281;  6.3415268E-03;  0.0000000E+00; -1.2135606E-04;  9.9889021E+00;  4.2421427E-01; -1.1862335E+00;3;  7.8457117E-04;  0.0000000E+00;  3.9445763E-04;  0.0000000E+00;  0.0000000E+00;  0.0000000E+00;0;  1.4787835E-02;  8.8945335E+01;  0.0000000E+00; -8.9346759E-05;  1.0000000E+02;  0.0000000E+00;  9.9736267E+01;  1.4662878E-02;  0.0000000E+00;  1.2495734E-04;  0.0000000E+00;
  2.0236478E+00;  9.9999998E-03;  3.9902598E-01;282;  7.2900048E-03;  0.0000000E+00; -5.4533321E-05;  9.9890633E+00;  4.2354101E-01; -1.1689094E+00;3;  3.3833194E-04;  0.0000000E+00;  1.5573469E-03;  0.0000000E+00;  0.0000000E+00;  0.0000000E+00;0;  1.4630662E-02;  8.9215668E+01;  0.0000000E+00; -1.4873435E-04;  1.0000000E+02;  0.0000000E+00;  9.9752678E+01;  1.4453872E-02;  0.0000000E+00;  1.7678981E-04;  0.0000000E+00;
  2.0354142E+00;  9.9999998E-03;  5.9962982E-01;283;  8.5939933E-03;  0.0000000E+00; -7.4291667E-05;  9.9893913E+00;  4.2272055E-01; -1.1334567E+00;3; -6.9244247E-04;  0.0000000E+00;  2.7123990E-03;  0.0000000E+00;  0.0000000E+00;  0.0000000E+00;0;  1.4370379E-02;  8.9570251E+01;  0.0000000E+00; -2.6537487E-03;  1.0000000E+02;  0.0000000E+00;  9.9751694E+01;  1.4191842E-02;  0.0000000E+00;  1.7853740E-04;  0.0000000E+00;
  2.0398300E+00;  9.9999998E-03;  8.0040854E-01;284;  1.0408087E-02;  0.0000000E+00;  2.0216899E-05;  9.9898119E+00;  4.2165285E-01; -1.0884285E+00;3; -2.9339433E-05;  0.0000000E+00;  3.6542059E-03;  0.0000000E+00;  0.0000000E+00;  0.0000000E+00;0;  1.3876464E-02;  9.0022621E+01;  0.0000000E+00; -1.1126688E-02;  1.0000000E+02;  0.0000000E+00;  9.9760902E+01;  1.3698483E-02;  0.0000000E+00;  1.7798126E-04;  0.0000000E+00;
  2.0386724E+00;  9.9999998E-03;  1.0011557E+00;285;  1.0258635E-02;  0.0000000E+00;  1.3134754E-04;  9.9903021E+00;  4.2044917E-01; -1.0360552E+00;3;  3.4926112E-03;  0.0000000E+00;  2.5500474E-03;  0.0000000E+00;  0.0000000E+00;  0.0000000E+00;0;  1.3197517E-02;  9.0537773E+01;  0.0000000E+00; -1.0250489E-02;  1.0000000E+02;  0.0000000E+00;  9.9775963E+01;  1.3032126E-02;  0.0000000E+00;  1.6539083E-04;  0.0000000E+00;
  2.2387383E+00;  9.9999998E-03; -2.7341251E-09;291;  7.1582175E-03;  0.0000000E+00;  7.1155357E-09;  9.9881983E+00;  4.3026012E-01; -1.2507983E+00;3; -7.3571771E-04;  0.0000000E+00; -4.4633900E-08;  0.0000000E+00;  0.0000000E+00;  0.0000000E+00;0;  1.9171955E-02;  8.6707840E+01;  0.0000000E+00; -3.3752532E-14;  1.0000000E+02;  0.0000000E+00;  9.9441017E+01;  1.8865373E-02;  0.0000000E+00;  3.0658170E-04;  0.0000000E+00;
  2.2396722E+00;  9.9999998E-03;  1.9926438E-01;292;  7.4531655E-03;  0.0000000E+00; -2.4904372E-04;  9.9883432E+00;  4.2989999E-01; -1.2353834E+00;3; -1.4120826E-03;  0.0000000E+00;  1.5670556E-05;  0.0000000E+00;  0.0000000E+00;  0.0000000E+00;0;  1.8950384E-02;  8.6853737E+01;  0.0000000E+00; -1.1619830E-04;  1.0000000E+02;  0.0000000E+00;  9.9443192E+01;  1.8641565E-02;  0.0000000E+00;  3.0881970E-04;  0.0000000E+00;
  2.2427890E+00;  9.9999998E-03;  3.9877731E-01;293;  8.8580661E-03;  0.0000000E+00; -3.6125575E-04;  9.9887695E+00;  4.2882597E-01; -1.1900102E+00;3; -2.3655647E-03;  0.0000000E+00;  2.1081559E-04;  0.0000000E+00;  0.0000000E+00;  0.0000000E+00;0;  1.8315339E-02;  8.7255859E+01;  0.0000000E+00; -3.8330865E-04;  1.0000000E+02;  0.0000000E+00;  9.9491768E+01;  1.8025169E-02;  0.0000000E+00;  2.9016988E-04;  0.0000000E+00;
  2.2512503E+00;  9.9999998E-03;  5.9979808E-01;294;  1.6312793E-02;  0.0000000E+00; -9.7840290E-05;  9.9893684E+00;  4.2737591E-01; -1.1259929E+00;3;  3.6527109E-04;  0.0000000E+00;  8.4125478E-04;  0.0000000E+00;  0.0000000E+00;  0.0000000E+00;0;  1.7499112E-02;  8.7824600E+01;  0.0000000E+00; -2.0136696E-04;  1.0000000E+02;  0.0000000E+00;  9.9527916E+01;  1.7138831E-02;  0.0000000E+00;  3.6028071E-04;  0.0000000E+00;
  2.2549236E+00;  9.9999998E-03;  8.0117047E-01;295;  1.7499564E-02;  0.0000000E+00;  7.9193152E-05;  9.9900532E+00;  4.2589489E-01; -1.0532348E+00;3;  2.5904371E-04;  0.0000000E+00;  1.3665644E-03;  0.0000000E+00;  0.0000000E+00;  0.0000000E+00;0;  1.6427191E-02;  8.8437378E+01;  0.0000000E+00; -3.1109790E-03;  1.0000000E+02;  0.0000000E+00;  9.9541489E+01;  1.6100468E-02;  0.0000000E+00;  3.2672205E-04;  0.0000000E+00;
  2.2549601E+00;  9.9999998E-03;  1.0023882E+00;296;  1.6981296E-02;  0.0000000E+00;  2.7633528E-04;  9.9906740E+00;  4.2453659E-01; -9.8746854E-01;3;  8.7852840E-04;  0.0000000E+00;  9.5709041E-04;  0.0000000E+00;  0.0000000E+00;  0.0000000E+00;0;  1.5403317E-02;  8.9002434E+01;  0.0000000E+00; -9.6677523E-03;  1.0000000E+02;  0.0000000E+00;  9.9556358E+01;  1.5114970E-02;  0.0000000E+00;  2.8834742E-04;  0.0000000E+00;
  2.4783950E+00;  9.9999998E-03; -4.7556750E-09;302;  1.6947417E-02;  0.0000000E+00; -7.0757191E-09;  9.9881573E+00;  4.3508220E-01; -1.2305396E+00;3; -9.2441048E-03;  0.0000000E+00; -8.0280188E-08;  0.0000000E+00;  0.0000000E+00;  0.0000000E+00;0;  2.3566065E-02;  8.5227036E+01;  0.0000000E+00;  5.1415133E-15;  1.0000000E+02;  0.0000000E+00;  9.8934990E+01;  2.2765853E-02;  0.0000000E+00;  8.0021197E-04;  0.0000000E+00;
  2.4762657E+00;  9.9999998E-03;  1.9941464E-01;303;  1.6680527E-02;  0.0000000E+00; -2.4478612E-04;  9.9883194E+00;  4.3469515E-01; -1.2139879E+00;3; -8.3656088E-03;  0.0000000E+00;  1.1436842E-04;  0.0000000E+00;  0.0000000E+00;  0.0000000E+00;0;  2.3190429E-02;  8.5371376E+01;  0.0000000E+00;  1.8889423E-05;  1.0000000E+02;  0.0000000E+00;  9.8946190E+01;  2.2394117E-02;  0.0000000E+00;  7.9631328E-04;  0.0000000E+00;
  2.4711230E+00;  9.9999998E-03;  3.9920199E-01;304;  1.7338049E-02;  0.0000000E+00; -3.8595998E-04;  9.9888210E+00;  4.3354431E-01; -1.1625011E+00;3; -5.4501351E-03;  0.0000000E+00;  1.8646491E-05;  0.0000000E+00;  0.0000000E+00;  0.0000000E+00;0;  2.2090103E-02;  8.5768936E+01;  0.0000000E+00;  3.7940536E-05;  1.0000000E+02;  0.0000000E+00;  9.9026878E+01;  2.1360504E-02;  0.0000000E+00;  7.2959921E-04;  0.0000000E+00;
  2.4629061E+00;  9.9999998E-03;  6.0085702E-01;305;  1.7191110E-02;  0.0000000E+00; -1.5258919E-04;  9.9895277E+00;  4.3203714E-01; -1.0900419E+00;3; -5.1384047E-04;  0.0000000E+00; -1.7912269E-06;  0.0000000E+00;  0.0000000E+00;  0.0000000E+00;0;  2.0560691E-02;  8.6322693E+01;  0.0000000E+00;  1.1006745E-04;  1.0000000E+02;  0.0000000E+00;  9.9090630E+01;  1.9933246E-02;  0.0000000E+00;  6.2744581E-04;  0.0000000E+00;
  2.4577515E+00;  9.9999998E-03;  8.0283844E-01;306;  1.7467679E-02;  0.0000000E+00;  2.4137439E-04;  9.9902372E+00;  4.3055555E-01; -1.0167222E+00;3; -1.3900107E-04;  0.0000000E+00; -5.6741650E-05;  0.0000000E+00;  0.0000000E+00;  0.0000000E+00;0;  1.9083485E-02;  8.6904449E+01;  0.0000000E+00;  2.7284672E-04;  1.0000000E+02;  0.0000000E+00;  9.9119583E+01;  1.8502362E-02;  0.0000000E+00;  5.8112270E-04;  0.0000000E+00;
  2.4554081E+00;  9.9999998E-03;  1.0045767E+00;307;  1.6935986E-02;  0.0000000E+00;  5.8857584E-04;  9.9908285E+00;  4.2928946E-01; -9.5538527E-01;3;  1.5738599E-04;  0.0000000E+00; -6.3684623E-05;  0.0000000E+00;  0.0000000E+00;  0.0000000E+00;0;  1.7863469E-02;  8.7408867E+01;  0.0000000E+00;  1.3059948E-03;  1.0000000E+02;  0.0000000E+00;  9.9143471E+01;  1.7319201E-02;  0.0000000E+00;  5.4426823E-04;  0.0000000E+00;
  2.7017722E+00;  9.9999998E-03; -6.9820123E-09;313;  2.9662587E-02;  0.0000000E+00; -3.7379784E-09;  9.9887390E+00;  4.3912148E-01; -1.1326306E+00;3; -3.2125274E-03;  0.0000000E+00; -2.3459855E-08;  0.0000000E+00;  0.0000000E+00;  0.0000000E+00;0;  2.6569702E-02;  8.4268364E+01;  0.0000000E+00;  6.7669022E-14;  1.0000000E+02;  0.0000000E+00;  9.8241287E+01;  2.4945416E-02;  0.0000000E+00;  1.6242868E-03;  0.0000000E+00;
  2.6982186E+00;  9.9999998E-03;  1.9969486E-01;314;  2.8447054E-02;  0.0000000E+00; -2.4351836E-04;  9.9888420E+00;  4.3888000E-01; -1.1229531E+00;3; -2.6671519E-03;  0.0000000E+00; -6.5807559E-05;  0.0000000E+00;  0.0000000E+00;  0.0000000E+00;0;  2.6260063E-02;  8.4339928E+01;  0.0000000E+00;  6.4462788E-06;  1.0000000E+02;  0.0000000E+00;  9.8267601E+01;  2.4664573E-02;  0.0000000E+00;  1.5954898E-03;  0.0000000E+00;
  2.6884291E+00;  9.9999998E-03;  4.0060762E-01;315;  2.5343377E-02;  0.0000000E+00; -3.2749755E-04;  9.9891558E+00;  4.3818215E-01; -1.0932448E+00;3; -2.2304233E-03;  0.0000000E+00; -1.8488198E-04;  0.0000000E+00;  0.0000000E+00;  0.0000000E+00;0;  2.5305340E-02;  8.4542641E+01;  0.0000000E+00;  1.0291732E-04;  1.0000000E+02;  0.0000000E+00;  9.8349274E+01;  2.3862222E-02;  0.0000000E+00;  1.4431173E-03;  0.0000000E+00;
  2.6753080E+00;  9.9999998E-03;  6.0319477E-01;316;  2.0013610E-02;  0.0000000E+00;  9.8338722E-05;  9.9896269E+00;  4.3737194E-01; -1.0480504E+00;3; -2.3207902E-03;  0.0000000E+00; -5.9247343E-04;  0.0000000E+00;  0.0000000E+00;  0.0000000E+00;0;  2.3975674E-02;  8.4833504E+01;  0.0000000E+00;  8.8208204E-04;  1.0000000E+02;  0.0000000E+00;  9.8389198E+01;  2.2721080E-02;  0.0000000E+00;  1.2545942E-03;  0.0000000E+00;
  2.6650102E+00;  9.9999998E-03;  8.0576843E-01;317;  1.7424399E-02;  0.0000000E+00;  7.0310209E-04;  9.9901094E+00;  4.3652916E-01; -1.0010540E+00;3; -1.9166313E-04;  0.0000000E+00; -8.0018617E-05;  0.0000000E+00;  0.0000000E+00;  0.0000000E+00;0;  2.2654537E-02;  8.5146873E+01;  0.0000000E+00;  1.5655534E-03;  1.0000000E+02;  0.0000000E+00;  9.8414322E+01;  2.1484364E-02;  0.0000000E+00;  1.1701725E-03;  0.0000000E+00;
  2.6592791E+00;  9.9999998E-03;  1.0080885E+00;318;  1.6881473E-02;  0.0000000E+00;  1.2197768E-03;  9.9905396E+00;  4.3579850E-01; -9.5840675E-01;3;  2.8242033E-05;  0.0000000E+00; -3.6601146E-04;  0.0000000E+00;  0.0000000E+00;  0.0000000E+00;0;  2.1571802E-02;  8.5418205E+01;  0.0000000E+00;  2.2656578E-03;  1.0000000E+02;  0.0000000E+00;  9.8439201E+01;  2.0455128E-02;  0.0000000E+00;  1.1166744E-03;  0.0000000E+00;
  2.9131823E+00;  9.9999998E-03; -4.3867768E-10;324;  3.6565255E-02;  0.0000000E+00;  2.5545608E-09;  9.9892578E+00;  4.4398665E-01; -1.0386654E+00;3; -5.0409016E-04;  0.0000000E+00;  7.7054551E-08;  0.0000000E+00;  0.0000000E+00;  0.0000000E+00;0;  2.9318934E-02;  8.3152603E+01;  0.0000000E+00;  8.9050295E-14;  1.0000000E+02;  0.0000000E+00;  9.7399956E+01;  2.6566589E-02;  0.0000000E+00;  2.7523448E-03;  0.0000000E+00;
  2.9090865E+00;  9.9999998E-03;  2.0070070E-01;325;  3.4873582E-02;  0.0000000E+00; -1.9071766E-04;  9.9892883E+00;  4.4394967E-01; -1.0365245E+00;3; -2.1013754E-04;  0.0000000E+00; -1.7118029E-04;  0.0000000E+00;  0.0000000E+00;  0.0000000E+00;0;  2.9148782E-02;  8.3141068E+01;  0.0000000E+00;  2.1519163E-05;  1.0000000E+02;  0.0000000E+00;  9.7430923E+01;  2.6458405E-02;  0.0000000E+00;  2.6903774E-03;  0.0000000E+00;
  2.9001582E+00;  9.9999998E-03;  4.0348643E-01;326;  3.0729298E-02;  0.0000000E+00;  1.4093379E-04;  9.9893913E+00;  4.4397655E-01; -1.0282766E+00;3;  4.9034681E-04;  0.0000000E+00; -3.6839113E-04;  0.0000000E+00;  0.0000000E+00;  0.0000000E+00;0;  2.8697308E-02;  8.3111397E+01;  0.0000000E+00;  1.0592726E-04;  1.0000000E+02;  0.0000000E+00;  9.7455467E+01;  2.6151311E-02;  0.0000000E+00;  2.5459977E-03;  0.0000000E+00;
  2.8899815E+00;  9.9999998E-03;  6.0688484E-01;327;  2.5947066E-02;  0.0000000E+00;  8.7723922E-04;  9.9895334E+00;  4.4412789E-01; -1.0164827E+00;3; -1.2790847E-03;  0.0000000E+00; -6.7078252E-04;  0.0000000E+00;  0.0000000E+00;  0.0000000E+00;0;  2.8110335E-02;  8.3073990E+01;  0.0000000E+00;  4.3356347E-05;  1.0000000E+02;  0.0000000E+00;  9.7433914E+01;  2.5698554E-02;  0.0000000E+00;  2.4117804E-03;  0.0000000E+00;
  2.8801615E+00;  9.9999998E-03;  8.1000119E-01;328;  2.0754166E-02;  0.0000000E+00;  1.6791609E-03;  9.9896603E+00;  4.4428813E-01; -1.0060269E+00;3; -1.2864444E-03;  0.0000000E+00; -6.3714769E-04;  0.0000000E+00;  0.0000000E+00;  0.0000000E+00;0;  2.7561765E-02;  8.3028969E+01;  0.0000000E+00; -1.1814055E-03;  1.0000000E+02;  0.0000000E+00;  9.7422836E+01;  2.5213225E-02;  0.0000000E+00;  2.3485401E-03;  0.0000000E+00;
  2.8740940E+00;  9.9999998E-03;  1.0129987E+00;329;  1.6824653E-02;  0.0000000E+00;  2.3877460E-03;  9.9897690E+00;  4.4442904E-01; -9.9662155E-01;3;  7.4885779E-06;  0.0000000E+00; -4.8715717E-04;  0.0000000E+00;  0.0000000E+00;  0.0000000E+00;0;  2.7160132E-02;  8.2978966E+01;  0.0000000E+00; -2.3761981E-03;  1.0000000E+02;  0.0000000E+00;  9.7419777E+01;  2.4860008E-02;  0.0000000E+00;  2.3001241E-03;  0.0000000E+00;
  3.1206090E+00;  9.9999998E-03; -1.0246275E-08;335;  3.8723141E-02;  0.0000000E+00; -2.0200817E-08;  9.9894285E+00;  4.5061263E-01; -9.8679078E-01;3;  3.0786879E-03;  0.0000000E+00;  1.4078978E-08;  0.0000000E+00;  0.0000000E+00;  0.0000000E+00;0;  3.2848362E-02;  8.1505051E+01;  0.0000000E+00;  5.8568839E-14;  1.0000000E+02;  0.0000000E+00;  9.6470749E+01;  2.8716983E-02;  0.0000000E+00;  4.1313777E-03;  0.0000000E+00;
  3.1179428E+00;  9.9999998E-03;  2.0302358E-01;336;  3.6802616E-02;  0.0000000E+00; -1.5517153E-05;  9.9894180E+00;  4.5080256E-01; -9.8817539E-01;3;  1.6849857E-03;  0.0000000E+00; -1.8541254E-05;  0.0000000E+00;  0.0000000E+00;  0.0000000E+00;0;  3.2826282E-02;  8.1430656E+01;  0.0000000E+00; -1.9701931E-05;  1.0000000E+02;  0.0000000E+00;  9.6477730E+01;  2.8778285E-02;  0.0000000E+00;  4.0479964E-03;  0.0000000E+00;
  3.1121252E+00;  9.9999998E-03;  4.0752250E-01;337;  3.3410031E-02;  0.0000000E+00;  1.3245011E-03;  9.9892893E+00;  4.5150080E-01; -1.0010513E+00;3;  1.1618577E-03;  0.0000000E+00; -9.5713185E-04;  0.0000000E+00;  0.0000000E+00;  0.0000000E+00;0;  3.3082798E-02;  8.1225395E+01;  0.0000000E+00; -2.8070612E-04;  1.0000000E+02;  0.0000000E+00;  9.6419693E+01;  2.8970942E-02;  0.0000000E+00;  4.1118576E-03;  0.0000000E+00;
  3.1062100E+00;  9.9999998E-03;  6.1124825E-01;338;  2.8844437E-02;  0.0000000E+00;  2.3378965E-03;  9.9891243E+00;  4.5245108E-01; -1.0173185E+00;3;  8.6914777E-04;  0.0000000E+00; -1.1776934E-03;  0.0000000E+00;  0.0000000E+00;  0.0000000E+00;0;  3.3463743E-02;  8.0935005E+01;  0.0000000E+00; -1.5983421E-03;  1.0000000E+02;  0.0000000E+00;  9.6356613E+01;  2.9277386E-02;  0.0000000E+00;  4.1863578E-03;  0.0000000E+00;
  3.1036711E+00;  9.9999998E-03;  8.1492573E-01;339;  2.6446400E-02;  0.0000000E+00;  3.1913556E-03;  9.9889870E+00;  4.5349315E-01; -1.0305890E+00;3; -3.7199161E-03;  0.0000000E+00; -3.2041129E-04;  0.0000000E+00;  0.0000000E+00;  0.0000000E+00;0;  3.3837706E-02;  8.0612343E+01;  0.0000000E+00; -3.6764613E-03;  1.0000000E+02;  0.0000000E+00;  9.6297211E+01;  2.9706860E-02;  0.0000000E+00;  4.1308440E-03;  0.0000000E+00;
  3.1028397E+00;  9.9999998E-03;  1.0187364E+00;340;  2.6447367E-02;  0.0000000E+00;  4.1848915E-03;  9.9888077E+00;  4.5446083E-01; -1.0475084E+00;3; -3.5641431E-03;  0.0000000E+00; -8.1905373E-04;  0.0000000E+00;  0.0000000E+00;  0.0000000E+00;0;  3.4370575E-02;  8.0318802E+01;  0.0000000E+00; -3.8829788E-03;  1.0000000E+02;  0.0000000E+00;  9.6236427E+01;  3.0142916E-02;  0.0000000E+00;  4.2276573E-03;  0.0000000E+00;
  3.3366752E+00;  9.9999998E-03;  2.2967232E-11;346;  4.0644951E-02;  0.0000000E+00; -2.2335678E-08;  9.9892235E+00;  4.5895034E-01; -9.8145705E-01;3; -2.6972112E-04;  0.0000000E+00; -2.0627340E-08;  0.0000000E+00;  0.0000000E+00;  0.0000000E+00;0;  3.7724014E-02;  7.9341156E+01;  0.0000000E+00;  2.3815482E-14;  1.0000000E+02;  0.0000000E+00;  9.5529442E+01;  3.2015536E-02;  0.0000000E+00;  5.7084775E-03;  0.0000000E+00;
  3.3361468E+00;  9.9999998E-03;  2.0624086E-01;347;  3.9979979E-02;  0.0000000E+00;  1.0368042E-03;  9.9891605E+00;  4.5933345E-01; -9.8725516E-01;3; -7.6842285E-04;  0.0000000E+00; -5.6206034E-05;  0.0000000E+00;  0.0000000E+00;  0.0000000E+00;0;  3.7934273E-02;  7.9238480E+01;  0.0000000E+00;  7.8921192E-05;  1.0000000E+02;  0.0000000E+00;  9.5493256E+01;  3.2227542E-02;  0.0000000E+00;  5.7067322E-03;  0.0000000E+00;
  3.3343382E+00;  9.9999998E-03;  4.1090080E-01;348;  3.7941765E-02;  0.0000000E+00;  2.6306212E-03;  9.9889555E+00;  4.6027127E-01; -1.0060836E+00;3; -2.0552746E-03;  0.0000000E+00;  1.1070844E-03;  0.0000000E+00;  0.0000000E+00;  0.0000000E+00;0;  3.8645804E-02;  7.8965263E+01;  0.0000000E+00;  1.4517596E-04;  1.0000000E+02;  0.0000000E+00;  9.5429871E+01;  3.2786582E-02;  0.0000000E+00;  5.8592227E-03;  0.0000000E+00;
  3.3332155E+00;  9.9999998E-03;  6.1529994E-01;349;  3.6500696E-02;  0.0000000E+00;  3.7835278E-03;  9.9886694E+00;  4.6158364E-01; -1.0322435E+00;3; -2.8846962E-03;  0.0000000E+00; -1.3579238E-03;  0.0000000E+00;  0.0000000E+00;  0.0000000E+00;0;  3.9596133E-02;  7.8590599E+01;  0.0000000E+00; -8.7912056E-05;  1.0000000E+02;  0.0000000E+00;  9.5335831E+01;  3.3596259E-02;  0.0000000E+00;  5.9998734E-03;  0.0000000E+00;
  3.3339043E+00;  9.9999998E-03;  8.1966323E-01;350;  3.6446247E-02;  0.0000000E+00;  4.9321759E-03;  9.9883785E+00;  4.6297526E-01; -1.0586801E+00;3; -2.9324568E-03;  0.0000000E+00; -6.7038479E-04;  0.0000000E+00;  0.0000000E+00;  0.0000000E+00;0;  4.0626086E-02;  7.8191971E+01;  0.0000000E+00; -2.5083835E-05;  1.0000000E+02;  0.0000000E+00;  9.5242043E+01;  3.4491900E-02;  0.0000000E+00;  6.1341864E-03;  0.0000000E+00;
  3.3356781E+00;  9.9999998E-03;  1.0242505E+00;351;  3.7497748E-02;  0.0000000E+00;  6.2081148E-03;  9.9881058E+00;  4.6422744E-01; -1.0833309E+00;3; -2.5069749E-03;  0.0000000E+00; -5.5189227E-04;  0.0000000E+00;  0.0000000E+00;  0.0000000E+00;0;  4.1656874E-02;  7.7836601E+01;  0.0000000E+00;  7.7771349E-04;  1.0000000E+02;  0.0000000E+00;  9.5157669E+01;  3.5294503E-02;  0.0000000E+00;  6.3623730E-03;  0.0000000E+00;
  3.5620565E+00;  9.9999998E-03;  4.1229105E-09;357;  4.6636816E-02;  0.0000000E+00; -2.3596471E-08;  9.9888115E+00;  4.6791360E-01; -1.0052810E+00;3; -2.4762254E-03;  0.0000000E+00; -3.1827152E-08;  0.0000000E+00;  0.0000000E+00;  0.0000000E+00;0;  4.3661226E-02;  7.7016418E+01;  0.0000000E+00;  9.2520562E-14;  1.0000000E+02;  0.0000000E+00;  9.4672821E+01;  3.6374640E-02;  0.0000000E+00;  7.2865868E-03;  0.0000000E+00;
  3.5630147E+00;  9.9999998E-03;  2.0820503E-01;358;  4.7075313E-02;  0.0000000E+00;  2.0373731E-03;  9.9887381E+00;  4.6830273E-01; -1.0118296E+00;3; -2.0944213E-03;  0.0000000E+00; -2.9570920E-05;  0.0000000E+00;  0.0000000E+00;  0.0000000E+00;0;  4.3968581E-02;  7.6928452E+01;  0.0000000E+00;  3.1374267E-04;  1.0000000E+02;  0.0000000E+00;  9.4622620E+01;  3.6626179E-02;  0.0000000E+00;  7.3424024E-03;  0.0000000E+00;
  3.5640922E+00;  9.9999998E-03;  4.1339833E-01;359;  4.6816777E-02;  0.0000000E+00;  3.7030694E-03;  9.9885540E+00;  4.6911958E-01; -1.0283334E+00;3; -2.3698949E-03;  0.0000000E+00;  4.0508635E-04;  0.0000000E+00;  0.0000000E+00;  0.0000000E+00;0;  4.4708174E-02;  7.6702774E+01;  0.0000000E+00;  1.2629235E-03;  1.0000000E+02;  0.0000000E+00;  9.4568420E+01;  3.7224963E-02;  0.0000000E+00;  7.4832090E-03;  0.0000000E+00;
  3.5652089E+00;  9.9999998E-03;  6.1842847E-01;360;  4.6540082E-02;  0.0000000E+00;  5.1223831E-03;  9.9883099E+00;  4.7020617E-01; -1.0502428E+00;3; -2.5470981E-03;  0.0000000E+00; -1.2930483E-03;  0.0000000E+00;  0.0000000E+00;  0.0000000E+00;0;  4.5681149E-02;  7.6406532E+01;  0.0000000E+00;  2.5940186E-03;  1.0000000E+02;  0.0000000E+00;  9.4491707E+01;  3.8001690E-02;  0.0000000E+00;  7.6794582E-03;  0.0000000E+00;
  3.5669682E+00;  9.9999998E-03;  8.2347423E-01;361;  4.6762500E-02;  0.0000000E+00;  6.4394358E-03;  9.9880867E+00;  4.7132075E-01; -1.0701956E+00;3; -2.4550930E-03;  0.0000000E+00; -8.3966024E-04;  0.0000000E+00;  0.0000000E+00;  0.0000000E+00;0;  4.6593752E-02;  7.6103783E+01;  0.0000000E+00;  3.5825791E-03;  1.0000000E+02;  0.0000000E+00;  9.4415939E+01;  3.8789265E-02;  0.0000000E+00;  7.8044869E-03;  0.0000000E+00;
  3.5696037E+00;  9.9999998E-03;  1.0287744E+00;362;  4.8223674E-02;  0.0000000E+00;  7.9143764E-03;  9.9878988E+00;  4.7229686E-01; -1.0869502E+00;3; -1.4399716E-03;  0.0000000E+00;  3.5055555E-04;  0.0000000E+00;  0.0000000E+00;  0.0000000E+00;0;  4.7441430E-02;  7.5840836E+01;  0.0000000E+00;  2.9562649E-03;  1.0000000E+02;  0.0000000E+00;  9.4349449E+01;  3.9455131E-02;  0.0000000E+00;  7.9863006E-03;  0.0000000E+00;
  3.7937775E+00;  9.9999998E-03;  2.6656950E-09;368;  5.5793017E-02;  0.0000000E+00; -2.1651331E-08;  9.9884596E+00;  4.7607321E-01; -1.0304741E+00;3; -2.7369808E-03;  0.0000000E+00; -8.3169066E-10;  0.0000000E+00;  0.0000000E+00;  0.0000000E+00;0;  4.9447261E-02;  7.4952705E+01;  0.0000000E+00;  2.6834725E-13;  1.0000000E+02;  0.0000000E+00;  9.3967308E+01;  4.0811293E-02;  0.0000000E+00;  8.6359670E-03;  0.0000000E+00;
  3.7953165E+00;  9.9999998E-03;  2.0810048E-01;369;  5.6504577E-02;  0.0000000E+00;  2.6168062E-03;  9.9884167E+00;  4.7628677E-01; -1.0342791E+00;3; -2.2522584E-03;  0.0000000E+00;  2.0855045E-06;  0.0000000E+00;  0.0000000E+00;  0.0000000E+00;0;  4.9661007E-02;  7.4903664E+01;  0.0000000E+00;  2.6780044E-04;  1.0000000E+02;  0.0000000E+00;  9.3943558E+01;  4.0962867E-02;  0.0000000E+00;  8.6981393E-03;  0.0000000E+00;
  3.7978544E+00;  9.9999998E-03;  4.1448295E-01;370;  5.7308815E-02;  0.0000000E+00;  4.4660931E-03;  9.9883232E+00;  4.7675225E-01; -1.0425370E+00;3; -1.7326515E-03;  0.0000000E+00;  2.3704293E-04;  0.0000000E+00;  0.0000000E+00;  0.0000000E+00;0;  5.0110746E-02;  7.4782043E+01;  0.0000000E+00;  1.2326648E-03;  1.0000000E+02;  0.0000000E+00;  9.3911919E+01;  4.1306205E-02;  0.0000000E+00;  8.8045411E-03;  0.0000000E+00;
  3.7996473E+00;  9.9999998E-03;  6.2040764E-01;371;  5.7465822E-02;  0.0000000E+00;  5.9686028E-03;  9.9882174E+00;  4.7732615E-01; -1.0519785E+00;3; -1.4635407E-03;  0.0000000E+00; -1.0146144E-03;  0.0000000E+00;  0.0000000E+00;  0.0000000E+00;0;  5.0571702E-02;  7.4633255E+01;  0.0000000E+00;  2.6635008E-03;  1.0000000E+02;  0.0000000E+00;  9.3870605E+01;  4.1696489E-02;  0.0000000E+00;  8.8752145E-03;  0.0000000E+00;
  3.8012145E+00;  9.9999998E-03;  8.2621604E-01;372;  5.7514545E-02;  0.0000000E+00;  7.5053400E-03;  9.9881325E+00;  4.7787422E-01; -1.0595078E+00;3; -1.2146325E-03;  0.0000000E+00; -7.4155733E-04;  0.0000000E+00;  0.0000000E+00;  0.0000000E+00;0;  5.0989635E-02;  7.4490540E+01;  0.0000000E+00;  3.2552893E-03;  1.0000000E+02;  0.0000000E+00;  9.3833565E+01;  4.2054016E-02;  0.0000000E+00;  8.9356173E-03;  0.0000000E+00;
  3.8030589E+00;  9.9999998E-03;  1.0321674E+00;373;  5.8311999E-02;  0.0000000E+00;  9.1296425E-03;  9.9880724E+00;  4.7832355E-01; -1.0648503E+00;3; -2.6915444E-04;  0.0000000E+00;  8.1705890E-04;  0.0000000E+00;  0.0000000E+00;  0.0000000E+00;0;  5.1304780E-02;  7.4373520E+01;  0.0000000E+00;  1.4865864E-03;  1.0000000E+02;  0.0000000E+00;  9.3803574E+01;  4.2328268E-02;  0.0000000E+00;  8.9765107E-03;  0.0000000E+00;
  3.9716077E+00;  9.9999998E-03;  1.1357176E-10;379;  6.6977464E-02;  0.0000000E+00; -1.7104243E-08;  9.9883184E+00;  2.4132502E-01; -1.0407623E+00;3; -1.9137552E-03;  0.0000000E+00;  7.9556088E-08;  0.0000000E+00;  0.0000000E+00;  0.0000000E+00;1;  5.3031836E-02;  2.9337524E+02;  0.0000000E+00;  1.1930317E-12;  1.0000000E+02;  0.0000000E+00;  9.3426941E+01;  4.3609980E-02;  0.0000000E+00;  9.4218561E-03;  0.0000000E+00;
  4.0892982E+00;  9.9999998E-03;  2.0645137E-01;380;  6.7692660E-02;  0.0000000E+00;  2.5298956E-03;  9.9882917E+00;  2.4135154E-01; -1.0423152E+00;3; -9.3221688E-04;  0.0000000E+00; -5.8367179E-04;  0.0000000E+00;  0.0000000E+00;  0.0000000E+00;1;  5.4841492E-02;  2.9324423E+02;  0.0000000E+00; -7.7193463E-04;  1.0000000E+02;  0.0000000E+00;  9.3447708E+01;  4.5012258E-02;  0.0000000E+00;  9.8292334E-03;  0.0000000E+00;
  4.0913844E+00;  9.9999998E-03;  4.1460553E-01;381;  6.8427980E-02;  0.0000000E+00;  4.5832605E-03;  9.9883108E+00;  2.4140815E-01; -1.0406055E+00;3; -2.5858707E-04;  0.0000000E+00;  1.5903392E-04;  0.0000000E+00;  0.0000000E+00;  0.0000000E+00;1;  5.4780215E-02;  2.9314209E+02;  0.0000000E+00; -4.4135866E-03;  1.0000000E+02;  0.0000000E+00;  9.3436752E+01;  4.4970796E-02;  0.0000000E+00;  9.8094186E-03;  0.0000000E+00;
  4.0924482E+00;  9.9999998E-03;  6.2161356E-01;382;  6.8380319E-02;  0.0000000E+00;  6.4049098E-03;  9.9883471E+00;  2.4146451E-01; -1.0373629E+00;3;  1.0758056E-04;  0.0000000E+00; -3.5065186E-04;  0.0000000E+00;  0.0000000E+00;  0.0000000E+00;1;  5.4626510E-02;  2.9304300E+02;  0.0000000E+00; -1.0904994E-02;  1.0000000E+02;  0.0000000E+00;  9.3425049E+01;  4.4891074E-02;  0.0000000E+00;  9.7354334E-03;  0.0000000E+00;
  4.0929980E+00;  9.9999998E-03;  8.2818729E-01;383;  6.7963630E-02;  0.0000000E+00;  8.3529782E-03;  9.9883575E+00;  2.4149992E-01; -1.0364579E+00;3;  2.6055551E-04;  0.0000000E+00;  1.0586210E-03;  0.0000000E+00;  0.0000000E+00;  0.0000000E+00;1;  5.4621540E-02;  2.9297302E+02;  0.0000000E+00; -1.3725751E-02;  1.0000000E+02;  0.0000000E+00;  9.3420250E+01;  4.4791590E-02;  0.0000000E+00;  9.8299496E-03;  0.0000000E+00;
  4.0933952E+00;  9.9999998E-03;  1.0347208E+00;384;  6.7699879E-02;  0.0000000E+00;  1.0235810E-02;  9.9883728E+00;  2.4152233E-01; -1.0350760E+00;3;  4.7420050E-04;  0.0000000E+00;  1.6358529E-03;  0.0000000E+00;  0.0000000E+00;  0.0000000E+00;1;  5.4596785E-02;  2.9292899E+02;  0.0000000E+00; -5.3516277E-03;  1.0000000E+02;  0.0000000E+00;  9.3416786E+01;  4.4692084E-02;  0.0000000E+00;  9.9047022E-03;  0.0000000E+00;
  4.2113948E+00;  9.9999998E-03;  5.0020449E-10;390;  8.0456935E-02;  0.0000000E+00; -1.5190917E-08;  9.9882698E+00;  2.4389446E-01; -1.0437362E+00;3;  1.1606026E-06;  0.0000000E+00;  2.0126934E-07;  0.0000000E+00;  0.0000000E+00;  0.0000000E+00;1;  5.6433089E-02;  2.8846954E+02;  0.0000000E+00;  1.0547275E-13;  1.0000000E+02;  0.0000000E+00;  9.3022423E+01;  4.6281148E-02;  0.0000000E+00;  1.0151943E-02;  0.0000000E+00;
  4.2108722E+00;  9.9999998E-03;  2.0513608E-01;391;  7.9732105E-02;  0.0000000E+00;  2.1381285E-03;  9.9882917E+00;  2.4379410E-01; -1.0417758E+00;3; -1.0382116E-04;  0.0000000E+00; -3.5724873E-04;  0.0000000E+00;  0.0000000E+00;  0.0000000E+00;1;  5.6319963E-02;  2.8849451E+02;  0.0000000E+00;  6.3009429E-05;  1.0000000E+02;  0.0000000E+00;  9.3091103E+01;  4.6212941E-02;  0.0000000E+00;  1.0107022E-02;  0.0000000E+00;
  4.2095499E+00;  9.9999998E-03;  6.2269157E-01;541;  7.8606270E-02;  0.0000000E+00;  6.5389369E-03;  9.9883862E+00;  2.4374373E-01; -1.0334007E+00;3;  5.6400866E-04;  0.0000000E+00; -6.4882427E-04; -4.3160208E+08; -4.3160208E+08; -4.3160208E+08;1;  5.5847418E-02;  2.8863419E+02;  0.0000000E+00; -2.1085360E-03;  1.0000000E+02;  0.0000000E+00;  9.3085526E+01;  4.5859315E-02;  0.0000000E+00;  9.9881021E-03;  0.0000000E+00;
  4.2105570E+00;  9.9999998E-03;  4.1485587E-01;542;  7.9407357E-02;  0.0000000E+00;  4.5002378E-03;  9.9883327E+00;  2.4377343E-01; -1.0381174E+00;3;  3.3276225E-04;  0.0000000E+00;  7.9914718E-04; -4.3160208E+08; -4.3160208E+08; -4.3160208E+08;1;  5.6116581E-02;  2.8855371E+02;  0.0000000E+00; -9.0118963E-04;  1.0000000E+02;  0.0000000E+00;  9.3088455E+01;  4.6058588E-02;  0.0000000E+00;  1.0057994E-02;  0.0000000E+00;
  4.2075052E+00;  9.9999998E-03;  1.0367186E+00;546;  7.6835319E-02;  0.0000000E+00;  1.0426537E-02;  9.9884729E+00;  2.4367957E-01; -1.0256644E+00;3;  5.9645192E-04;  0.0000000E+00;  5.0699554E-04; -4.3160208E+08; -4.3160208E+08; -4.3160208E+08;1;  5.5413593E-02;  2.8876740E+02;  0.0000000E+00;  7.8343233E-04;  1.0000000E+02;  0.0000000E+00;  9.3093353E+01;  4.5466430E-02;  0.0000000E+00;  9.9471631E-03;  0.0000000E+00;
  4.2085137E+00;  9.9999998E-03;  8.2978636E-01;547;  7.7693745E-02;  0.0000000E+00;  8.5382052E-03;  9.9884272E+00;  2.4370405E-01; -1.0297449E+00;3;  5.9086777E-04;  0.0000000E+00;  6.4524612E-04; -4.3160208E+08; -4.3160208E+08; -4.3160208E+08;1;  5.5661354E-02;  2.8871545E+02;  0.0000000E+00; -2.1011978E-03;  1.0000000E+02;  0.0000000E+00;  9.3090660E+01;  4.5653831E-02;  0.0000000E+00;  1.0007524E-02;  0.0000000E+00;
  3.9767439E+00;  9.9999998E-03;  8.2817680E-01;551;  6.7908861E-02;  0.0000000E+00;  7.9617435E-03;  9.9882898E+00;  2.4146678E-01; -1.0432661E+00;3; -2.4031787E-04;  0.0000000E+00; -2.5583745E-03; -4.3160208E+08; -4.3160208E+08; -4.3160208E+08;1;  5.3162709E-02;  2.9303998E+02;  0.0000000E+00; -1.2638721E-02;  1.0000000E+02;  0.0000000E+00;  9.3423409E+01;  4.3777134E-02;  0.0000000E+00;  9.3855737E-03;  0.0000000E+00;
  3.9771323E+00;  9.9999998E-03;  1.0346870E+00;552;  6.7665026E-02;  0.0000000E+00;  9.6007772E-03;  9.9883528E+00;  2.4149002E-01; -1.0376869E+00;3;  2.1193115E-04;  0.0000000E+00;  5.4663810E-04; -4.3160208E+08; -4.3160208E+08; -4.3160208E+08;1;  5.2898586E-02;  2.9299060E+02;  0.0000000E+00; -4.6546427E-03;  1.0000000E+02;  0.0000000E+00;  9.3421768E+01;  4.3759808E-02;  0.0000000E+00;  9.1387769E-03;  0.0000000E+00;
  3.9761848E+00;  9.9999998E-03;  6.2161952E-01;554;  6.8320975E-02;  0.0000000E+00;  6.3683689E-03;  9.9882765E+00;  2.4142838E-01; -1.0444924E+00;3; -4.5542448E-04;  0.0000000E+00; -1.4591219E-03; -4.3160208E+08; -4.3160208E+08; -4.3160208E+08;1;  5.3282138E-02;  2.9311423E+02;  0.0000000E+00; -1.0278823E-02;  1.0000000E+02;  0.0000000E+00;  9.3428940E+01;  4.3765973E-02;  0.0000000E+00;  9.5161647E-03;  0.0000000E+00;
  3.9751172E+00;  9.9999998E-03;  4.1461289E-01;556;  6.8364695E-02;  0.0000000E+00;  4.6759513E-03;  9.9882870E+00;  2.4136856E-01; -1.0435458E+00;3; -8.8104844E-04;  0.0000000E+00;  1.0230638E-03; -4.3160208E+08; -4.3160208E+08; -4.3160208E+08;1;  5.3226732E-02;  2.9321777E+02;  0.0000000E+00; -4.2219190E-03;  1.0000000E+02;  0.0000000E+00;  9.3442963E+01;  4.3720532E-02;  0.0000000E+00;  9.5061986E-03;  0.0000000E+00;
  4.0878572E+00;  9.9999998E-03;  1.2249882E-10;558;  6.7047633E-02;  0.0000000E+00; -1.5911073E-08;  9.9882889E+00;  2.4136853E-01; -1.0425885E+00;3; -1.2099202E-03;  0.0000000E+00;  1.4225387E-07; -4.3160208E+08; -4.3160208E+08; -4.3160208E+08;1;  5.4838903E-02;  2.9329187E+02;  0.0000000E+00;  9.9566048E-13;  1.0000000E+02;  0.0000000E+00;  9.3419479E+01;  4.5019064E-02;  0.0000000E+00;  9.8198382E-03;  0.0000000E+00;
  3.9730394E+00;  9.9999998E-03;  2.0645589E-01;559;  6.7620702E-02;  0.0000000E+00;  2.6120474E-03;  9.9883070E+00;  2.4130939E-01; -1.0418116E+00;3; -1.6553141E-03;  0.0000000E+00;  2.8137522E-04; -4.3160208E+08; -4.3160208E+08; -4.3160208E+08;1;  5.3103175E-02;  2.9332486E+02;  0.0000000E+00; -7.4648939E-04;  1.0000000E+02;  0.0000000E+00;  9.3454910E+01;  4.3650851E-02;  0.0000000E+00;  9.4523244E-03;  0.0000000E+00;
  4.3237472E+00;  9.9999998E-03;  1.0367788E+00;395;  7.6893874E-02;  0.0000000E+00;  1.0551724E-02;  9.9885216E+00;  2.4374628E-01; -1.0210491E+00;3;  7.4167305E-04;  0.0000000E+00;  2.4299228E-03;  0.0000000E+00;  0.0000000E+00;  0.0000000E+00;1;  5.6289680E-02;  2.8864078E+02;  0.0000000E+00; -2.4935680E-03;  1.0000000E+02;  0.0000000E+00;  9.3083946E+01;  4.6332568E-02;  0.0000000E+00;  9.9571133E-03;  0.0000000E+00;
  4.3247633E+00;  9.9999998E-03;  8.2983869E-01;394;  7.7766933E-02;  0.0000000E+00;  8.6832866E-03;  9.9884357E+00;  2.4377102E-01; -1.0286818E+00;3;  8.2425668E-04;  0.0000000E+00; -1.2286506E-03;  0.0000000E+00;  0.0000000E+00;  0.0000000E+00;1;  5.6662202E-02;  2.8859253E+02;  0.0000000E+00; -3.8796903E-03;  1.0000000E+02;  0.0000000E+00;  9.3079308E+01;  4.6498813E-02;  0.0000000E+00;  1.0163390E-02;  0.0000000E+00;
  4.3257999E+00;  9.9999998E-03;  6.2271166E-01;393;  7.8699596E-02;  0.0000000E+00;  6.7134174E-03;  9.9883919E+00;  2.4380735E-01; -1.0325499E+00;3;  9.0179814E-04;  0.0000000E+00; -2.2058195E-04;  0.0000000E+00;  0.0000000E+00;  0.0000000E+00;1;  5.6929011E-02;  2.8851266E+02;  0.0000000E+00; -2.6407545E-03;  1.0000000E+02;  0.0000000E+00;  9.3076706E+01;  4.6690129E-02;  0.0000000E+00;  1.0238881E-02;  0.0000000E+00;
  4.3268232E+00;  9.9999998E-03;  4.1484660E-01;392;  7.9546042E-02;  0.0000000E+00;  4.4291834E-03;  9.9883537E+00;  2.4383779E-01; -1.0359409E+00;3;  8.6401397E-04;  0.0000000E+00;  5.4282357E-04;  0.0000000E+00;  0.0000000E+00;  0.0000000E+00;1;  5.7127252E-02;  2.8843317E+02;  0.0000000E+00; -9.4020000E-04;  1.0000000E+02;  0.0000000E+00;  9.3078735E+01;  4.6885531E-02;  0.0000000E+00;  1.0241722E-02;  0.0000000E+00;
  4.4520798E+00;  9.9999998E-03;  5.1611870E-09;401;  9.5008843E-02;  0.0000000E+00; -6.6950858E-09;  9.9882612E+00;  2.4586141E-01; -1.0439434E+00;3;  3.0233646E-03;  0.0000000E+00;  2.8335572E-07;  0.0000000E+00;  0.0000000E+00;  0.0000000E+00;1;  5.8419805E-02;  2.8473544E+02;  0.0000000E+00; -6.3080460E-13;  1.0000000E+02;  0.0000000E+00;  9.2741234E+01;  4.7855288E-02;  0.0000000E+00;  1.0564516E-02;  0.0000000E+00;
  4.4484406E+00;  9.9999998E-03;  2.0613743E-01;402;  9.2222035E-02;  0.0000000E+00;  1.7612152E-03;  9.9882946E+00;  2.4576949E-01; -1.0409799E+00;3;  1.8594082E-03;  0.0000000E+00; -1.2619108E-03;  0.0000000E+00;  0.0000000E+00;  0.0000000E+00;1;  5.8231544E-02;  2.8475708E+02;  0.0000000E+00;  8.1760489E-05;  1.0000000E+02;  0.0000000E+00;  9.2803940E+01;  4.7766812E-02;  0.0000000E+00;  1.0464733E-02;  0.0000000E+00;
  4.4449706E+00;  9.9999998E-03;  4.1605172E-01;403;  9.0229809E-02;  0.0000000E+00;  4.3462608E-03;  9.9883404E+00;  2.4577619E-01; -1.0369558E+00;3;  1.3938916E-03;  0.0000000E+00;  3.7817968E-04;  0.0000000E+00;  0.0000000E+00;  0.0000000E+00;1;  5.7987355E-02;  2.8474728E+02;  0.0000000E+00; -7.1424918E-05;  1.0000000E+02;  0.0000000E+00;  9.2802643E+01;  4.7633402E-02;  0.0000000E+00;  1.0353951E-02;  0.0000000E+00;
  4.5577970E+00;  9.9999998E-03;  6.2409252E-01;404;  8.8655308E-02;  0.0000000E+00;  6.9889198E-03;  9.9883127E+00;  2.4586147E-01; -1.0392709E+00;3;  1.4328921E-03;  0.0000000E+00;  2.0357642E-04;  0.0000000E+00;  0.0000000E+00;  0.0000000E+00;1;  5.8545310E-02;  2.8459946E+02;  0.0000000E+00;  1.9485139E-03;  1.0000000E+02;  0.0000000E+00;  9.2784508E+01;  4.7993302E-02;  0.0000000E+00;  1.0552007E-02;  0.0000000E+00;
  4.5550451E+00;  9.9999998E-03;  8.3133763E-01;405;  8.7340802E-02;  0.0000000E+00;  9.0360977E-03;  9.9883156E+00;  2.4591792E-01; -1.0390083E+00;3;  1.2156384E-03;  0.0000000E+00; -2.0410422E-05;  0.0000000E+00;  0.0000000E+00;  0.0000000E+00;1;  5.8518853E-02;  2.8449905E+02;  0.0000000E+00;  8.6089652E-03;  1.0000000E+02;  0.0000000E+00;  9.2775642E+01;  4.7964528E-02;  0.0000000E+00;  1.0554324E-02;  0.0000000E+00;
  4.5530710E+00;  9.9999998E-03;  1.0384569E+00;406;  8.6631738E-02;  0.0000000E+00;  1.0954961E-02;  9.9883461E+00;  2.4598575E-01; -1.0363069E+00;3;  1.5844575E-03;  0.0000000E+00;  1.3388179E-03;  0.0000000E+00;  0.0000000E+00;  0.0000000E+00;1;  5.8351368E-02;  2.8437204E+02;  0.0000000E+00;  2.2383224E-02;  1.0000000E+02;  0.0000000E+00;  9.2766785E+01;  4.7945451E-02;  0.0000000E+00;  1.0405918E-02;  0.0000000E+00;
  4.6865439E+00;  9.9999998E-03;  3.1357148E-09;412;  1.0585397E-01;  0.0000000E+00; -6.8446098E-09;  9.9882469E+00;  2.4690467E-01; -1.0450134E+00;3;  4.9573188E-03;  0.0000000E+00;  2.2315788E-07;  0.0000000E+00;  0.0000000E+00;  0.0000000E+00;1;  5.8914810E-02;  2.8268134E+02;  0.0000000E+00; -6.5049463E-13;  1.0000000E+02;  0.0000000E+00;  9.2626198E+01;  4.8239470E-02;  0.0000000E+00;  1.0675340E-02;  0.0000000E+00;
  4.7999563E+00;  9.9999998E-03;  2.0984675E-01;413;  1.0426967E-01;  0.0000000E+00;  2.6821417E-03;  9.9882507E+00;  2.4689487E-01; -1.0446481E+00;3;  4.5138961E-03;  0.0000000E+00; -5.4549385E-04;  0.0000000E+00;  0.0000000E+00;  0.0000000E+00;1;  5.8510289E-02;  2.8269266E+02;  0.0000000E+00;  1.0195993E-03;  1.0000000E+02;  0.0000000E+00;  9.2630074E+01;  4.7921985E-02;  0.0000000E+00;  1.0588302E-02;  0.0000000E+00;
  4.7952328E+00;  9.9999998E-03;  4.1818309E-01;414;  1.0128744E-01;  0.0000000E+00;  5.0908765E-03;  9.9882078E+00;  2.4702732E-01; -1.0484654E+00;3;  3.0399535E-03;  0.0000000E+00; -1.1430732E-04;  0.0000000E+00;  0.0000000E+00;  0.0000000E+00;1;  5.8748424E-02;  2.8242401E+02;  0.0000000E+00;  4.0987502E-03;  1.0000000E+02;  0.0000000E+00;  9.2618309E+01;  4.8155345E-02;  0.0000000E+00;  1.0593081E-02;  0.0000000E+00;
  4.7914257E+00;  9.9999998E-03;  6.2543666E-01;415;  9.9181592E-02;  0.0000000E+00;  7.2533754E-03;  9.9881420E+00;  2.4722438E-01; -1.0542961E+00;3;  2.1132824E-03;  0.0000000E+00;  1.1541332E-03;  0.0000000E+00;  0.0000000E+00;  0.0000000E+00;1;  5.9109781E-02;  2.8204297E+02;  0.0000000E+00;  7.5434940E-03;  1.0000000E+02;  0.0000000E+00;  9.2594025E+01;  4.8422974E-02;  0.0000000E+00;  1.0686808E-02;  0.0000000E+00;
  4.7890368E+00;  9.9999998E-03;  8.3237052E-01;416;  9.7985819E-02;  0.0000000E+00;  9.1659203E-03;  9.9880848E+00;  2.4744573E-01; -1.0593845E+00;3;  1.7328528E-03;  0.0000000E+00; -3.3184764E-04;  0.0000000E+00;  0.0000000E+00;  0.0000000E+00;1;  5.9371114E-02;  2.8163080E+02;  0.0000000E+00;  1.7036002E-02;  1.0000000E+02;  0.0000000E+00;  9.2563416E+01;  4.8660096E-02;  0.0000000E+00;  1.0711018E-02;  0.0000000E+00;
  4.7880340E+00;  9.9999998E-03;  1.0394044E+00;417;  9.7840145E-02;  0.0000000E+00;  1.1057515E-02;  9.9880667E+00;  2.4763364E-01; -1.0610276E+00;3;  2.1826499E-03;  0.0000000E+00;  8.3297736E-04;  0.0000000E+00;  0.0000000E+00;  0.0000000E+00;1;  5.9468206E-02;  2.8127631E+02;  0.0000000E+00;  4.6569671E-02;  1.0000000E+02;  0.0000000E+00;  9.2539085E+01;  4.8852969E-02;  0.0000000E+00;  1.0615236E-02;  0.0000000E+00;
  4.9153280E+00;  9.9999998E-03;  3.3601688E-09;423;  1.1289475E-01;  0.0000000E+00;  8.4087244E-09;  9.9882727E+00;  2.4634022E-01; -1.0426567E+00;3;  4.5737196E-03;  0.0000000E+00; -4.8978251E-08;  0.0000000E+00;  0.0000000E+00;  0.0000000E+00;1;  5.7596736E-02;  2.8359756E+02;  0.0000000E+00; -2.9865639E-13;  1.0000000E+02;  0.0000000E+00;  9.2751595E+01;  4.7168747E-02;  0.0000000E+00;  1.0427987E-02;  0.0000000E+00;
  5.0325589E+00;  9.9999998E-03;  2.1350376E-01;424;  1.1327595E-01;  0.0000000E+00;  3.8331538E-03;  9.9882526E+00;  2.4638015E-01; -1.0444390E+00;3;  4.3217707E-03;  0.0000000E+00;  2.0019496E-04;  0.0000000E+00;  0.0000000E+00;  0.0000000E+00;1;  5.6436829E-02;  2.8369595E+02;  0.0000000E+00; -2.2075158E-04;  1.0000000E+02;  0.0000000E+00;  9.2689301E+01;  4.6169642E-02;  0.0000000E+00;  1.0267185E-02;  0.0000000E+00;
  5.0330658E+00;  9.9999998E-03;  4.1951230E-01;425;  1.1272173E-01;  0.0000000E+00;  5.2716876E-03;  9.9881601E+00;  2.4661192E-01; -1.0526528E+00;3;  3.6935748E-03;  0.0000000E+00; -6.0653704E-04;  0.0000000E+00;  0.0000000E+00;  0.0000000E+00;1;  5.6865804E-02;  2.8323093E+02;  0.0000000E+00; -5.0115101E-03;  1.0000000E+02;  0.0000000E+00;  9.2665611E+01;  4.6599764E-02;  0.0000000E+00;  1.0266040E-02;  0.0000000E+00;
  5.0347524E+00;  9.9999998E-03;  6.2568521E-01;426;  1.1283690E-01;  0.0000000E+00;  7.1829860E-03;  9.9880352E+00;  2.4690686E-01; -1.0637811E+00;3;  3.4795429E-03;  0.0000000E+00;  1.7092674E-03;  0.0000000E+00;  0.0000000E+00;  0.0000000E+00;1;  5.7485681E-02;  2.8264752E+02;  0.0000000E+00; -1.3741575E-02;  1.0000000E+02;  0.0000000E+00;  9.2633171E+01;  4.7045786E-02;  0.0000000E+00;  1.0439895E-02;  0.0000000E+00;
  5.0389352E+00;  9.9999998E-03;  8.3211738E-01;427;  1.1351898E-01;  0.0000000E+00;  8.8241613E-03;  9.9879532E+00;  2.4722624E-01; -1.0710406E+00;3;  3.1357519E-03;  0.0000000E+00;  1.4415818E-05;  0.0000000E+00;  0.0000000E+00;  0.0000000E+00;1;  5.7784382E-02;  2.8204498E+02;  0.0000000E+00; -2.9461698E-03;  1.0000000E+02;  0.0000000E+00;  9.2590271E+01;  4.7390513E-02;  0.0000000E+00;  1.0393869E-02;  0.0000000E+00;
  5.0428424E+00;  9.9999998E-03;  1.0388893E+00;428;  1.1394348E-01;  0.0000000E+00;  1.0693063E-02;  9.9878721E+00;  2.4748726E-01; -1.0782472E+00;3;  2.3908108E-03;  0.0000000E+00; -8.9697167E-04;  0.0000000E+00;  0.0000000E+00;  0.0000000E+00;1;  5.8096763E-02;  2.8155112E+02;  0.0000000E+00; -1.9190754E-03;  1.0000000E+02;  0.0000000E+00;  9.2555824E+01;  4.7657914E-02;  0.0000000E+00;  1.0438847E-02;  0.0000000E+00;
  5.1509275E+00;  9.9999998E-03; -5.0917883E-09;434;  1.2212920E-01;  0.0000000E+00;  2.6318260E-08;  9.9884148E+00;  2.4343464E-01; -1.0300127E+00;3;  3.9487327E-03;  0.0000000E+00; -4.5809429E-07;  0.0000000E+00;  0.0000000E+00;  0.0000000E+00;1;  5.3945195E-02;  2.8909253E+02;  0.0000000E+00;  5.4210038E-13;  1.0000000E+02;  0.0000000E+00;  9.3175308E+01;  4.4228364E-02;  0.0000000E+00;  9.7168311E-03;  0.0000000E+00;
  5.2737427E+00;  9.9999998E-03;  2.1279517E-01;435;  1.2420261E-01;  0.0000000E+00;  3.0885818E-03;  9.9884748E+00;  2.4345043E-01; -1.0246527E+00;3;  2.6177058E-03;  0.0000000E+00;  3.3784367E-05;  0.0000000E+00;  0.0000000E+00;  0.0000000E+00;1;  5.1419705E-02;  2.8929999E+02;  0.0000000E+00; -3.2302376E-02;  1.0000000E+02;  0.0000000E+00;  9.3098076E+01;  4.2111386E-02;  0.0000000E+00;  9.3083214E-03;  0.0000000E+00;
  5.2843552E+00;  9.9999998E-03;  4.1798797E-01;436;  1.2908930E-01;  0.0000000E+00;  4.5588422E-03;  9.9883680E+00;  2.4367543E-01; -1.0341378E+00;3;  5.3686546E-03;  0.0000000E+00; -6.3038408E-04;  0.0000000E+00;  0.0000000E+00;  0.0000000E+00;1;  5.1676001E-02;  2.8884634E+02;  0.0000000E+00; -6.9333449E-02;  1.0000000E+02;  0.0000000E+00;  9.3070335E+01;  4.2328965E-02;  0.0000000E+00;  9.3470355E-03;  0.0000000E+00;
  5.2927737E+00;  9.9999998E-03;  6.2379783E-01;437;  1.3110025E-01;  0.0000000E+00;  6.0440297E-03;  9.9882364E+00;  2.4403517E-01; -1.0458487E+00;3;  6.5376433E-03;  0.0000000E+00;  1.3599859E-03;  0.0000000E+00;  0.0000000E+00;  0.0000000E+00;1;  5.2088361E-02;  2.8813257E+02;  0.0000000E+00; -2.0672553E-04;  1.0000000E+02;  0.0000000E+00;  9.3024879E+01;  4.2765554E-02;  0.0000000E+00;  9.3228081E-03;  0.0000000E+00;
  5.3039131E+00;  9.9999998E-03;  8.3003807E-01;438;  1.2842228E-01;  0.0000000E+00;  7.8855874E-03;  9.9881105E+00;  2.4450071E-01; -1.0570295E+00;3;  4.4761267E-03;  0.0000000E+00; -6.3976378E-04;  0.0000000E+00;  0.0000000E+00;  0.0000000E+00;1;  5.2407824E-02;  2.8722580E+02;  0.0000000E+00;  1.8370913E-01;  1.0000000E+02;  0.0000000E+00;  9.2961403E+01;  4.2875521E-02;  0.0000000E+00;  9.5323045E-03;  0.0000000E+00;
  5.3116188E+00;  9.9999998E-03;  1.0365441E+00;439;  1.3387731E-01;  0.0000000E+00;  9.4922017E-03;  9.9879351E+00;  2.4508017E-01; -1.0726618E+00;3;  6.3403640E-03;  0.0000000E+00; -1.7659264E-03;  0.0000000E+00;  0.0000000E+00;  0.0000000E+00;1;  5.2890204E-02;  2.8611151E+02;  0.0000000E+00; -2.5974181E-01;  1.0000000E+02;  0.0000000E+00;  9.2880692E+01;  4.3582547E-02;  0.0000000E+00;  9.3076555E-03;  0.0000000E+00;
  5.4611816E+00;  9.9999998E-03; -2.1460764E-08;445;  1.3444334E-01;  0.0000000E+00;  4.7465548E-08;  9.9888992E+00;  4.7611791E-01; -9.8691624E-01;3; -9.3241921E-05;  0.0000000E+00; -7.5262506E-07;  0.0000000E+00;  0.0000000E+00;  0.0000000E+00;0;  4.5319960E-02;  7.5008255E+01;  0.0000000E+00;  2.9371267E-13;  1.0000000E+02;  0.0000000E+00;  9.3885361E+01;  3.7104733E-02;  0.0000000E+00;  8.2152244E-03;  0.0000000E+00;
  5.4792953E+00;  9.9999998E-03;  2.0831966E-01;446;  1.4296356E-01;  0.0000000E+00;  9.0028695E-04;  9.9888868E+00;  4.7651586E-01; -9.8802865E-01;3;  1.8676082E-03;  0.0000000E+00;  7.1962411E-04;  0.0000000E+00;  0.0000000E+00;  0.0000000E+00;0;  4.4906430E-02;  7.4914238E+01;  0.0000000E+00;  6.1665932E-03;  1.0000000E+02;  0.0000000E+00;  9.3847366E+01;  3.6863763E-02;  0.0000000E+00;  8.0426671E-03;  0.0000000E+00;
  5.4881988E+00;  9.9999998E-03;  4.1471019E-01;447;  1.4708912E-01;  0.0000000E+00;  3.7329597E-03;  9.9885683E+00;  4.7778779E-01; -1.0163261E+00;3;  5.4465965E-03;  0.0000000E+00;  1.7033843E-04;  0.0000000E+00;  0.0000000E+00;  0.0000000E+00;0;  4.5957588E-02;  7.4588684E+01;  0.0000000E+00;  6.8624446E-04;  1.0000000E+02;  0.0000000E+00;  9.3750504E+01;  3.7578221E-02;  0.0000000E+00;  8.3793681E-03;  0.0000000E+00;
  5.4743147E+00;  9.9999998E-03;  6.2024081E-01;448;  1.4383684E-01;  0.0000000E+00;  5.3144153E-03;  9.9883013E+00;  4.7855780E-01; -1.0400666E+00;3;  1.0806712E-02;  0.0000000E+00; -1.8437242E-04;  0.0000000E+00;  0.0000000E+00;  0.0000000E+00;0;  4.7407027E-02;  7.4392715E+01;  0.0000000E+00;  7.6529873E-03;  1.0000000E+02;  0.0000000E+00;  9.3690033E+01;  3.8824536E-02;  0.0000000E+00;  8.5824914E-03;  0.0000000E+00;
  5.4752960E+00;  9.9999998E-03;  8.2649529E-01;449;  1.3689598E-01;  0.0000000E+00;  6.9878385E-03;  9.9882879E+00;  4.7979936E-01; -1.0412854E+00;3;  1.8666558E-03;  0.0000000E+00; -5.4238364E-05;  0.0000000E+00;  0.0000000E+00;  0.0000000E+00;0;  4.7456980E-02;  7.4079765E+01;  0.0000000E+00; -1.0822209E-02;  1.0000000E+02;  0.0000000E+00;  9.3600212E+01;  3.8767878E-02;  0.0000000E+00;  8.6891018E-03;  0.0000000E+00;
  5.4579377E+00;  9.9999998E-03;  1.0326363E+00;450;  1.3382231E-01;  0.0000000E+00;  8.6921360E-03;  9.9882612E+00;  4.7903454E-01; -1.0436174E+00;3;  6.3899234E-03;  0.0000000E+00; -3.3256896E-03;  0.0000000E+00;  0.0000000E+00;  0.0000000E+00;0;  4.7914926E-02;  7.4275887E+01;  0.0000000E+00;  2.2800993E-02;  1.0000000E+02;  0.0000000E+00;  9.3651436E+01;  3.9309945E-02;  0.0000000E+00;  8.6049801E-03;  0.0000000E+00;
  5.6955905E+00;  9.9999998E-03; -5.6056248E-08;456;  1.4387353E-01;  0.0000000E+00;  9.4202449E-08;  9.9892902E+00;  4.6414575E-01; -9.5215046E-01;3;  3.3530314E-03;  0.0000000E+00; -2.4633482E-07;  0.0000000E+00;  0.0000000E+00;  0.0000000E+00;0;  3.7226573E-02;  7.8246956E+01;  0.0000000E+00;  4.1391719E-13;  1.0000000E+02;  0.0000000E+00;  9.4710587E+01;  3.0297672E-02;  0.0000000E+00;  6.9289017E-03;  0.0000000E+00;
  5.7045856E+00;  9.9999998E-03;  2.0566864E-01;457;  1.4646877E-01;  0.0000000E+00;  1.5538508E-03;  9.9890995E+00;  4.6517459E-01; -9.6910763E-01;3;  1.7901096E-03;  0.0000000E+00; -6.4761611E-04;  0.0000000E+00;  0.0000000E+00;  0.0000000E+00;0;  3.7588120E-02;  7.7936028E+01;  0.0000000E+00;  1.4443371E-02;  1.0000000E+02;  0.0000000E+00;  9.4665924E+01;  3.0578997E-02;  0.0000000E+00;  7.0091211E-03;  0.0000000E+00;
  5.7056317E+00;  9.9999998E-03;  4.1082847E-01;458;  1.4969082E-01;  0.0000000E+00;  2.5147672E-03;  9.9886866E+00;  4.6652427E-01; -1.0058308E+00;3;  5.8332044E-03;  0.0000000E+00;  1.1839324E-03;  0.0000000E+00;  0.0000000E+00;  0.0000000E+00;0;  3.8995244E-02;  7.7559532E+01;  0.0000000E+00;  2.8277334E-02;  1.0000000E+02;  0.0000000E+00;  9.4568634E+01;  3.1915918E-02;  0.0000000E+00;  7.0793252E-03;  0.0000000E+00;
  5.7001343E+00;  9.9999998E-03;  6.1614150E-01;459;  1.4786959E-01;  0.0000000E+00;  4.1037258E-03;  9.9884233E+00;  4.6735668E-01; -1.0292001E+00;3;  7.0704883E-03;  0.0000000E+00; -4.8280274E-04;  0.0000000E+00;  0.0000000E+00;  0.0000000E+00;0;  4.0086538E-02;  7.7329567E+01;  0.0000000E+00;  2.0397302E-02;  1.0000000E+02;  0.0000000E+00;  9.4505928E+01;  3.2764997E-02;  0.0000000E+00;  7.3215403E-03;  0.0000000E+00;
  5.6997581E+00;  9.9999998E-03;  8.2238537E-01;460;  1.4653246E-01;  0.0000000E+00;  5.8199847E-03;  9.9881420E+00;  4.6905085E-01; -1.0542120E+00;3;  3.9828131E-03;  0.0000000E+00; -6.8938057E-04;  0.0000000E+00;  0.0000000E+00;  0.0000000E+00;0;  4.1070946E-02;  7.6875298E+01;  0.0000000E+00;  2.9151406E-04;  1.0000000E+02;  0.0000000E+00;  9.4375259E+01;  3.3502690E-02;  0.0000000E+00;  7.5682546E-03;  0.0000000E+00;
  5.6806598E+00;  9.9999998E-03;  1.0277319E+00;461;  1.4191696E-01;  0.0000000E+00;  7.3336358E-03;  9.9884310E+00;  4.6617439E-01; -1.0285643E+00;3;  6.3448218E-03;  0.0000000E+00; -5.1168324E-03;  0.0000000E+00;  0.0000000E+00;  0.0000000E+00;0;  4.0552795E-02;  7.7661438E+01;  0.0000000E+00; -6.8036811E-03;  1.0000000E+02;  0.0000000E+00;  9.4580536E+01;  3.3204943E-02;  0.0000000E+00;  7.3478515E-03;  0.0000000E+00;
  5.9146252E+00;  9.9999998E-03;  6.0890891E-08;467;  1.5148011E-01;  0.0000000E+00;  1.7377327E-07;  9.9888897E+00;  4.5296019E-01; -9.8775947E-01;3;  6.7253653E-03;  0.0000000E+00;  7.6554716E-07;  0.0000000E+00;  0.0000000E+00;  0.0000000E+00;0;  3.0998478E-02;  8.1439682E+01;  0.0000000E+00;  1.1028304E-13;  1.0000000E+02;  0.0000000E+00;  9.5541084E+01;  2.5269918E-02;  0.0000000E+00;  5.7285591E-03;  0.0000000E+00;
  5.9105654E+00;  9.9999998E-03;  2.0083810E-01;468;  1.5015724E-01;  0.0000000E+00;  3.1356691E-04;  9.9890671E+00;  4.5220381E-01; -9.7196805E-01;3;  7.4504679E-03;  0.0000000E+00; -2.8112065E-04;  0.0000000E+00;  0.0000000E+00;  0.0000000E+00;0;  3.0659378E-02;  8.1640587E+01;  0.0000000E+00;  3.2643251E-02;  1.0000000E+02;  0.0000000E+00;  9.5627762E+01;  2.4967920E-02;  0.0000000E+00;  5.6914585E-03;  0.0000000E+00;
  5.9111357E+00;  9.9999998E-03;  4.0630412E-01;469;  1.5057889E-01;  0.0000000E+00;  1.6686585E-03;  9.9887390E+00;  4.5311642E-01; -1.0011663E+00;3;  7.8197913E-03;  0.0000000E+00; -2.0793080E-04;  0.0000000E+00;  0.0000000E+00;  0.0000000E+00;0;  3.1561892E-02;  8.1361504E+01;  0.0000000E+00;  6.8242036E-02;  1.0000000E+02;  0.0000000E+00;  9.5563469E+01;  2.5692761E-02;  0.0000000E+00;  5.8691315E-03;  0.0000000E+00;
  5.9111118E+00;  9.9999998E-03;  6.1175990E-01;470;  1.5019380E-01;  0.0000000E+00;  2.8930961E-03;  9.9885054E+00;  4.5422995E-01; -1.0219389E+00;3;  7.2700670E-03;  0.0000000E+00; -3.2984512E-04;  0.0000000E+00;  0.0000000E+00;  0.0000000E+00;0;  3.2201055E-02;  8.1029366E+01;  0.0000000E+00;  3.7734825E-02;  1.0000000E+02;  0.0000000E+00;  9.5481415E+01;  2.6299858E-02;  0.0000000E+00;  5.9011974E-03;  0.0000000E+00;
  5.9047604E+00;  9.9999998E-03;  8.1689590E-01;471;  1.4715107E-01;  0.0000000E+00;  4.2775390E-03;  9.9890347E+00;  4.5320842E-01; -9.7488260E-01;3;  5.6021838E-03;  0.0000000E+00;  4.0876586E-04;  0.0000000E+00;  0.0000000E+00;  0.0000000E+00;0;  3.0989580E-02;  8.1333908E+01;  0.0000000E+00; -4.4134553E-03;  1.0000000E+02;  0.0000000E+00;  9.5563438E+01;  2.5185766E-02;  0.0000000E+00;  5.8038151E-03;  0.0000000E+00;
  5.8983626E+00;  9.9999998E-03;  1.0223602E+00;472;  1.4709395E-01;  0.0000000E+00;  5.9452094E-03;  9.9883595E+00;  4.5290375E-01; -1.0349220E+00;3;  1.0118178E-02;  0.0000000E+00; -7.5425981E-03;  0.0000000E+00;  0.0000000E+00;  0.0000000E+00;0;  3.2959446E-02;  8.1411827E+01;  0.0000000E+00; -1.9696709E-02;  1.0000000E+02;  0.0000000E+00;  9.5587135E+01;  2.6878322E-02;  0.0000000E+00;  6.0811266E-03;  0.0000000E+00;
  4.9264259E+00;  9.9999998E-03;  1.0390409E+00;495;  1.1330073E-01;  0.0000000E+00;  1.0895354E-02;  9.9879026E+00;  2.4766137E-01; -1.0755637E+00;3;  1.5802991E-03;  0.0000000E+00;  5.9513235E-04; -4.3160208E+08; -4.3160208E+08; -4.3160208E+08;1;  5.9284087E-02;  2.8122403E+02;  0.0000000E+00; -1.2075400E-03;  1.0000000E+02;  0.0000000E+00;  9.2533638E+01;  4.8756946E-02;  0.0000000E+00;  1.0527142E-02;  0.0000000E+00;
  4.6717048E+00;  9.9999998E-03;  1.0393865E+00;497;  9.7478405E-02;  0.0000000E+00;  1.1056845E-02;  9.9881773E+00;  2.4762435E-01; -1.0512223E+00;3;  1.7852051E-03;  0.0000000E+00;  1.4257411E-03; -4.3160208E+08; -4.3160208E+08; -4.3160208E+08;1;  5.9268195E-02;  2.8129819E+02;  0.0000000E+00;  5.5187847E-02;  1.0000000E+02;  0.0000000E+00;  9.2540848E+01;  4.8717186E-02;  0.0000000E+00;  1.0551008E-02;  0.0000000E+00;
  4.6727014E+00;  9.9999998E-03;  8.3235836E-01;499;  9.7611219E-02;  0.0000000E+00;  9.1611315E-03;  9.9881706E+00;  2.4744539E-01; -1.0518047E+00;3;  1.4069276E-03;  0.0000000E+00; -3.0251197E-04; -4.3160208E+08; -4.3160208E+08; -4.3160208E+08;1;  5.9299953E-02;  2.8163361E+02;  0.0000000E+00;  1.9940844E-02;  1.0000000E+02;  0.0000000E+00;  9.2564285E+01;  4.8604313E-02;  0.0000000E+00;  1.0695639E-02;  0.0000000E+00;
  4.9225230E+00;  9.9999998E-03;  8.3224159E-01;501;  1.1284512E-01;  0.0000000E+00;  9.1642402E-03;  9.9879293E+00;  2.4739015E-01; -1.0731797E+00;3;  2.1492010E-03;  0.0000000E+00; -4.2559226E-05; -4.3160208E+08; -4.3160208E+08; -4.3160208E+08;1;  5.9232593E-02;  2.8173480E+02;  0.0000000E+00; -7.4062515E-03;  1.0000000E+02;  0.0000000E+00;  9.2569023E+01;  4.8475984E-02;  0.0000000E+00;  1.0756610E-02;  0.0000000E+00;
  4.6750922E+00;  9.9999998E-03;  6.2539434E-01;503;  9.8802380E-02;  0.0000000E+00;  7.2425902E-03;  9.9881935E+00;  2.4723576E-01; -1.0497894E+00;3;  1.7021920E-03;  0.0000000E+00;  1.2115604E-03; -4.3160208E+08; -4.3160208E+08; -4.3160208E+08;1;  5.9206661E-02;  2.8201923E+02;  0.0000000E+00;  8.2825124E-03;  1.0000000E+02;  0.0000000E+00;  9.2594238E+01;  4.8482001E-02;  0.0000000E+00;  1.0724659E-02;  0.0000000E+00;
  4.9183702E+00;  9.9999998E-03;  6.2577361E-01;505;  1.1227144E-01;  0.0000000E+00;  7.3357872E-03;  9.9880314E+00;  2.4706100E-01; -1.0641185E+00;3;  2.6687041E-03;  0.0000000E+00;  7.2029606E-04; -4.3160208E+08; -4.3160208E+08; -4.3160208E+08;1;  5.8775797E-02;  2.8235693E+02;  0.0000000E+00; -1.7578153E-02;  1.0000000E+02;  0.0000000E+00;  9.2612526E+01;  4.8116755E-02;  0.0000000E+00;  1.0659042E-02;  0.0000000E+00;
  4.6789131E+00;  9.9999998E-03;  4.1804644E-01;507;  1.0093138E-01;  0.0000000E+00;  4.6546441E-03;  9.9882555E+00;  2.4705273E-01; -1.0442755E+00;3;  2.5113230E-03;  0.0000000E+00; -4.0505271E-05; -4.3160208E+08; -4.3160208E+08; -4.3160208E+08;1;  5.8882397E-02;  2.8236646E+02;  0.0000000E+00;  4.3720854E-03;  1.0000000E+02;  0.0000000E+00;  9.2618958E+01;  4.8359759E-02;  0.0000000E+00;  1.0522637E-02;  0.0000000E+00;
  4.6836538E+00;  9.9999998E-03;  2.0971350E-01;509;  1.0394619E-01;  0.0000000E+00;  2.1266565E-03;  9.9882555E+00;  2.4694131E-01; -1.0442730E+00;3;  3.9949147E-03;  0.0000000E+00; -1.6933212E-03; -4.3160208E+08; -4.3160208E+08; -4.3160208E+08;1;  5.8871459E-02;  2.8260187E+02;  0.0000000E+00;  1.1008757E-03;  1.0000000E+02;  0.0000000E+00;  9.2625008E+01;  4.8269790E-02;  0.0000000E+00;  1.0601670E-02;  0.0000000E+00;
  4.8028402E+00;  9.9999998E-03;  3.3680898E-09;510;  1.0616760E-01;  0.0000000E+00; -2.2316071E-09;  9.9882650E+00;  2.4684834E-01; -1.0433751E+00;3;  5.4789493E-03;  0.0000000E+00;  1.0457143E-07; -4.3160208E+08; -4.3160208E+08; -4.3160208E+08;1;  5.8426589E-02;  2.8278781E+02;  0.0000000E+00; -3.4481698E-13;  1.0000000E+02;  0.0000000E+00;  9.2634033E+01;  4.7825802E-02;  0.0000000E+00;  1.0600785E-02;  0.0000000E+00;
  4.9167747E+00;  9.9999998E-03;  4.1946062E-01;512;  1.1246504E-01;  0.0000000E+00;  5.0974917E-03;  9.9881601E+00;  2.4675901E-01; -1.0526723E+00;3;  3.4412243E-03;  0.0000000E+00; -3.9754598E-04; -4.3160208E+08; -4.3160208E+08; -4.3160208E+08;1;  5.8134373E-02;  2.8294507E+02;  0.0000000E+00; -6.5753004E-03;  1.0000000E+02;  0.0000000E+00;  9.2648727E+01;  4.7702912E-02;  0.0000000E+00;  1.0431461E-02;  0.0000000E+00;
  4.9163384E+00;  9.9999998E-03;  2.1342187E-01;514;  1.1328912E-01;  0.0000000E+00;  3.4312867E-03;  9.9882231E+00;  2.4653645E-01; -1.0470549E+00;3;  4.4103912E-03;  0.0000000E+00; -8.8861876E-04; -4.3160208E+08; -4.3160208E+08; -4.3160208E+08;1;  5.7830371E-02;  2.8340515E+02;  0.0000000E+00; -5.4798822E-04;  1.0000000E+02;  0.0000000E+00;  9.2666252E+01;  4.7334038E-02;  0.0000000E+00;  1.0496332E-02;  0.0000000E+00;
  5.0316052E+00;  9.9999998E-03;  7.0033965E-09;515;  1.1295895E-01;  0.0000000E+00;  2.4864146E-08;  9.9883204E+00;  2.4618204E-01; -1.0383979E+00;3;  4.3578846E-03;  0.0000000E+00; -2.6954876E-07; -4.3160208E+08; -4.3160208E+08; -4.3160208E+08;1;  5.6120083E-02;  2.8388519E+02;  0.0000000E+00; -8.4329516E-14;  1.0000000E+02;  0.0000000E+00;  9.2777382E+01;  4.5984443E-02;  0.0000000E+00;  1.0135639E-02;  0.0000000E+00;
  4.4367681E+00;  9.9999998E-03;  1.0383855E+00;517;  8.6330041E-02;  0.0000000E+00;  1.0790222E-02;  9.9884443E+00;  2.4590845E-01; -1.0276905E+00;3;  1.0934885E-03;  0.0000000E+00;  2.0199660E-03; -4.3160208E+08; -4.3160208E+08; -4.3160208E+08;1;  5.7428256E-02;  2.8452206E+02;  0.0000000E+00;  3.1214342E-02;  1.0000000E+02;  0.0000000E+00;  9.2778099E+01;  4.7224417E-02;  0.0000000E+00;  1.0203838E-02;  0.0000000E+00;
  4.4387589E+00;  9.9999998E-03;  8.3128619E-01;519;  8.7125272E-02;  0.0000000E+00;  8.9047095E-03;  9.9883766E+00;  2.4585196E-01; -1.0337307E+00;3;  1.0217598E-03;  0.0000000E+00; -8.5687928E-04; -4.3160208E+08; -4.3160208E+08; -4.3160208E+08;1;  5.7746954E-02;  2.8462683E+02;  0.0000000E+00;  1.2311132E-02;  1.0000000E+02;  0.0000000E+00;  9.2784767E+01;  4.7341291E-02;  0.0000000E+00;  1.0405662E-02;  0.0000000E+00;
  4.5684195E+00;  9.9999998E-03;  2.0832644E-09;521;  9.5634647E-02;  0.0000000E+00; -1.0831855E-08;  9.9882727E+00;  2.4589020E-01; -1.0428129E+00;3;  4.6110023E-03;  0.0000000E+00;  2.7131119E-07; -4.3160208E+08; -4.3160208E+08; -4.3160208E+08;1;  5.8769774E-02;  2.8468823E+02;  0.0000000E+00; -5.7802070E-13;  1.0000000E+02;  0.0000000E+00;  9.2734802E+01;  4.8111323E-02;  0.0000000E+00;  1.0658449E-02;  0.0000000E+00;
  4.4415069E+00;  9.9999998E-03;  6.2403923E-01;522;  8.8432401E-02;  0.0000000E+00;  6.8676663E-03;  9.9883537E+00;  2.4580680E-01; -1.0357413E+00;3;  1.1554467E-03;  0.0000000E+00;  7.6248805E-04; -4.3160208E+08; -4.3160208E+08; -4.3160208E+08;1;  5.7904918E-02;  2.8470215E+02;  0.0000000E+00;  2.8638113E-03;  1.0000000E+02;  0.0000000E+00;  9.2793800E+01;  4.7481377E-02;  0.0000000E+00;  1.0423542E-02;  0.0000000E+00;
  4.5612707E+00;  9.9999998E-03;  4.1610363E-01;524;  9.0525694E-02;  0.0000000E+00;  4.5472179E-03;  9.9883194E+00;  2.4581866E-01; -1.0386847E+00;3;  1.9253818E-03;  0.0000000E+00;  4.5919343E-04; -4.3160208E+08; -4.3160208E+08; -4.3160208E+08;1;  5.8521975E-02;  2.8467017E+02;  0.0000000E+00; -2.1279472E-04;  1.0000000E+02;  0.0000000E+00;  9.2794762E+01;  4.8028149E-02;  0.0000000E+00;  1.0493826E-02;  0.0000000E+00;
  4.5647707E+00;  9.9999998E-03;  2.0618325E-01;526;  9.2660531E-02;  0.0000000E+00;  1.9620275E-03;  9.9882965E+00;  2.4580240E-01; -1.0406960E+00;3;  2.8574208E-03;  0.0000000E+00; -9.2116231E-04; -4.3160208E+08; -4.3160208E+08; -4.3160208E+08;1;  5.8638785E-02;  2.8470160E+02;  0.0000000E+00;  6.1752129E-05;  1.0000000E+02;  0.0000000E+00;  9.2796906E+01;  4.8061222E-02;  0.0000000E+00;  1.0577564E-02;  0.0000000E+00;
  5.1953468E+00;  9.9999998E-03;  1.0369176E+00;528;  1.3356099E-01;  0.0000000E+00;  1.0301256E-02;  9.9877377E+00;  2.4535944E-01; -1.0902085E+00;3;  3.8827946E-03;  0.0000000E+00; -1.9532666E-03; -4.3160208E+08; -4.3160208E+08; -4.3160208E+08;1;  5.6267913E-02;  2.8556964E+02;  0.0000000E+00; -2.6495862E-01;  1.0000000E+02;  0.0000000E+00;  9.2841660E+01;  4.6007775E-02;  0.0000000E+00;  1.0260138E-02;  0.0000000E+00;
  5.1876192E+00;  9.9999998E-03;  8.3013088E-01;530;  1.2783191E-01;  0.0000000E+00;  8.2948208E-03;  9.9879875E+00;  2.4476397E-01; -1.0680054E+00;3;  5.8150874E-04;  0.0000000E+00;  9.8642940E-04; -4.3160208E+08; -4.3160208E+08; -4.3160208E+08;1;  5.5293709E-02;  2.8671381E+02;  0.0000000E+00;  1.7136425E-01;  1.0000000E+02;  0.0000000E+00;  9.2924911E+01;  4.5405567E-02;  0.0000000E+00;  9.8881442E-03;  0.0000000E+00;
  5.1764092E+00;  9.9999998E-03;  6.2395364E-01;532;  1.3021098E-01;  0.0000000E+00;  6.8979417E-03;  9.9880524E+00;  2.4425082E-01; -1.0622301E+00;3;  3.3522786E-03;  0.0000000E+00;  8.0341689E-04; -4.3160208E+08; -4.3160208E+08; -4.3160208E+08;1;  5.5225149E-02;  2.8770197E+02;  0.0000000E+00; -6.8663461E-03;  1.0000000E+02;  0.0000000E+00;  9.2995781E+01;  4.5130368E-02;  0.0000000E+00;  1.0094780E-02;  0.0000000E+00;
  5.1680298E+00;  9.9999998E-03;  4.1818175E-01;534;  1.2856728E-01;  0.0000000E+00;  5.3262757E-03;  9.9882126E+00;  2.4387324E-01; -1.0479758E+00;3;  4.2203432E-03;  0.0000000E+00;  4.4354779E-04; -4.3160208E+08; -4.3160208E+08; -4.3160208E+08;1;  5.4603204E-02;  2.8845764E+02;  0.0000000E+00; -7.2882220E-02;  1.0000000E+02;  0.0000000E+00;  9.3041924E+01;  4.4649273E-02;  0.0000000E+00;  9.9539291E-03;  0.0000000E+00;
  4.3276653E+00;  9.9999998E-03;  2.2792135E-09;535;  8.0815479E-02;  0.0000000E+00; -5.3384297E-09;  9.9882774E+00;  2.4396296E-01; -1.0427254E+00;3;  1.3765192E-03;  0.0000000E+00;  2.6643454E-07; -4.3160208E+08; -4.3160208E+08; -4.3160208E+08;1;  5.7502393E-02;  2.8834567E+02;  0.0000000E+00; -3.3136769E-13;  1.0000000E+02;  0.0000000E+00;  9.3010384E+01;  4.7114424E-02;  0.0000000E+00;  1.0387967E-02;  0.0000000E+00;
  4.3271461E+00;  9.9999998E-03;  2.0512666E-01;537;  7.9960108E-02;  0.0000000E+00;  2.0536128E-03;  9.9883041E+00;  2.4386109E-01; -1.0403407E+00;3;  7.9453178E-04;  0.0000000E+00; -8.0628792E-04; -4.3160208E+08; -4.3160208E+08; -4.3160208E+08;1;  5.7372794E-02;  2.8837289E+02;  0.0000000E+00;  8.2279228E-05;  1.0000000E+02;  0.0000000E+00;  9.3079788E+01;  4.7042418E-02;  0.0000000E+00;  1.0330373E-02;  0.0000000E+00;
  5.1574912E+00;  9.9999998E-03;  2.1293630E-01;543;  1.2416148E-01;  0.0000000E+00;  3.6873259E-03;  9.9883451E+00;  2.4363042E-01; -1.0362123E+00;3;  3.2422973E-03;  0.0000000E+00;  1.0087795E-03; -4.3160208E+08; -4.3160208E+08; -4.3160208E+08;1;  5.4165371E-02;  2.8894870E+02;  0.0000000E+00; -3.3425421E-02;  1.0000000E+02;  0.0000000E+00;  9.3071144E+01;  4.4320501E-02;  0.0000000E+00;  9.8448694E-03;  0.0000000E+00;
  5.2671952E+00;  9.9999998E-03; -6.4298806E-09;548;  1.2211547E-01;  0.0000000E+00;  3.7601325E-08;  9.9885321E+00;  2.4326865E-01; -1.0195658E+00;3;  3.8763015E-03;  0.0000000E+00; -6.5306085E-07; -4.3160208E+08; -4.3160208E+08; -4.3160208E+08;1;  5.1296059E-02;  2.8941611E+02;  0.0000000E+00;  5.7317221E-13;  1.0000000E+02;  0.0000000E+00;  9.3200584E+01;  4.2087700E-02;  0.0000000E+00;  9.2083588E-03;  0.0000000E+00;
  6.1133547E+00;  9.9999998E-03;  4.0104368E-01;479;  1.5037039E-01;  0.0000000E+00;  7.3905925E-05;  9.9895144E+00;  4.3724194E-01; -9.3222404E-01;3;  8.0896458E-03;  0.0000000E+00; -6.8287225E-04;  0.0000000E+00;  0.0000000E+00;  0.0000000E+00;0;  2.1879239E-02;  8.6256332E+01;  0.0000000E+00;  5.1982265E-02;  1.0000000E+02;  0.0000000E+00;  9.6820511E+01;  1.7836129E-02;  0.0000000E+00;  4.0431097E-03;  0.0000000E+00;
  6.1130056E+00;  9.9999998E-03;  6.0636765E-01;480;  1.4985611E-01;  0.0000000E+00;  1.3754207E-03;  9.9896383E+00;  4.3749845E-01; -9.2120188E-01;3;  7.3603187E-03;  0.0000000E+00; -6.2007271E-04;  0.0000000E+00;  0.0000000E+00;  0.0000000E+00;0;  2.1634970E-02;  8.6162621E+01;  0.0000000E+00; -3.9397642E-02;  1.0000000E+02;  0.0000000E+00;  9.6813370E+01;  1.7671281E-02;  0.0000000E+00;  3.9636884E-03;  0.0000000E+00;
  6.1168919E+00;  9.9999998E-03;  8.1262940E-01;481;  1.5166226E-01;  0.0000000E+00;  3.6579114E-03;  9.9874430E+00;  4.4162172E-01; -1.1163690E+00;3;  7.0745219E-03;  0.0000000E+00; -1.5657712E-03;  0.0000000E+00;  0.0000000E+00;  0.0000000E+00;0;  2.6017822E-02;  8.4816956E+01;  0.0000000E+00; -4.3793891E-02;  1.0000000E+02;  0.0000000E+00;  9.6481758E+01;  2.0721460E-02;  0.0000000E+00;  5.2963621E-03;  0.0000000E+00;
  6.1215553E+00;  9.9999998E-03;  1.9956465E-01;478;  1.5263523E-01;  0.0000000E+00; -1.9830232E-04;  9.9883146E+00;  4.4096667E-01; -1.0388957E+00;3;  7.2815800E-03;  0.0000000E+00;  7.2902068E-05;  0.0000000E+00;  0.0000000E+00;  0.0000000E+00;0;  2.3958158E-02;  8.5078712E+01;  0.0000000E+00;  2.3686849E-02;  1.0000000E+02;  0.0000000E+00;  9.6487389E+01;  1.9484105E-02;  0.0000000E+00;  4.4740536E-03;  0.0000000E+00;
  6.1250019E+00;  9.9999998E-03;  6.9809211E-08;477;  1.5362139E-01;  0.0000000E+00;  5.2588325E-07;  9.9878263E+00;  4.4243950E-01; -1.0822957E+00;3;  7.4561229E-03;  0.0000000E+00;  2.2482127E-06;  0.0000000E+00;  0.0000000E+00;  0.0000000E+00;0;  2.4806071E-02;  8.4627693E+01;  0.0000000E+00; -8.4459783E-13;  1.0000000E+02;  0.0000000E+00;  9.6349174E+01;  2.0167897E-02;  0.0000000E+00;  4.6381750E-03;  0.0000000E+00;
  6.3221216E+00;  9.9999998E-03;  3.9949033E-01;487;  1.5257753E-01;  0.0000000E+00; -2.5397155E-04;  9.9877911E+00;  4.2640167E-01; -1.0854219E+00;3;  8.7346165E-03;  0.0000000E+00; -5.6545902E-04;  0.0000000E+00;  0.0000000E+00;  0.0000000E+00;0;  1.5561663E-02;  8.9861313E+01;  0.0000000E+00; -1.0188448E-01;  1.0000000E+02;  0.0000000E+00;  9.7691124E+01;  1.2645436E-02;  0.0000000E+00;  2.9162257E-03;  0.0000000E+00;
  6.3276505E+00;  9.9999998E-03;  6.0536653E-01;488;  1.5459211E-01;  0.0000000E+00;  1.8682643E-03;  9.9838648E+00;  4.3174458E-01; -1.4344759E+00;3;  2.2020459E-02;  0.0000000E+00; -8.8050030E-03;  0.0000000E+00;  0.0000000E+00;  0.0000000E+00;0;  2.0515205E-02;  8.7975983E+01;  0.0000000E+00; -8.3902165E-02;  1.0000000E+02;  0.0000000E+00;  9.7257408E+01;  1.6230091E-02;  0.0000000E+00;  4.2851144E-03;  0.0000000E+00;
  6.3280993E+00;  9.9999998E-03;  1.9826433E-01;486;  1.5410008E-01;  0.0000000E+00; -6.5070315E-04;  9.9859238E+00;  4.3020475E-01; -1.2514437E+00;3;  8.4350388E-03;  0.0000000E+00; -3.1279027E-04;  0.0000000E+00;  0.0000000E+00;  0.0000000E+00;0;  1.7628780E-02;  8.8582886E+01;  0.0000000E+00; -1.5454038E-02;  1.0000000E+02;  0.0000000E+00;  9.7323296E+01;  1.4304332E-02;  0.0000000E+00;  3.3244472E-03;  0.0000000E+00;
  6.3316622E+00;  9.9999998E-03;  6.2847633E-08;485;  1.5530738E-01;  0.0000000E+00;  7.1261860E-07;  9.9842262E+00;  4.3260998E-01; -1.4023632E+00;3;  9.2643555E-03;  0.0000000E+00;  6.4820051E-07;  0.0000000E+00;  0.0000000E+00;  0.0000000E+00;0;  1.9477088E-02;  8.7782112E+01;  0.0000000E+00; -7.3853304E-13;  1.0000000E+02;  0.0000000E+00;  9.7090736E+01;  1.5803011E-02;  0.0000000E+00;  3.6740773E-03;  0.0000000E+00;
  6.5345631E+00;  9.9999998E-03;  4.9770367E-08;491;  1.5638736E-01;  0.0000000E+00;  5.6069393E-07;  9.9645596E+00;  4.2229679E-01; -3.1508124E+00;3;  8.5272687E-03;  0.0000000E+00;  3.0919909E-06;  0.0000000E+00;  0.0000000E+00;  0.0000000E+00;0;  1.4796698E-02;  9.1167519E+01;  0.0000000E+00;  1.2904102E-12;  1.0000000E+02;  0.0000000E+00;  9.7737366E+01;  1.1932288E-02;  0.0000000E+00;  2.8644090E-03;  0.0000000E+00;
  6.5300708E+00;  9.9999998E-03;  1.9673398E-01;492;  1.5500793E-01;  0.0000000E+00; -7.4599619E-04;  9.9715214E+00;  4.1888577E-01; -2.5318735E+00;3;  1.0258934E-02;  0.0000000E+00; -3.0466169E-04;  0.0000000E+00;  0.0000000E+00;  0.0000000E+00;0;  1.2315491E-02;  9.2406364E+01;  0.0000000E+00; -9.9944025E-02;  1.0000000E+02;  0.0000000E+00;  9.8132507E+01;  9.8871673E-03;  0.0000000E+00;  2.4283240E-03;  0.0000000E+00;
  6.5311236E+00;  9.9999998E-03;  4.0053925E-01;493;  1.5592763E-01;  0.0000000E+00;  1.9329037E-04;  9.9645586E+00;  4.2056727E-01; -3.1509185E+00;3;  5.1311404E-04;  0.0000000E+00;  1.3934001E-03;  0.0000000E+00;  0.0000000E+00;  0.0000000E+00;0;  1.4715906E-02;  9.1659096E+01;  0.0000000E+00; -1.5047391E-01;  1.0000000E+02;  0.0000000E+00;  9.8010025E+01;  1.2068325E-02;  0.0000000E+00;  2.6475817E-03;  0.0000000E+00;
