TimeStep;Np;Nbound;Nfixed;Nmoving;Nfloat;Nfluid
2.00158;494;165;165;0;0;329

Pos.x;Pos.y;Pos.z;Idp;Vel.x;Vel.y;Vel.z;Rhop;Mass;Press;Type;Acec.x;Acec.y;Acec.z;AceVisc.x;AceVisc.y;AceVisc.z;CellOffSpring;GradVel;Qfxx;Qfxy;Qfxz;Qfyy;Qfyz;Qfzz;StrainDot.x;StrainDot.y;StrainDot.z;VonMises3D;
 -1.0000000E+00;  9.9999998E-03; -2.0000000E+00;0;  0.0000000E+00;  0.0000000E+00;  0.0000000E+00;  1.0000000E+01;  4.0000001E-01;  0.0000000E+00;0;  0.0000000E+00;  0.0000000E+00;  0.0000000E+00;  0.0000000E+00;  0.0000000E+00;  0.0000000E+00;0; -4.8763491E-07;  1.0000000E+02;  0.0000000E+00;  0.0000000E+00;  1.0000000E+02;  0.0000000E+00;  1.0000000E+02; -4.9037169E-07;  0.0000000E+00;  2.7368088E-09;  0.0000000E+00;
 -8.0000001E-01;  9.9999998E-03; -2.0000000E+00;21;  0.0000000E+00;  0.0000000E+00;  0.0000000E+00;  1.0000000E+01;  4.0000001E-01;  0.0000000E+00;0;  0.0000000E+00;  0.0000000E+00;  0.0000000E+00;  0.0000000E+00;  0.0000000E+00;  0.0000000E+00;0; -1.3066599E-06;  1.0000000E+02;  0.0000000E+00;  0.0000000E+00;  1.0000000E+02;  0.0000000E+00;  1.0000000E+02; -1.4381360E-06;  0.0000000E+00;  1.3147611E-07;  0.0000000E+00;
 -6.0000002E-01;  9.9999998E-03; -2.0000000E+00;42;  0.0000000E+00;  0.0000000E+00;  0.0000000E+00;  1.0000000E+01;  4.0000001E-01;  0.0000000E+00;0;  0.0000000E+00;  0.0000000E+00;  0.0000000E+00;  0.0000000E+00;  0.0000000E+00;  0.0000000E+00;0; -2.0042692E-06;  1.0000000E+02;  0.0000000E+00;  0.0000000E+00;  1.0000000E+02;  0.0000000E+00;  1.0000000E+02; -2.5398372E-06;  0.0000000E+00;  5.3556795E-07;  0.0000000E+00;
 -4.0000001E-01;  9.9999998E-03; -2.0000000E+00;63;  0.0000000E+00;  0.0000000E+00;  0.0000000E+00;  1.0000092E+01;  4.0000001E-01;  9.8762438E-03;0;  0.0000000E+00;  0.0000000E+00;  0.0000000E+00;  0.0000000E+00;  0.0000000E+00;  0.0000000E+00;0; -1.8256362E-06;  1.0000000E+02;  0.0000000E+00;  0.0000000E+00;  1.0000000E+02;  0.0000000E+00;  1.0000000E+02; -3.2621861E-06;  0.0000000E+00;  1.4365498E-06;  0.0000000E+00;
 -2.0000000E-01;  9.9999998E-03; -2.0000000E+00;84;  0.0000000E+00;  0.0000000E+00;  0.0000000E+00;  1.0000140E+01;  4.0000001E-01;  1.5134990E-02;0;  0.0000000E+00;  0.0000000E+00;  0.0000000E+00;  0.0000000E+00;  0.0000000E+00;  0.0000000E+00;0;  5.5880309E-07;  1.0000000E+02;  0.0000000E+00;  0.0000000E+00;  1.0000000E+02;  0.0000000E+00;  1.0000000E+02; -2.4050278E-06;  0.0000000E+00;  2.9638309E-06;  0.0000000E+00;
  0.0000000E+00;  9.9999998E-03; -2.0000000E+00;105;  0.0000000E+00;  0.0000000E+00;  0.0000000E+00;  1.0000150E+01;  4.0000001E-01;  1.6161012E-02;0;  0.0000000E+00;  0.0000000E+00;  0.0000000E+00;  0.0000000E+00;  0.0000000E+00;  0.0000000E+00;0;  8.8806537E-06;  1.0000000E+02;  0.0000000E+00;  0.0000000E+00;  1.0000000E+02;  0.0000000E+00;  1.0000000E+02;  4.0586597E-06;  0.0000000E+00;  4.8219936E-06;  0.0000000E+00;
  2.0000000E-01;  9.9999998E-03; -2.0000000E+00;115;  0.0000000E+00;  0.0000000E+00;  0.0000000E+00;  1.0000000E+01;  4.0000001E-01;  0.0000000E+00;0;  0.0000000E+00;  0.0000000E+00;  0.0000000E+00;  0.0000000E+00;  0.0000000E+00;  0.0000000E+00;0;  2.9406223E-05;  1.0000000E+02;  0.0000000E+00;  0.0000000E+00;  1.0000000E+02;  0.0000000E+00;  1.0000000E+02;  2.3164448E-05;  0.0000000E+00;  6.2417748E-06;  0.0000000E+00;
  4.0000001E-01;  9.9999998E-03; -2.0000000E+00;125;  0.0000000E+00;  0.0000000E+00;  0.0000000E+00;  1.0000000E+01;  4.0000001E-01;  0.0000000E+00;0;  0.0000000E+00;  0.0000000E+00;  0.0000000E+00;  0.0000000E+00;  0.0000000E+00;  0.0000000E+00;0;  7.2759867E-05;  1.0000000E+02;  0.0000000E+00;  0.0000000E+00;  1.0000000E+02;  0.0000000E+00;  1.0000000E+02;  6.6546847E-05;  0.0000000E+00;  6.2130184E-06;  0.0000000E+00;
  6.0000002E-01;  9.9999998E-03; -2.0000000E+00;135;  0.0000000E+00;  0.0000000E+00;  0.0000000E+00;  1.0000000E+01;  4.0000001E-01;  0.0000000E+00;0;  0.0000000E+00;  0.0000000E+00;  0.0000000E+00;  0.0000000E+00;  0.0000000E+00;  0.0000000E+00;0;  1.5248048E-04;  1.0000000E+02;  0.0000000E+00;  0.0000000E+00;  1.0000000E+02;  0.0000000E+00;  1.0000000E+02;  1.4860944E-04;  0.0000000E+00;  3.8710436E-06;  0.0000000E+00;
  8.0000001E-01;  9.9999998E-03; -2.0000000E+00;145;  0.0000000E+00;  0.0000000E+00;  0.0000000E+00;  1.0000000E+01;  4.0000001E-01;  0.0000000E+00;0;  0.0000000E+00;  0.0000000E+00;  0.0000000E+00;  0.0000000E+00;  0.0000000E+00;  0.0000000E+00;0;  2.7207981E-04;  1.0000000E+02;  0.0000000E+00;  0.0000000E+00;  1.0000000E+02;  0.0000000E+00;  1.0000000E+02;  2.7379801E-04;  0.0000000E+00; -1.7182076E-06;  0.0000000E+00;
  1.0000000E+00;  9.9999998E-03; -2.0000000E+00;155;  0.0000000E+00;  0.0000000E+00;  0.0000000E+00;  1.0000000E+01;  4.0000001E-01;  0.0000000E+00;0;  0.0000000E+00;  0.0000000E+00;  0.0000000E+00;  0.0000000E+00;  0.0000000E+00;  0.0000000E+00;0;  3.9686443E-04;  1.0000000E+02;  0.0000000E+00;  0.0000000E+00;  1.0000000E+02;  0.0000000E+00;  1.0000000E+02;  4.0945585E-04;  0.0000000E+00; -1.2591415E-05;  0.0000000E+00;
 -1.0000000E+00;  9.9999998E-03; -1.8000000E+00;1;  0.0000000E+00;  0.0000000E+00;  0.0000000E+00;  1.0000000E+01;  4.0000001E-01;  0.0000000E+00;0;  0.0000000E+00;  0.0000000E+00;  0.0000000E+00;  0.0000000E+00;  0.0000000E+00;  0.0000000E+00;0; -1.3127858E-06;  1.0000000E+02;  0.0000000E+00;  0.0000000E+00;  1.0000000E+02;  0.0000000E+00;  1.0000000E+02; -1.3961147E-06;  0.0000000E+00;  8.3328970E-08;  0.0000000E+00;
 -1.0000000E+00;  9.9999998E-03; -1.6000000E+00;2;  0.0000000E+00;  0.0000000E+00;  0.0000000E+00;  1.0000038E+01;  4.0000001E-01;  4.1044201E-03;0;  0.0000000E+00;  0.0000000E+00;  0.0000000E+00;  0.0000000E+00;  0.0000000E+00;  0.0000000E+00;0; -2.6826533E-06;  1.0000000E+02;  0.0000000E+00;  0.0000000E+00;  1.0000000E+02;  0.0000000E+00;  1.0000000E+02; -2.9103123E-06;  0.0000000E+00;  2.2765911E-07;  0.0000000E+00;
 -1.0000000E+00;  9.9999998E-03; -1.4000000E+00;3;  0.0000000E+00;  0.0000000E+00;  0.0000000E+00;  1.0000267E+01;  4.0000001E-01;  2.8730940E-02;0;  0.0000000E+00;  0.0000000E+00;  0.0000000E+00;  0.0000000E+00;  0.0000000E+00;  0.0000000E+00;0; -4.7650765E-06;  1.0000000E+02;  0.0000000E+00;  0.0000000E+00;  1.0000000E+02;  0.0000000E+00;  1.0000000E+02; -5.1164375E-06;  0.0000000E+00;  3.5136088E-07;  0.0000000E+00;
 -1.0000000E+00;  9.9999998E-03; -1.2000000E+00;4;  0.0000000E+00;  0.0000000E+00;  0.0000000E+00;  1.0000500E+01;  4.0000001E-01;  5.3742249E-02;0;  0.0000000E+00;  0.0000000E+00;  0.0000000E+00;  0.0000000E+00;  0.0000000E+00;  0.0000000E+00;0; -7.3899109E-06;  1.0000000E+02;  0.0000000E+00;  0.0000000E+00;  1.0000000E+02;  0.0000000E+00;  1.0000000E+02; -7.7748437E-06;  0.0000000E+00;  3.8493263E-07;  0.0000000E+00;
 -1.0000000E+00;  9.9999998E-03; -1.0000000E+00;5;  0.0000000E+00;  0.0000000E+00;  0.0000000E+00;  1.0000754E+01;  4.0000001E-01;  8.1190556E-02;0;  0.0000000E+00;  0.0000000E+00;  0.0000000E+00;  0.0000000E+00;  0.0000000E+00;  0.0000000E+00;0; -9.9697700E-06;  1.0000000E+02;  0.0000000E+00;  0.0000000E+00;  1.0000000E+02;  0.0000000E+00;  1.0000000E+02; -1.0270396E-05;  0.0000000E+00;  3.0062591E-07;  0.0000000E+00;
 -1.0000000E+00;  9.9999998E-03; -8.0000001E-01;6;  0.0000000E+00;  0.0000000E+00;  0.0000000E+00;  1.0001022E+01;  4.0000001E-01;  1.1004976E-01;0;  0.0000000E+00;  0.0000000E+00;  0.0000000E+00;  0.0000000E+00;  0.0000000E+00;  0.0000000E+00;0; -1.1783684E-05;  1.0000000E+02;  0.0000000E+00;  0.0000000E+00;  1.0000000E+02;  0.0000000E+00;  1.0000000E+02; -1.1897474E-05;  0.0000000E+00;  1.1378953E-07;  0.0000000E+00;
 -1.0000000E+00;  9.9999998E-03; -6.0000002E-01;7;  0.0000000E+00;  0.0000000E+00;  0.0000000E+00;  1.0001233E+01;  4.0000001E-01;  1.3262407E-01;0;  0.0000000E+00;  0.0000000E+00;  0.0000000E+00;  0.0000000E+00;  0.0000000E+00;  0.0000000E+00;0; -1.2416020E-05;  1.0000000E+02;  0.0000000E+00;  0.0000000E+00;  1.0000000E+02;  0.0000000E+00;  1.0000000E+02; -1.2294707E-05;  0.0000000E+00; -1.2131335E-07;  0.0000000E+00;
 -1.0000000E+00;  9.9999998E-03; -4.0000001E-01;8;  0.0000000E+00;  0.0000000E+00;  0.0000000E+00;  1.0001355E+01;  4.0000001E-01;  1.4583518E-01;0;  0.0000000E+00;  0.0000000E+00;  0.0000000E+00;  0.0000000E+00;  0.0000000E+00;  0.0000000E+00;0; -1.2026439E-05;  1.0000000E+02;  0.0000000E+00;  0.0000000E+00;  1.0000000E+02;  0.0000000E+00;  1.0000000E+02; -1.1696030E-05;  0.0000000E+00; -3.3040982E-07;  0.0000000E+00;
 -1.0000000E+00;  9.9999998E-03; -2.0000000E-01;9;  0.0000000E+00;  0.0000000E+00;  0.0000000E+00;  1.0001415E+01;  4.0000001E-01;  1.5224834E-01;0;  0.0000000E+00;  0.0000000E+00;  0.0000000E+00;  0.0000000E+00;  0.0000000E+00;  0.0000000E+00;0; -1.1261417E-05;  1.0000000E+02;  0.0000000E+00;  0.0000000E+00;  1.0000000E+02;  0.0000000E+00;  1.0000000E+02; -1.0802010E-05;  0.0000000E+00; -4.5940664E-07;  0.0000000E+00;
 -8.0000001E-01;  9.9999998E-03; -1.8000000E+00;22;  0.0000000E+00;  0.0000000E+00;  0.0000000E+00;  1.0000087E+01;  4.0000001E-01;  9.3632061E-03;0;  0.0000000E+00;  0.0000000E+00;  0.0000000E+00;  0.0000000E+00;  0.0000000E+00;  0.0000000E+00;0; -3.0253950E-06;  1.0000000E+02;  0.0000000E+00;  0.0000000E+00;  1.0000000E+02;  0.0000000E+00;  1.0000000E+02; -3.4970712E-06;  0.0000000E+00;  4.7167634E-07;  0.0000000E+00;
 -8.0000001E-01;  9.9999998E-03; -1.6000000E+00;23;  0.0000000E+00;  0.0000000E+00;  0.0000000E+00;  1.0000361E+01;  4.0000001E-01;  3.8863719E-02;0;  0.0000000E+00;  0.0000000E+00;  0.0000000E+00;  0.0000000E+00;  0.0000000E+00;  0.0000000E+00;0; -5.8728720E-06;  1.0000000E+02;  0.0000000E+00;  0.0000000E+00;  1.0000000E+02;  0.0000000E+00;  1.0000000E+02; -6.7563087E-06;  0.0000000E+00;  8.8343694E-07;  0.0000000E+00;
 -8.0000001E-01;  9.9999998E-03; -1.4000000E+00;24;  0.0000000E+00;  0.0000000E+00;  0.0000000E+00;  1.0000714E+01;  4.0000001E-01;  7.6829597E-02;0;  0.0000000E+00;  0.0000000E+00;  0.0000000E+00;  0.0000000E+00;  0.0000000E+00;  0.0000000E+00;0; -1.0180819E-05;  1.0000000E+02;  0.0000000E+00;  0.0000000E+00;  1.0000000E+02;  0.0000000E+00;  1.0000000E+02; -1.1314291E-05;  0.0000000E+00;  1.1334726E-06;  0.0000000E+00;
 -8.0000001E-01;  9.9999998E-03; -1.2000000E+00;25;  0.0000000E+00;  0.0000000E+00;  0.0000000E+00;  1.0001216E+01;  4.0000001E-01;  1.3082837E-01;0;  0.0000000E+00;  0.0000000E+00;  0.0000000E+00;  0.0000000E+00;  0.0000000E+00;  0.0000000E+00;0; -1.5593878E-05;  1.0000000E+02;  0.0000000E+00;  0.0000000E+00;  1.0000000E+02;  0.0000000E+00;  1.0000000E+02; -1.6694596E-05;  0.0000000E+00;  1.1007177E-06;  0.0000000E+00;
 -8.0000001E-01;  9.9999998E-03; -1.0000000E+00;26;  0.0000000E+00;  0.0000000E+00;  0.0000000E+00;  1.0001762E+01;  4.0000001E-01;  1.8957286E-01;0;  0.0000000E+00;  0.0000000E+00;  0.0000000E+00;  0.0000000E+00;  0.0000000E+00;  0.0000000E+00;0; -2.1015130E-05;  1.0000000E+02;  0.0000000E+00;  0.0000000E+00;  1.0000000E+02;  0.0000000E+00;  1.0000000E+02; -2.1786422E-05;  0.0000000E+00;  7.7129113E-07;  0.0000000E+00;
 -8.0000001E-01;  9.9999998E-03; -8.0000001E-01;27;  0.0000000E+00;  0.0000000E+00;  0.0000000E+00;  1.0002247E+01;  4.0000001E-01;  2.4177594E-01;0;  0.0000000E+00;  0.0000000E+00;  0.0000000E+00;  0.0000000E+00;  0.0000000E+00;  0.0000000E+00;0; -2.5091633E-05;  1.0000000E+02;  0.0000000E+00;  0.0000000E+00;  1.0000000E+02;  0.0000000E+00;  1.0000000E+02; -2.5300551E-05;  0.0000000E+00;  2.0891733E-07;  0.0000000E+00;
 -8.0000001E-01;  9.9999998E-03; -6.0000002E-01;28;  0.0000000E+00;  0.0000000E+00;  0.0000000E+00;  1.0002651E+01;  4.0000001E-01;  2.8525713E-01;0;  0.0000000E+00;  0.0000000E+00;  0.0000000E+00;  0.0000000E+00;  0.0000000E+00;  0.0000000E+00;0; -2.6987771E-05;  1.0000000E+02;  0.0000000E+00;  0.0000000E+00;  1.0000000E+02;  0.0000000E+00;  1.0000000E+02; -2.6540201E-05;  0.0000000E+00; -4.4756933E-07;  0.0000000E+00;
 -8.0000001E-01;  9.9999998E-03; -4.0000001E-01;29;  0.0000000E+00;  0.0000000E+00;  0.0000000E+00;  1.0002941E+01;  4.0000001E-01;  3.1642506E-01;0;  0.0000000E+00;  0.0000000E+00;  0.0000000E+00;  0.0000000E+00;  0.0000000E+00;  0.0000000E+00;0; -2.6895310E-05;  1.0000000E+02;  0.0000000E+00;  0.0000000E+00;  1.0000000E+02;  0.0000000E+00;  1.0000000E+02; -2.5881864E-05;  0.0000000E+00; -1.0134459E-06;  0.0000000E+00;
 -8.0000001E-01;  9.9999998E-03; -2.0000000E-01;30;  0.0000000E+00;  0.0000000E+00;  0.0000000E+00;  1.0003107E+01;  4.0000001E-01;  3.3425364E-01;0;  0.0000000E+00;  0.0000000E+00;  0.0000000E+00;  0.0000000E+00;  0.0000000E+00;  0.0000000E+00;0; -2.5929814E-05;  1.0000000E+02;  0.0000000E+00;  0.0000000E+00;  1.0000000E+02;  0.0000000E+00;  1.0000000E+02; -2.4574019E-05;  0.0000000E+00; -1.3557949E-06;  0.0000000E+00;
 -6.0000002E-01;  9.9999998E-03; -1.8000000E+00;43;  0.0000000E+00;  0.0000000E+00;  0.0000000E+00;  1.0000278E+01;  4.0000001E-01;  3.0013552E-02;0;  0.0000000E+00;  0.0000000E+00;  0.0000000E+00;  0.0000000E+00;  0.0000000E+00;  0.0000000E+00;0; -4.2651541E-06;  1.0000000E+02;  0.0000000E+00;  0.0000000E+00;  1.0000000E+02;  0.0000000E+00;  1.0000000E+02; -5.6998015E-06;  0.0000000E+00;  1.4346474E-06;  0.0000000E+00;
 -6.0000002E-01;  9.9999998E-03; -1.6000000E+00;44;  0.0000000E+00;  0.0000000E+00;  0.0000000E+00;  1.0000634E+01;  4.0000001E-01;  6.8235934E-02;0;  0.0000000E+00;  0.0000000E+00;  0.0000000E+00;  0.0000000E+00;  0.0000000E+00;  0.0000000E+00;0; -8.2199658E-06;  1.0000000E+02;  0.0000000E+00;  0.0000000E+00;  1.0000000E+02;  0.0000000E+00;  1.0000000E+02; -1.0557790E-05;  0.0000000E+00;  2.3378238E-06;  0.0000000E+00;
 -6.0000002E-01;  9.9999998E-03; -1.4000000E+00;45;  0.0000000E+00;  0.0000000E+00;  0.0000000E+00;  1.0001203E+01;  4.0000001E-01;  1.2941740E-01;0;  0.0000000E+00;  0.0000000E+00;  0.0000000E+00;  0.0000000E+00;  0.0000000E+00;  0.0000000E+00;0; -1.4476386E-05;  1.0000000E+02;  0.0000000E+00;  0.0000000E+00;  1.0000000E+02;  0.0000000E+00;  1.0000000E+02; -1.7222254E-05;  0.0000000E+00;  2.7458671E-06;  0.0000000E+00;
 -6.0000002E-01;  9.9999998E-03; -1.2000000E+00;46;  0.0000000E+00;  0.0000000E+00;  0.0000000E+00;  1.0001907E+01;  4.0000001E-01;  2.0522086E-01;0;  0.0000000E+00;  0.0000000E+00;  0.0000000E+00;  0.0000000E+00;  0.0000000E+00;  0.0000000E+00;0; -2.2551585E-05;  1.0000000E+02;  0.0000000E+00;  0.0000000E+00;  1.0000000E+02;  0.0000000E+00;  1.0000000E+02; -2.5051078E-05;  0.0000000E+00;  2.4994931E-06;  0.0000000E+00;
 -6.0000002E-01;  9.9999998E-03; -1.0000000E+00;47;  0.0000000E+00;  0.0000000E+00;  0.0000000E+00;  1.0002656E+01;  4.0000001E-01;  2.8577006E-01;0;  0.0000000E+00;  0.0000000E+00;  0.0000000E+00;  0.0000000E+00;  0.0000000E+00;  0.0000000E+00;0; -3.1040330E-05;  1.0000000E+02;  0.0000000E+00;  0.0000000E+00;  1.0000000E+02;  0.0000000E+00;  1.0000000E+02; -3.2681699E-05;  0.0000000E+00;  1.6413691E-06;  0.0000000E+00;
 -6.0000002E-01;  9.9999998E-03; -8.0000001E-01;48;  0.0000000E+00;  0.0000000E+00;  0.0000000E+00;  1.0003446E+01;  4.0000001E-01;  3.7068018E-01;0;  0.0000000E+00;  0.0000000E+00;  0.0000000E+00;  0.0000000E+00;  0.0000000E+00;  0.0000000E+00;0; -3.7955357E-05;  1.0000000E+02;  0.0000000E+00;  0.0000000E+00;  1.0000000E+02;  0.0000000E+00;  1.0000000E+02; -3.8281141E-05;  0.0000000E+00;  3.2578492E-07;  0.0000000E+00;
 -6.0000002E-01;  9.9999998E-03; -6.0000002E-01;49;  0.0000000E+00;  0.0000000E+00;  0.0000000E+00;  1.0004113E+01;  4.0000001E-01;  4.4250748E-01;0;  0.0000000E+00;  0.0000000E+00;  0.0000000E+00;  0.0000000E+00;  0.0000000E+00;  0.0000000E+00;0; -4.1863314E-05;  1.0000000E+02;  0.0000000E+00;  0.0000000E+00;  1.0000000E+02;  0.0000000E+00;  1.0000000E+02; -4.0704366E-05;  0.0000000E+00; -1.1589491E-06;  0.0000000E+00;
 -6.0000002E-01;  9.9999998E-03; -4.0000001E-01;50;  0.0000000E+00;  0.0000000E+00;  0.0000000E+00;  1.0004593E+01;  4.0000001E-01;  4.9419749E-01;0;  0.0000000E+00;  0.0000000E+00;  0.0000000E+00;  0.0000000E+00;  0.0000000E+00;  0.0000000E+00;0; -4.2871772E-05;  1.0000000E+02;  0.0000000E+00;  0.0000000E+00;  1.0000000E+02;  0.0000000E+00;  1.0000000E+02; -4.0442359E-05;  0.0000000E+00; -2.4294145E-06;  0.0000000E+00;
 -6.0000002E-01;  9.9999998E-03; -2.0000000E-01;51;  0.0000000E+00;  0.0000000E+00;  0.0000000E+00;  1.0004870E+01;  4.0000001E-01;  5.2408278E-01;0;  0.0000000E+00;  0.0000000E+00;  0.0000000E+00;  0.0000000E+00;  0.0000000E+00;  0.0000000E+00;0; -4.2460677E-05;  1.0000000E+02;  0.0000000E+00;  0.0000000E+00;  1.0000000E+02;  0.0000000E+00;  1.0000000E+02; -3.9244853E-05;  0.0000000E+00; -3.2158257E-06;  0.0000000E+00;
 -4.0000001E-01;  9.9999998E-03; -1.8000000E+00;64;  0.0000000E+00;  0.0000000E+00;  0.0000000E+00;  1.0000381E+01;  4.0000001E-01;  4.0915869E-02;0;  0.0000000E+00;  0.0000000E+00;  0.0000000E+00;  0.0000000E+00;  0.0000000E+00;  0.0000000E+00;0; -3.3087135E-06;  1.0000000E+02;  0.0000000E+00;  0.0000000E+00;  1.0000000E+02;  0.0000000E+00;  1.0000000E+02; -6.6118819E-06;  0.0000000E+00;  3.3031683E-06;  0.0000000E+00;
 -4.0000001E-01;  9.9999998E-03; -1.6000000E+00;65;  0.0000000E+00;  0.0000000E+00;  0.0000000E+00;  1.0000803E+01;  4.0000001E-01;  8.6449198E-02;0;  0.0000000E+00;  0.0000000E+00;  0.0000000E+00;  0.0000000E+00;  0.0000000E+00;  0.0000000E+00;0; -5.9914078E-06;  1.0000000E+02;  0.0000000E+00;  0.0000000E+00;  1.0000000E+02;  0.0000000E+00;  1.0000000E+02; -1.0932819E-05;  0.0000000E+00;  4.9414116E-06;  0.0000000E+00;
 -4.0000001E-01;  9.9999998E-03; -1.4000000E+00;66;  0.0000000E+00;  0.0000000E+00;  0.0000000E+00;  1.0001434E+01;  4.0000001E-01;  1.5430027E-01;0;  0.0000000E+00;  0.0000000E+00;  0.0000000E+00;  0.0000000E+00;  0.0000000E+00;  0.0000000E+00;0; -1.1133459E-05;  1.0000000E+02;  0.0000000E+00;  0.0000000E+00;  1.0000000E+02;  0.0000000E+00;  1.0000000E+02; -1.6633947E-05;  0.0000000E+00;  5.5004875E-06;  0.0000000E+00;
 -4.0000001E-01;  9.9999998E-03; -1.2000000E+00;67;  0.0000000E+00;  0.0000000E+00;  0.0000000E+00;  1.0002314E+01;  4.0000001E-01;  2.4895830E-01;0;  0.0000000E+00;  0.0000000E+00;  0.0000000E+00;  0.0000000E+00;  0.0000000E+00;  0.0000000E+00;0; -1.8633480E-05;  1.0000000E+02;  0.0000000E+00;  0.0000000E+00;  1.0000000E+02;  0.0000000E+00;  1.0000000E+02; -2.3456938E-05;  0.0000000E+00;  4.8234588E-06;  0.0000000E+00;
 -4.0000001E-01;  9.9999998E-03; -1.0000000E+00;68;  0.0000000E+00;  0.0000000E+00;  0.0000000E+00;  1.0003256E+01;  4.0000001E-01;  3.5028601E-01;0;  0.0000000E+00;  0.0000000E+00;  0.0000000E+00;  0.0000000E+00;  0.0000000E+00;  0.0000000E+00;0; -2.7041220E-05;  1.0000000E+02;  0.0000000E+00;  0.0000000E+00;  1.0000000E+02;  0.0000000E+00;  1.0000000E+02; -3.0077030E-05;  0.0000000E+00;  3.0358103E-06;  0.0000000E+00;
 -4.0000001E-01;  9.9999998E-03; -8.0000001E-01;69;  0.0000000E+00;  0.0000000E+00;  0.0000000E+00;  1.0004233E+01;  4.0000001E-01;  4.5546159E-01;0;  0.0000000E+00;  0.0000000E+00;  0.0000000E+00;  0.0000000E+00;  0.0000000E+00;  0.0000000E+00;0; -3.4614019E-05;  1.0000000E+02;  0.0000000E+00;  0.0000000E+00;  1.0000000E+02;  0.0000000E+00;  1.0000000E+02; -3.5041303E-05;  0.0000000E+00;  4.2728257E-07;  0.0000000E+00;
 -4.0000001E-01;  9.9999998E-03; -6.0000002E-01;70;  0.0000000E+00;  0.0000000E+00;  0.0000000E+00;  1.0005103E+01;  4.0000001E-01;  5.4909348E-01;0;  0.0000000E+00;  0.0000000E+00;  0.0000000E+00;  0.0000000E+00;  0.0000000E+00;  0.0000000E+00;0; -4.0318580E-05;  1.0000000E+02;  0.0000000E+00;  0.0000000E+00;  1.0000000E+02;  0.0000000E+00;  1.0000000E+02; -3.7863720E-05;  0.0000000E+00; -2.4548615E-06;  0.0000000E+00;
 -4.0000001E-01;  9.9999998E-03; -4.0000001E-01;71;  0.0000000E+00;  0.0000000E+00;  0.0000000E+00;  1.0005754E+01;  4.0000001E-01;  6.1899680E-01;0;  0.0000000E+00;  0.0000000E+00;  0.0000000E+00;  0.0000000E+00;  0.0000000E+00;  0.0000000E+00;0; -4.3936594E-05;  1.0000000E+02;  0.0000000E+00;  0.0000000E+00;  1.0000000E+02;  0.0000000E+00;  1.0000000E+02; -3.9041592E-05;  0.0000000E+00; -4.8950037E-06;  0.0000000E+00;
 -4.0000001E-01;  9.9999998E-03; -2.0000000E-01;72;  0.0000000E+00;  0.0000000E+00;  0.0000000E+00;  1.0006165E+01;  4.0000001E-01;  6.6324753E-01;0;  0.0000000E+00;  0.0000000E+00;  0.0000000E+00;  0.0000000E+00;  0.0000000E+00;  0.0000000E+00;0; -4.5677956E-05;  1.0000000E+02;  0.0000000E+00;  0.0000000E+00;  1.0000000E+02;  0.0000000E+00;  1.0000000E+02; -3.9260722E-05;  0.0000000E+00; -6.4172341E-06;  0.0000000E+00;
 -2.0000000E-01;  9.9999998E-03; -1.8000000E+00;85;  0.0000000E+00;  0.0000000E+00;  0.0000000E+00;  1.0000424E+01;  4.0000001E-01;  4.5661498E-02;0;  0.0000000E+00;  0.0000000E+00;  0.0000000E+00;  0.0000000E+00;  0.0000000E+00;  0.0000000E+00;0;  3.7758655E-06;  1.0000000E+02;  0.0000000E+00;  0.0000000E+00;  1.0000000E+02;  0.0000000E+00;  1.0000000E+02; -2.3522857E-06;  0.0000000E+00;  6.1281512E-06;  0.0000000E+00;
 -2.0000000E-01;  9.9999998E-03; -1.6000000E+00;86;  0.0000000E+00;  0.0000000E+00;  0.0000000E+00;  1.0000818E+01;  4.0000001E-01;  8.7988168E-02;0;  0.0000000E+00;  0.0000000E+00;  0.0000000E+00;  0.0000000E+00;  0.0000000E+00;  0.0000000E+00;0;  8.0127174E-06;  1.0000000E+02;  0.0000000E+00;  0.0000000E+00;  1.0000000E+02;  0.0000000E+00;  1.0000000E+02; -6.6209373E-07;  0.0000000E+00;  8.6748114E-06;  0.0000000E+00;
 -2.0000000E-01;  9.9999998E-03; -1.4000000E+00;87;  0.0000000E+00;  0.0000000E+00;  0.0000000E+00;  1.0001407E+01;  4.0000001E-01;  1.5134990E-01;0;  0.0000000E+00;  0.0000000E+00;  0.0000000E+00;  0.0000000E+00;  0.0000000E+00;  0.0000000E+00;0;  1.1989434E-05;  1.0000000E+02;  0.0000000E+00;  0.0000000E+00;  1.0000000E+02;  0.0000000E+00;  1.0000000E+02;  2.6167834E-06;  0.0000000E+00;  9.3726503E-06;  0.0000000E+00;
 -2.0000000E-01;  9.9999998E-03; -1.2000000E+00;88;  0.0000000E+00;  0.0000000E+00;  0.0000000E+00;  1.0002210E+01;  4.0000001E-01;  2.3779891E-01;0;  0.0000000E+00;  0.0000000E+00;  0.0000000E+00;  0.0000000E+00;  0.0000000E+00;  0.0000000E+00;0;  1.4964459E-05;  1.0000000E+02;  0.0000000E+00;  0.0000000E+00;  1.0000000E+02;  0.0000000E+00;  1.0000000E+02;  6.9190446E-06;  0.0000000E+00;  8.0454147E-06;  0.0000000E+00;
 -2.0000000E-01;  9.9999998E-03; -1.0000000E+00;89;  0.0000000E+00;  0.0000000E+00;  0.0000000E+00;  1.0003201E+01;  4.0000001E-01;  3.4438518E-01;0;  0.0000000E+00;  0.0000000E+00;  0.0000000E+00;  0.0000000E+00;  0.0000000E+00;  0.0000000E+00;0;  1.5981805E-05;  1.0000000E+02;  0.0000000E+00;  0.0000000E+00;  1.0000000E+02;  0.0000000E+00;  1.0000000E+02;  1.1117469E-05;  0.0000000E+00;  4.8643360E-06;  0.0000000E+00;
 -2.0000000E-01;  9.9999998E-03; -8.0000001E-01;90;  0.0000000E+00;  0.0000000E+00;  0.0000000E+00;  1.0004242E+01;  4.0000001E-01;  4.5635843E-01;0;  0.0000000E+00;  0.0000000E+00;  0.0000000E+00;  0.0000000E+00;  0.0000000E+00;  0.0000000E+00;0;  1.4576885E-05;  1.0000000E+02;  0.0000000E+00;  0.0000000E+00;  1.0000000E+02;  0.0000000E+00;  1.0000000E+02;  1.4220932E-05;  0.0000000E+00;  3.5595329E-07;  0.0000000E+00;
 -2.0000000E-01;  9.9999998E-03; -6.0000002E-01;91;  0.0000000E+00;  0.0000000E+00;  0.0000000E+00;  1.0005228E+01;  4.0000001E-01;  5.6255990E-01;0;  0.0000000E+00;  0.0000000E+00;  0.0000000E+00;  0.0000000E+00;  0.0000000E+00;  0.0000000E+00;0;  1.0522390E-05;  1.0000000E+02;  0.0000000E+00;  0.0000000E+00;  1.0000000E+02;  0.0000000E+00;  1.0000000E+02;  1.4971199E-05;  0.0000000E+00; -4.4488092E-06;  0.0000000E+00;
 -2.0000000E-01;  9.9999998E-03; -4.0000001E-01;92;  0.0000000E+00;  0.0000000E+00;  0.0000000E+00;  1.0006025E+01;  4.0000001E-01;  6.4823937E-01;0;  0.0000000E+00;  0.0000000E+00;  0.0000000E+00;  0.0000000E+00;  0.0000000E+00;  0.0000000E+00;0;  5.3979575E-06;  1.0000000E+02;  0.0000000E+00;  0.0000000E+00;  1.0000000E+02;  0.0000000E+00;  1.0000000E+02;  1.3778340E-05;  0.0000000E+00; -8.3803825E-06;  0.0000000E+00;
 -2.0000000E-01;  9.9999998E-03; -2.0000000E-01;93;  0.0000000E+00;  0.0000000E+00;  0.0000000E+00;  1.0006563E+01;  4.0000001E-01;  7.0621407E-01;0;  0.0000000E+00;  0.0000000E+00;  0.0000000E+00;  0.0000000E+00;  0.0000000E+00;  0.0000000E+00;0;  1.4698035E-06;  1.0000000E+02;  0.0000000E+00;  0.0000000E+00;  1.0000000E+02;  0.0000000E+00;  1.0000000E+02;  1.2277913E-05;  0.0000000E+00; -1.0808109E-05;  0.0000000E+00;
  0.0000000E+00;  9.9999998E-03; -1.8000000E+00;106;  0.0000000E+00;  0.0000000E+00;  0.0000000E+00;  1.0000260E+01;  4.0000001E-01;  2.7961114E-02;0;  0.0000000E+00;  0.0000000E+00;  0.0000000E+00;  0.0000000E+00;  0.0000000E+00;  0.0000000E+00;0;  2.3977640E-05;  1.0000000E+02;  0.0000000E+00;  0.0000000E+00;  1.0000000E+02;  0.0000000E+00;  1.0000000E+02;  1.4668918E-05;  0.0000000E+00;  9.3087219E-06;  0.0000000E+00;
  0.0000000E+00;  9.9999998E-03; -1.6000000E+00;107;  0.0000000E+00;  0.0000000E+00;  0.0000000E+00;  1.0000484E+01;  4.0000001E-01;  5.2074369E-02;0;  0.0000000E+00;  0.0000000E+00;  0.0000000E+00;  0.0000000E+00;  0.0000000E+00;  0.0000000E+00;0;  4.6770856E-05;  1.0000000E+02;  0.0000000E+00;  0.0000000E+00;  1.0000000E+02;  0.0000000E+00;  1.0000000E+02;  3.4020461E-05;  0.0000000E+00;  1.2750395E-05;  0.0000000E+00;
  0.0000000E+00;  9.9999998E-03; -1.4000000E+00;108;  0.0000000E+00;  0.0000000E+00;  0.0000000E+00;  1.0000754E+01;  4.0000001E-01;  8.1189841E-02;0;  0.0000000E+00;  0.0000000E+00;  0.0000000E+00;  0.0000000E+00;  0.0000000E+00;  0.0000000E+00;0;  7.6157172E-05;  1.0000000E+02;  0.0000000E+00;  0.0000000E+00;  1.0000000E+02;  0.0000000E+00;  1.0000000E+02;  6.2550658E-05;  0.0000000E+00;  1.3606517E-05;  0.0000000E+00;
  0.0000000E+00;  9.9999998E-03; -1.2000000E+00;109;  0.0000000E+00;  0.0000000E+00;  0.0000000E+00;  1.0001386E+01;  4.0000001E-01;  1.4904043E-01;0;  0.0000000E+00;  0.0000000E+00;  0.0000000E+00;  0.0000000E+00;  0.0000000E+00;  0.0000000E+00;0;  1.0841504E-04;  1.0000000E+02;  0.0000000E+00;  0.0000000E+00;  1.0000000E+02;  0.0000000E+00;  1.0000000E+02;  9.6854506E-05;  0.0000000E+00;  1.1560527E-05;  0.0000000E+00;
  2.0000000E-01;  9.9999998E-03; -1.8000000E+00;116;  0.0000000E+00;  0.0000000E+00;  0.0000000E+00;  1.0000000E+01;  4.0000001E-01;  0.0000000E+00;0;  0.0000000E+00;  0.0000000E+00;  0.0000000E+00;  0.0000000E+00;  0.0000000E+00;  0.0000000E+00;0;  6.9894697E-05;  1.0000000E+02;  0.0000000E+00;  0.0000000E+00;  1.0000000E+02;  0.0000000E+00;  1.0000000E+02;  5.8395333E-05;  0.0000000E+00;  1.1499365E-05;  0.0000000E+00;
  2.0000000E-01;  9.9999998E-03; -1.6000000E+00;117;  0.0000000E+00;  0.0000000E+00;  0.0000000E+00;  1.0000000E+01;  4.0000001E-01;  0.0000000E+00;0;  0.0000000E+00;  0.0000000E+00;  0.0000000E+00;  0.0000000E+00;  0.0000000E+00;  0.0000000E+00;0;  1.3252557E-04;  1.0000000E+02;  0.0000000E+00;  0.0000000E+00;  1.0000000E+02;  0.0000000E+00;  1.0000000E+02;  1.1705353E-04;  0.0000000E+00;  1.5472055E-05;  0.0000000E+00;
  2.0000000E-01;  9.9999998E-03; -1.4000000E+00;118;  0.0000000E+00;  0.0000000E+00;  0.0000000E+00;  1.0000000E+01;  4.0000001E-01;  0.0000000E+00;0;  0.0000000E+00;  0.0000000E+00;  0.0000000E+00;  0.0000000E+00;  0.0000000E+00;  0.0000000E+00;0;  2.1555531E-04;  1.0000000E+02;  0.0000000E+00;  0.0000000E+00;  1.0000000E+02;  0.0000000E+00;  1.0000000E+02;  1.9908538E-04;  0.0000000E+00;  1.6469934E-05;  0.0000000E+00;
  2.0000000E-01;  9.9999998E-03; -1.2000000E+00;119;  0.0000000E+00;  0.0000000E+00;  0.0000000E+00;  1.0000000E+01;  4.0000001E-01;  0.0000000E+00;0;  0.0000000E+00;  0.0000000E+00;  0.0000000E+00;  0.0000000E+00;  0.0000000E+00;  0.0000000E+00;0;  3.0832333E-04;  1.0000000E+02;  0.0000000E+00;  0.0000000E+00;  1.0000000E+02;  0.0000000E+00;  1.0000000E+02;  2.9436854E-04;  0.0000000E+00;  1.3954806E-05;  0.0000000E+00;
  4.0000001E-01;  9.9999998E-03; -1.8000000E+00;126;  0.0000000E+00;  0.0000000E+00;  0.0000000E+00;  1.0000000E+01;  4.0000001E-01;  0.0000000E+00;0;  0.0000000E+00;  0.0000000E+00;  0.0000000E+00;  0.0000000E+00;  0.0000000E+00;  0.0000000E+00;0;  1.6185903E-04;  1.0000000E+02;  0.0000000E+00;  0.0000000E+00;  1.0000000E+02;  0.0000000E+00;  1.0000000E+02;  1.5080661E-04;  0.0000000E+00;  1.1052432E-05;  0.0000000E+00;
  4.0000001E-01;  9.9999998E-03; -1.6000000E+00;127;  0.0000000E+00;  0.0000000E+00;  0.0000000E+00;  1.0000000E+01;  4.0000001E-01;  0.0000000E+00;0;  0.0000000E+00;  0.0000000E+00;  0.0000000E+00;  0.0000000E+00;  0.0000000E+00;  0.0000000E+00;0;  2.9907349E-04;  1.0000000E+02;  0.0000000E+00;  0.0000000E+00;  1.0000000E+02;  0.0000000E+00;  1.0000000E+02;  2.8436093E-04;  0.0000000E+00;  1.4712571E-05;  0.0000000E+00;
  4.0000001E-01;  9.9999998E-03; -1.4000000E+00;128;  0.0000000E+00;  0.0000000E+00;  0.0000000E+00;  1.0000000E+01;  4.0000001E-01;  0.0000000E+00;0;  0.0000000E+00;  0.0000000E+00;  0.0000000E+00;  0.0000000E+00;  0.0000000E+00;  0.0000000E+00;0;  4.7960895E-04;  1.0000000E+02;  0.0000000E+00;  0.0000000E+00;  1.0000000E+02;  0.0000000E+00;  1.0000000E+02;  4.6394716E-04;  0.0000000E+00;  1.5661801E-05;  0.0000000E+00;
  4.0000001E-01;  9.9999998E-03; -1.2000000E+00;129;  0.0000000E+00;  0.0000000E+00;  0.0000000E+00;  1.0000000E+01;  4.0000001E-01;  0.0000000E+00;0;  0.0000000E+00;  0.0000000E+00;  0.0000000E+00;  0.0000000E+00;  0.0000000E+00;  0.0000000E+00;0;  6.7701348E-04;  1.0000000E+02;  0.0000000E+00;  0.0000000E+00;  1.0000000E+02;  0.0000000E+00;  1.0000000E+02;  6.6379801E-04;  0.0000000E+00;  1.3215476E-05;  0.0000000E+00;
  6.0000002E-01;  9.9999998E-03; -1.8000000E+00;136;  0.0000000E+00;  0.0000000E+00;  0.0000000E+00;  1.0000000E+01;  4.0000001E-01;  0.0000000E+00;0;  0.0000000E+00;  0.0000000E+00;  0.0000000E+00;  0.0000000E+00;  0.0000000E+00;  0.0000000E+00;0;  3.2099354E-04;  1.0000000E+02;  0.0000000E+00;  0.0000000E+00;  1.0000000E+02;  0.0000000E+00;  1.0000000E+02;  3.1428807E-04;  0.0000000E+00;  6.7054712E-06;  0.0000000E+00;
  6.0000002E-01;  9.9999998E-03; -1.6000000E+00;137;  0.0000000E+00;  0.0000000E+00;  0.0000000E+00;  1.0000000E+01;  4.0000001E-01;  0.0000000E+00;0;  0.0000000E+00;  0.0000000E+00;  0.0000000E+00;  0.0000000E+00;  0.0000000E+00;  0.0000000E+00;0;  5.7546509E-04;  1.0000000E+02;  0.0000000E+00;  0.0000000E+00;  1.0000000E+02;  0.0000000E+00;  1.0000000E+02;  5.6659814E-04;  0.0000000E+00;  8.8669312E-06;  0.0000000E+00;
  6.0000002E-01;  9.9999998E-03; -1.4000000E+00;138;  0.0000000E+00;  0.0000000E+00;  0.0000000E+00;  1.0000000E+01;  4.0000001E-01;  0.0000000E+00;0;  0.0000000E+00;  0.0000000E+00;  0.0000000E+00;  0.0000000E+00;  0.0000000E+00;  0.0000000E+00;0;  9.0691482E-04;  1.0000000E+02;  0.0000000E+00;  0.0000000E+00;  1.0000000E+02;  0.0000000E+00;  1.0000000E+02;  8.9745456E-04;  0.0000000E+00;  9.4602465E-06;  0.0000000E+00;
  6.0000002E-01;  9.9999998E-03; -1.2000000E+00;139;  0.0000000E+00;  0.0000000E+00;  0.0000000E+00;  1.0000000E+01;  4.0000001E-01;  0.0000000E+00;0;  0.0000000E+00;  0.0000000E+00;  0.0000000E+00;  0.0000000E+00;  0.0000000E+00;  0.0000000E+00;0;  1.2599628E-03;  1.0000000E+02;  0.0000000E+00;  0.0000000E+00;  1.0000000E+02;  0.0000000E+00;  1.0000000E+02;  1.2519426E-03;  0.0000000E+00;  8.0202035E-06;  0.0000000E+00;
  8.0000001E-01;  9.9999998E-03; -1.8000000E+00;146;  0.0000000E+00;  0.0000000E+00;  0.0000000E+00;  1.0000000E+01;  4.0000001E-01;  0.0000000E+00;0;  0.0000000E+00;  0.0000000E+00;  0.0000000E+00;  0.0000000E+00;  0.0000000E+00;  0.0000000E+00;0;  5.3592050E-04;  1.0000000E+02;  0.0000000E+00;  0.0000000E+00;  1.0000000E+02;  0.0000000E+00;  1.0000000E+02;  5.3818285E-04;  0.0000000E+00; -2.2623340E-06;  0.0000000E+00;
  8.0000001E-01;  9.9999998E-03; -1.6000000E+00;147;  0.0000000E+00;  0.0000000E+00;  0.0000000E+00;  1.0000000E+01;  4.0000001E-01;  0.0000000E+00;0;  0.0000000E+00;  0.0000000E+00;  0.0000000E+00;  0.0000000E+00;  0.0000000E+00;  0.0000000E+00;0;  9.3600072E-04;  1.0000000E+02;  0.0000000E+00;  0.0000000E+00;  1.0000000E+02;  0.0000000E+00;  1.0000000E+02;  9.3846355E-04;  0.0000000E+00; -2.4628382E-06;  0.0000000E+00;
  8.0000001E-01;  9.9999998E-03; -1.4000000E+00;148;  0.0000000E+00;  0.0000000E+00;  0.0000000E+00;  1.0000000E+01;  4.0000001E-01;  0.0000000E+00;0;  0.0000000E+00;  0.0000000E+00;  0.0000000E+00;  0.0000000E+00;  0.0000000E+00;  0.0000000E+00;0;  1.4653013E-03;  1.0000000E+02;  0.0000000E+00;  0.0000000E+00;  1.0000000E+02;  0.0000000E+00;  1.0000000E+02;  1.4676729E-03;  0.0000000E+00; -2.3715811E-06;  0.0000000E+00;
  8.0000001E-01;  9.9999998E-03; -1.2000000E+00;149;  0.0000000E+00;  0.0000000E+00;  0.0000000E+00;  1.0000000E+01;  4.0000001E-01;  0.0000000E+00;0;  0.0000000E+00;  0.0000000E+00;  0.0000000E+00;  0.0000000E+00;  0.0000000E+00;  0.0000000E+00;0;  2.0229877E-03;  1.0000000E+02;  0.0000000E+00;  0.0000000E+00;  1.0000000E+02;  0.0000000E+00;  1.0000000E+02;  2.0246641E-03;  0.0000000E+00; -1.6763524E-06;  0.0000000E+00;
  1.0000000E+00;  9.9999998E-03; -1.8000000E+00;156;  0.0000000E+00;  0.0000000E+00;  0.0000000E+00;  1.0000000E+01;  4.0000001E-01;  0.0000000E+00;0;  0.0000000E+00;  0.0000000E+00;  0.0000000E+00;  0.0000000E+00;  0.0000000E+00;  0.0000000E+00;0;  7.4136152E-04;  1.0000000E+02;  0.0000000E+00;  0.0000000E+00;  1.0000000E+02;  0.0000000E+00;  1.0000000E+02;  7.5812475E-04;  0.0000000E+00; -1.6763215E-05;  0.0000000E+00;
  1.0000000E+00;  9.9999998E-03; -1.6000000E+00;157;  0.0000000E+00;  0.0000000E+00;  0.0000000E+00;  1.0000000E+01;  4.0000001E-01;  0.0000000E+00;0;  0.0000000E+00;  0.0000000E+00;  0.0000000E+00;  0.0000000E+00;  0.0000000E+00;  0.0000000E+00;0;  1.2863607E-03;  1.0000000E+02;  0.0000000E+00;  0.0000000E+00;  1.0000000E+02;  0.0000000E+00;  1.0000000E+02;  1.3054411E-03;  0.0000000E+00; -1.9080484E-05;  0.0000000E+00;
  1.0000000E+00;  9.9999998E-03; -1.4000000E+00;158;  0.0000000E+00;  0.0000000E+00;  0.0000000E+00;  1.0000000E+01;  4.0000001E-01;  0.0000000E+00;0;  0.0000000E+00;  0.0000000E+00;  0.0000000E+00;  0.0000000E+00;  0.0000000E+00;  0.0000000E+00;0;  2.0298888E-03;  1.0000000E+02;  0.0000000E+00;  0.0000000E+00;  1.0000000E+02;  0.0000000E+00;  1.0000000E+02;  2.0486708E-03;  0.0000000E+00; -1.8781879E-05;  0.0000000E+00;
  1.0000000E+00;  9.9999998E-03; -1.2000000E+00;159;  0.0000000E+00;  0.0000000E+00;  0.0000000E+00;  1.0000000E+01;  4.0000001E-01;  0.0000000E+00;0;  0.0000000E+00;  0.0000000E+00;  0.0000000E+00;  0.0000000E+00;  0.0000000E+00;  0.0000000E+00;0;  2.8221905E-03;  1.0000000E+02;  0.0000000E+00;  0.0000000E+00;  1.0000000E+02;  0.0000000E+00;  1.0000000E+02;  2.8362141E-03;  0.0000000E+00; -1.4023534E-05;  0.0000000E+00;
 -1.0000000E+00;  9.9999998E-03;  0.0000000E+00;10;  0.0000000E+00;  0.0000000E+00;  0.0000000E+00;  1.0001437E+01;  4.0000001E-01;  1.5468533E-01;0;  0.0000000E+00;  0.0000000E+00;  0.0000000E+00;  0.0000000E+00;  0.0000000E+00;  0.0000000E+00;0; -1.0888234E-05;  1.0000000E+02;  0.0000000E+00;  0.0000000E+00;  1.0000000E+02;  0.0000000E+00;  1.0000000E+02; -1.0389247E-05;  0.0000000E+00; -4.9898659E-07;  0.0000000E+00;
 -1.0000000E+00;  9.9999998E-03;  2.0000000E-01;11;  0.0000000E+00;  0.0000000E+00;  0.0000000E+00;  1.0001415E+01;  4.0000001E-01;  1.5224834E-01;0;  0.0000000E+00;  0.0000000E+00;  0.0000000E+00;  0.0000000E+00;  0.0000000E+00;  0.0000000E+00;0; -1.1261446E-05;  1.0000000E+02;  0.0000000E+00;  0.0000000E+00;  1.0000000E+02;  0.0000000E+00;  1.0000000E+02; -1.0802037E-05;  0.0000000E+00; -4.5940931E-07;  0.0000000E+00;
 -1.0000000E+00;  9.9999998E-03;  4.0000001E-01;12;  0.0000000E+00;  0.0000000E+00;  0.0000000E+00;  1.0001355E+01;  4.0000001E-01;  1.4583518E-01;0;  0.0000000E+00;  0.0000000E+00;  0.0000000E+00;  0.0000000E+00;  0.0000000E+00;  0.0000000E+00;0; -1.2026494E-05;  1.0000000E+02;  0.0000000E+00;  0.0000000E+00;  1.0000000E+02;  0.0000000E+00;  1.0000000E+02; -1.1696079E-05;  0.0000000E+00; -3.3041530E-07;  0.0000000E+00;
 -1.0000000E+00;  9.9999998E-03;  6.0000002E-01;13;  0.0000000E+00;  0.0000000E+00;  0.0000000E+00;  1.0001233E+01;  4.0000001E-01;  1.3262407E-01;0;  0.0000000E+00;  0.0000000E+00;  0.0000000E+00;  0.0000000E+00;  0.0000000E+00;  0.0000000E+00;0; -1.2416092E-05;  1.0000000E+02;  0.0000000E+00;  0.0000000E+00;  1.0000000E+02;  0.0000000E+00;  1.0000000E+02; -1.2294769E-05;  0.0000000E+00; -1.2132182E-07;  0.0000000E+00;
 -1.0000000E+00;  9.9999998E-03;  8.0000001E-01;14;  0.0000000E+00;  0.0000000E+00;  0.0000000E+00;  1.0001022E+01;  4.0000001E-01;  1.1004976E-01;0;  0.0000000E+00;  0.0000000E+00;  0.0000000E+00;  0.0000000E+00;  0.0000000E+00;  0.0000000E+00;0; -1.1783757E-05;  1.0000000E+02;  0.0000000E+00;  0.0000000E+00;  1.0000000E+02;  0.0000000E+00;  1.0000000E+02; -1.1897536E-05;  0.0000000E+00;  1.1377898E-07;  0.0000000E+00;
 -1.0000000E+00;  9.9999998E-03;  1.0000000E+00;15;  0.0000000E+00;  0.0000000E+00;  0.0000000E+00;  1.0000754E+01;  4.0000001E-01;  8.1190556E-02;0;  0.0000000E+00;  0.0000000E+00;  0.0000000E+00;  0.0000000E+00;  0.0000000E+00;  0.0000000E+00;0; -9.9698336E-06;  1.0000000E+02;  0.0000000E+00;  0.0000000E+00;  1.0000000E+02;  0.0000000E+00;  1.0000000E+02; -1.0270449E-05;  0.0000000E+00;  3.0061489E-07;  0.0000000E+00;
 -1.0000000E+00;  9.9999998E-03;  1.2000000E+00;16;  0.0000000E+00;  0.0000000E+00;  0.0000000E+00;  1.0000500E+01;  4.0000001E-01;  5.3742249E-02;0;  0.0000000E+00;  0.0000000E+00;  0.0000000E+00;  0.0000000E+00;  0.0000000E+00;  0.0000000E+00;0; -7.3899582E-06;  1.0000000E+02;  0.0000000E+00;  0.0000000E+00;  1.0000000E+02;  0.0000000E+00;  1.0000000E+02; -7.7748809E-06;  0.0000000E+00;  3.8492254E-07;  0.0000000E+00;
 -1.0000000E+00;  9.9999998E-03;  1.4000000E+00;17;  0.0000000E+00;  0.0000000E+00;  0.0000000E+00;  1.0000267E+01;  4.0000001E-01;  2.8730940E-02;0;  0.0000000E+00;  0.0000000E+00;  0.0000000E+00;  0.0000000E+00;  0.0000000E+00;  0.0000000E+00;0; -4.7651074E-06;  1.0000000E+02;  0.0000000E+00;  0.0000000E+00;  1.0000000E+02;  0.0000000E+00;  1.0000000E+02; -5.1164607E-06;  0.0000000E+00;  3.5135324E-07;  0.0000000E+00;
 -8.0000001E-01;  9.9999998E-03;  0.0000000E+00;31;  0.0000000E+00;  0.0000000E+00;  0.0000000E+00;  1.0003156E+01;  4.0000001E-01;  3.3951241E-01;0;  0.0000000E+00;  0.0000000E+00;  0.0000000E+00;  0.0000000E+00;  0.0000000E+00;  0.0000000E+00;0; -2.5414747E-05;  1.0000000E+02;  0.0000000E+00;  0.0000000E+00;  1.0000000E+02;  0.0000000E+00;  1.0000000E+02; -2.3950848E-05;  0.0000000E+00; -1.4638990E-06;  0.0000000E+00;
 -8.0000001E-01;  9.9999998E-03;  2.0000000E-01;32;  0.0000000E+00;  0.0000000E+00;  0.0000000E+00;  1.0003107E+01;  4.0000001E-01;  3.3425364E-01;0;  0.0000000E+00;  0.0000000E+00;  0.0000000E+00;  0.0000000E+00;  0.0000000E+00;  0.0000000E+00;0; -2.5929883E-05;  1.0000000E+02;  0.0000000E+00;  0.0000000E+00;  1.0000000E+02;  0.0000000E+00;  1.0000000E+02; -2.4574081E-05;  0.0000000E+00; -1.3558018E-06;  0.0000000E+00;
 -8.0000001E-01;  9.9999998E-03;  4.0000001E-01;33;  0.0000000E+00;  0.0000000E+00;  0.0000000E+00;  1.0002941E+01;  4.0000001E-01;  3.1642506E-01;0;  0.0000000E+00;  0.0000000E+00;  0.0000000E+00;  0.0000000E+00;  0.0000000E+00;  0.0000000E+00;0; -2.6895430E-05;  1.0000000E+02;  0.0000000E+00;  0.0000000E+00;  1.0000000E+02;  0.0000000E+00;  1.0000000E+02; -2.5881969E-05;  0.0000000E+00; -1.0134601E-06;  0.0000000E+00;
 -8.0000001E-01;  9.9999998E-03;  6.0000002E-01;34;  0.0000000E+00;  0.0000000E+00;  0.0000000E+00;  1.0002651E+01;  4.0000001E-01;  2.8525713E-01;0;  0.0000000E+00;  0.0000000E+00;  0.0000000E+00;  0.0000000E+00;  0.0000000E+00;  0.0000000E+00;0; -2.6987927E-05;  1.0000000E+02;  0.0000000E+00;  0.0000000E+00;  1.0000000E+02;  0.0000000E+00;  1.0000000E+02; -2.6540336E-05;  0.0000000E+00; -4.4759065E-07;  0.0000000E+00;
 -8.0000001E-01;  9.9999998E-03;  8.0000001E-01;35;  0.0000000E+00;  0.0000000E+00;  0.0000000E+00;  1.0002247E+01;  4.0000001E-01;  2.4177594E-01;0;  0.0000000E+00;  0.0000000E+00;  0.0000000E+00;  0.0000000E+00;  0.0000000E+00;  0.0000000E+00;0; -2.5091791E-05;  1.0000000E+02;  0.0000000E+00;  0.0000000E+00;  1.0000000E+02;  0.0000000E+00;  1.0000000E+02; -2.5300682E-05;  0.0000000E+00;  2.0889060E-07;  0.0000000E+00;
 -8.0000001E-01;  9.9999998E-03;  1.0000000E+00;36;  0.0000000E+00;  0.0000000E+00;  0.0000000E+00;  1.0001762E+01;  4.0000001E-01;  1.8957286E-01;0;  0.0000000E+00;  0.0000000E+00;  0.0000000E+00;  0.0000000E+00;  0.0000000E+00;  0.0000000E+00;0; -2.1015276E-05;  1.0000000E+02;  0.0000000E+00;  0.0000000E+00;  1.0000000E+02;  0.0000000E+00;  1.0000000E+02; -2.1786538E-05;  0.0000000E+00;  7.7126214E-07;  0.0000000E+00;
 -8.0000001E-01;  9.9999998E-03;  1.2000000E+00;37;  0.0000000E+00;  0.0000000E+00;  0.0000000E+00;  1.0001216E+01;  4.0000001E-01;  1.3082837E-01;0;  0.0000000E+00;  0.0000000E+00;  0.0000000E+00;  0.0000000E+00;  0.0000000E+00;  0.0000000E+00;0; -1.5593987E-05;  1.0000000E+02;  0.0000000E+00;  0.0000000E+00;  1.0000000E+02;  0.0000000E+00;  1.0000000E+02; -1.6694677E-05;  0.0000000E+00;  1.1006899E-06;  0.0000000E+00;
 -8.0000001E-01;  9.9999998E-03;  1.4000000E+00;38;  0.0000000E+00;  0.0000000E+00;  0.0000000E+00;  1.0000714E+01;  4.0000001E-01;  7.6829597E-02;0;  0.0000000E+00;  0.0000000E+00;  0.0000000E+00;  0.0000000E+00;  0.0000000E+00;  0.0000000E+00;0; -1.0180900E-05;  1.0000000E+02;  0.0000000E+00;  0.0000000E+00;  1.0000000E+02;  0.0000000E+00;  1.0000000E+02; -1.1314351E-05;  0.0000000E+00;  1.1334500E-06;  0.0000000E+00;
 -6.0000002E-01;  9.9999998E-03;  0.0000000E+00;52;  0.0000000E+00;  0.0000000E+00;  0.0000000E+00;  1.0004958E+01;  4.0000001E-01;  5.3344595E-01;0;  0.0000000E+00;  0.0000000E+00;  0.0000000E+00;  0.0000000E+00;  0.0000000E+00;  0.0000000E+00;0; -4.2117434E-05;  1.0000000E+02;  0.0000000E+00;  0.0000000E+00;  1.0000000E+02;  0.0000000E+00;  1.0000000E+02; -3.8645274E-05;  0.0000000E+00; -3.4721588E-06;  0.0000000E+00;
 -6.0000002E-01;  9.9999998E-03;  2.0000000E-01;53;  0.0000000E+00;  0.0000000E+00;  0.0000000E+00;  1.0004870E+01;  4.0000001E-01;  5.2408278E-01;0;  0.0000000E+00;  0.0000000E+00;  0.0000000E+00;  0.0000000E+00;  0.0000000E+00;  0.0000000E+00;0; -4.2460764E-05;  1.0000000E+02;  0.0000000E+00;  0.0000000E+00;  1.0000000E+02;  0.0000000E+00;  1.0000000E+02; -3.9244922E-05;  0.0000000E+00; -3.2158421E-06;  0.0000000E+00;
 -6.0000002E-01;  9.9999998E-03;  4.0000001E-01;54;  0.0000000E+00;  0.0000000E+00;  0.0000000E+00;  1.0004593E+01;  4.0000001E-01;  4.9419749E-01;0;  0.0000000E+00;  0.0000000E+00;  0.0000000E+00;  0.0000000E+00;  0.0000000E+00;  0.0000000E+00;0; -4.2871969E-05;  1.0000000E+02;  0.0000000E+00;  0.0000000E+00;  1.0000000E+02;  0.0000000E+00;  1.0000000E+02; -4.0442523E-05;  0.0000000E+00; -2.4294463E-06;  0.0000000E+00;
 -6.0000002E-01;  9.9999998E-03;  6.0000002E-01;55;  0.0000000E+00;  0.0000000E+00;  0.0000000E+00;  1.0004113E+01;  4.0000001E-01;  4.4250748E-01;0;  0.0000000E+00;  0.0000000E+00;  0.0000000E+00;  0.0000000E+00;  0.0000000E+00;  0.0000000E+00;0; -4.1863561E-05;  1.0000000E+02;  0.0000000E+00;  0.0000000E+00;  1.0000000E+02;  0.0000000E+00;  1.0000000E+02; -4.0704566E-05;  0.0000000E+00; -1.1589960E-06;  0.0000000E+00;
 -6.0000002E-01;  9.9999998E-03;  8.0000001E-01;56;  0.0000000E+00;  0.0000000E+00;  0.0000000E+00;  1.0003446E+01;  4.0000001E-01;  3.7068018E-01;0;  0.0000000E+00;  0.0000000E+00;  0.0000000E+00;  0.0000000E+00;  0.0000000E+00;  0.0000000E+00;0; -3.7955630E-05;  1.0000000E+02;  0.0000000E+00;  0.0000000E+00;  1.0000000E+02;  0.0000000E+00;  1.0000000E+02; -3.8281356E-05;  0.0000000E+00;  3.2572527E-07;  0.0000000E+00;
 -6.0000002E-01;  9.9999998E-03;  1.0000000E+00;57;  0.0000000E+00;  0.0000000E+00;  0.0000000E+00;  1.0002656E+01;  4.0000001E-01;  2.8577006E-01;0;  0.0000000E+00;  0.0000000E+00;  0.0000000E+00;  0.0000000E+00;  0.0000000E+00;  0.0000000E+00;0; -3.1040581E-05;  1.0000000E+02;  0.0000000E+00;  0.0000000E+00;  1.0000000E+02;  0.0000000E+00;  1.0000000E+02; -3.2681884E-05;  0.0000000E+00;  1.6413031E-06;  0.0000000E+00;
 -6.0000002E-01;  9.9999998E-03;  1.2000000E+00;58;  0.0000000E+00;  0.0000000E+00;  0.0000000E+00;  1.0001907E+01;  4.0000001E-01;  2.0522086E-01;0;  0.0000000E+00;  0.0000000E+00;  0.0000000E+00;  0.0000000E+00;  0.0000000E+00;  0.0000000E+00;0; -2.2551794E-05;  1.0000000E+02;  0.0000000E+00;  0.0000000E+00;  1.0000000E+02;  0.0000000E+00;  1.0000000E+02; -2.5051224E-05;  0.0000000E+00;  2.4994301E-06;  0.0000000E+00;
 -6.0000002E-01;  9.9999998E-03;  1.4000000E+00;59;  0.0000000E+00;  0.0000000E+00;  0.0000000E+00;  1.0001203E+01;  4.0000001E-01;  1.2941740E-01;0;  0.0000000E+00;  0.0000000E+00;  0.0000000E+00;  0.0000000E+00;  0.0000000E+00;  0.0000000E+00;0; -1.4476534E-05;  1.0000000E+02;  0.0000000E+00;  0.0000000E+00;  1.0000000E+02;  0.0000000E+00;  1.0000000E+02; -1.7222346E-05;  0.0000000E+00;  2.7458120E-06;  0.0000000E+00;
 -4.0000001E-01;  9.9999998E-03;  0.0000000E+00;73;  0.0000000E+00;  0.0000000E+00;  0.0000000E+00;  1.0006295E+01;  4.0000001E-01;  6.7735642E-01;0;  0.0000000E+00;  0.0000000E+00;  0.0000000E+00;  0.0000000E+00;  0.0000000E+00;  0.0000000E+00;0; -4.6031226E-05;  1.0000000E+02;  0.0000000E+00;  0.0000000E+00;  1.0000000E+02;  0.0000000E+00;  1.0000000E+02; -3.9111415E-05;  0.0000000E+00; -6.9198104E-06;  0.0000000E+00;
 -4.0000001E-01;  9.9999998E-03;  2.0000000E-01;74;  0.0000000E+00;  0.0000000E+00;  0.0000000E+00;  1.0006165E+01;  4.0000001E-01;  6.6324753E-01;0;  0.0000000E+00;  0.0000000E+00;  0.0000000E+00;  0.0000000E+00;  0.0000000E+00;  0.0000000E+00;0; -4.5678113E-05;  1.0000000E+02;  0.0000000E+00;  0.0000000E+00;  1.0000000E+02;  0.0000000E+00;  1.0000000E+02; -3.9260845E-05;  0.0000000E+00; -6.4172668E-06;  0.0000000E+00;
 -4.0000001E-01;  9.9999998E-03;  4.0000001E-01;75;  0.0000000E+00;  0.0000000E+00;  0.0000000E+00;  1.0005754E+01;  4.0000001E-01;  6.1899680E-01;0;  0.0000000E+00;  0.0000000E+00;  0.0000000E+00;  0.0000000E+00;  0.0000000E+00;  0.0000000E+00;0; -4.3936863E-05;  1.0000000E+02;  0.0000000E+00;  0.0000000E+00;  1.0000000E+02;  0.0000000E+00;  1.0000000E+02; -3.9041795E-05;  0.0000000E+00; -4.8950692E-06;  0.0000000E+00;
 -4.0000001E-01;  9.9999998E-03;  6.0000002E-01;76;  0.0000000E+00;  0.0000000E+00;  0.0000000E+00;  1.0005103E+01;  4.0000001E-01;  5.4909348E-01;0;  0.0000000E+00;  0.0000000E+00;  0.0000000E+00;  0.0000000E+00;  0.0000000E+00;  0.0000000E+00;0; -4.0318959E-05;  1.0000000E+02;  0.0000000E+00;  0.0000000E+00;  1.0000000E+02;  0.0000000E+00;  1.0000000E+02; -3.7864000E-05;  0.0000000E+00; -2.4549597E-06;  0.0000000E+00;
 -4.0000001E-01;  9.9999998E-03;  8.0000001E-01;77;  0.0000000E+00;  0.0000000E+00;  0.0000000E+00;  1.0004233E+01;  4.0000001E-01;  4.5546159E-01;0;  0.0000000E+00;  0.0000000E+00;  0.0000000E+00;  0.0000000E+00;  0.0000000E+00;  0.0000000E+00;0; -3.4614444E-05;  1.0000000E+02;  0.0000000E+00;  0.0000000E+00;  1.0000000E+02;  0.0000000E+00;  1.0000000E+02; -3.5041605E-05;  0.0000000E+00;  4.2716033E-07;  0.0000000E+00;
 -4.0000001E-01;  9.9999998E-03;  1.0000000E+00;78;  0.0000000E+00;  0.0000000E+00;  0.0000000E+00;  1.0003256E+01;  4.0000001E-01;  3.5028601E-01;0;  0.0000000E+00;  0.0000000E+00;  0.0000000E+00;  0.0000000E+00;  0.0000000E+00;  0.0000000E+00;0; -2.7041617E-05;  1.0000000E+02;  0.0000000E+00;  0.0000000E+00;  1.0000000E+02;  0.0000000E+00;  1.0000000E+02; -3.0077294E-05;  0.0000000E+00;  3.0356778E-06;  0.0000000E+00;
 -4.0000001E-01;  9.9999998E-03;  1.2000000E+00;79;  0.0000000E+00;  0.0000000E+00;  0.0000000E+00;  1.0002314E+01;  4.0000001E-01;  2.4895830E-01;0;  0.0000000E+00;  0.0000000E+00;  0.0000000E+00;  0.0000000E+00;  0.0000000E+00;  0.0000000E+00;0; -1.8633827E-05;  1.0000000E+02;  0.0000000E+00;  0.0000000E+00;  1.0000000E+02;  0.0000000E+00;  1.0000000E+02; -2.3457158E-05;  0.0000000E+00;  4.8233305E-06;  0.0000000E+00;
 -4.0000001E-01;  9.9999998E-03;  1.4000000E+00;80;  0.0000000E+00;  0.0000000E+00;  0.0000000E+00;  1.0001434E+01;  4.0000001E-01;  1.5430027E-01;0;  0.0000000E+00;  0.0000000E+00;  0.0000000E+00;  0.0000000E+00;  0.0000000E+00;  0.0000000E+00;0; -1.1133719E-05;  1.0000000E+02;  0.0000000E+00;  0.0000000E+00;  1.0000000E+02;  0.0000000E+00;  1.0000000E+02; -1.6634094E-05;  0.0000000E+00;  5.5003748E-06;  0.0000000E+00;
 -2.0000000E-01;  9.9999998E-03;  0.0000000E+00;94;  0.0000000E+00;  0.0000000E+00;  0.0000000E+00;  1.0006746E+01;  4.0000001E-01;  7.2583824E-01;0;  0.0000000E+00;  0.0000000E+00;  0.0000000E+00;  0.0000000E+00;  0.0000000E+00;  0.0000000E+00;0; -1.4136276E-08;  1.0000000E+02;  0.0000000E+00;  0.0000000E+00;  1.0000000E+02;  0.0000000E+00;  1.0000000E+02;  1.1607070E-05;  0.0000000E+00; -1.1621206E-05;  0.0000000E+00;
 -2.0000000E-01;  9.9999998E-03;  2.0000000E-01;95;  0.0000000E+00;  0.0000000E+00;  0.0000000E+00;  1.0006563E+01;  4.0000001E-01;  7.0621407E-01;0;  0.0000000E+00;  0.0000000E+00;  0.0000000E+00;  0.0000000E+00;  0.0000000E+00;  0.0000000E+00;0;  1.4696298E-06;  1.0000000E+02;  0.0000000E+00;  0.0000000E+00;  1.0000000E+02;  0.0000000E+00;  1.0000000E+02;  1.2277802E-05;  0.0000000E+00; -1.0808172E-05;  0.0000000E+00;
 -2.0000000E-01;  9.9999998E-03;  4.0000001E-01;96;  0.0000000E+00;  0.0000000E+00;  0.0000000E+00;  1.0006025E+01;  4.0000001E-01;  6.4823937E-01;0;  0.0000000E+00;  0.0000000E+00;  0.0000000E+00;  0.0000000E+00;  0.0000000E+00;  0.0000000E+00;0;  5.3976100E-06;  1.0000000E+02;  0.0000000E+00;  0.0000000E+00;  1.0000000E+02;  0.0000000E+00;  1.0000000E+02;  1.3778134E-05;  0.0000000E+00; -8.3805244E-06;  0.0000000E+00;
 -2.0000000E-01;  9.9999998E-03;  6.0000002E-01;97;  0.0000000E+00;  0.0000000E+00;  0.0000000E+00;  1.0005228E+01;  4.0000001E-01;  5.6255990E-01;0;  0.0000000E+00;  0.0000000E+00;  0.0000000E+00;  0.0000000E+00;  0.0000000E+00;  0.0000000E+00;0;  1.0521882E-05;  1.0000000E+02;  0.0000000E+00;  0.0000000E+00;  1.0000000E+02;  0.0000000E+00;  1.0000000E+02;  1.4970889E-05;  0.0000000E+00; -4.4490066E-06;  0.0000000E+00;
 -2.0000000E-01;  9.9999998E-03;  8.0000001E-01;98;  0.0000000E+00;  0.0000000E+00;  0.0000000E+00;  1.0004242E+01;  4.0000001E-01;  4.5635843E-01;0;  0.0000000E+00;  0.0000000E+00;  0.0000000E+00;  0.0000000E+00;  0.0000000E+00;  0.0000000E+00;0;  1.4576280E-05;  1.0000000E+02;  0.0000000E+00;  0.0000000E+00;  1.0000000E+02;  0.0000000E+00;  1.0000000E+02;  1.4220563E-05;  0.0000000E+00;  3.5571699E-07;  0.0000000E+00;
 -2.0000000E-01;  9.9999998E-03;  1.0000000E+00;99;  0.0000000E+00;  0.0000000E+00;  0.0000000E+00;  1.0003201E+01;  4.0000001E-01;  3.4438518E-01;0;  0.0000000E+00;  0.0000000E+00;  0.0000000E+00;  0.0000000E+00;  0.0000000E+00;  0.0000000E+00;0;  1.5981204E-05;  1.0000000E+02;  0.0000000E+00;  0.0000000E+00;  1.0000000E+02;  0.0000000E+00;  1.0000000E+02;  1.1117113E-05;  0.0000000E+00;  4.8640904E-06;  0.0000000E+00;
 -2.0000000E-01;  9.9999998E-03;  1.2000000E+00;100;  0.0000000E+00;  0.0000000E+00;  0.0000000E+00;  1.0002210E+01;  4.0000001E-01;  2.3779891E-01;0;  0.0000000E+00;  0.0000000E+00;  0.0000000E+00;  0.0000000E+00;  0.0000000E+00;  0.0000000E+00;0;  1.4963904E-05;  1.0000000E+02;  0.0000000E+00;  0.0000000E+00;  1.0000000E+02;  0.0000000E+00;  1.0000000E+02;  6.9187186E-06;  0.0000000E+00;  8.0451855E-06;  0.0000000E+00;
 -2.0000000E-01;  9.9999998E-03;  1.4000000E+00;101;  0.0000000E+00;  0.0000000E+00;  0.0000000E+00;  1.0001407E+01;  4.0000001E-01;  1.5134990E-01;0;  0.0000000E+00;  0.0000000E+00;  0.0000000E+00;  0.0000000E+00;  0.0000000E+00;  0.0000000E+00;0;  1.1989003E-05;  1.0000000E+02;  0.0000000E+00;  0.0000000E+00;  1.0000000E+02;  0.0000000E+00;  1.0000000E+02;  2.6165567E-06;  0.0000000E+00;  9.3724466E-06;  0.0000000E+00;
  0.0000000E+00;  9.9999998E-03;  1.2000000E+00;110;  0.0000000E+00;  0.0000000E+00;  0.0000000E+00;  1.0001386E+01;  4.0000001E-01;  1.4904043E-01;0;  0.0000000E+00;  0.0000000E+00;  0.0000000E+00;  0.0000000E+00;  0.0000000E+00;  0.0000000E+00;0;  1.0841410E-04;  1.0000000E+02;  0.0000000E+00;  0.0000000E+00;  1.0000000E+02;  0.0000000E+00;  1.0000000E+02;  9.6853939E-05;  0.0000000E+00;  1.1560164E-05;  0.0000000E+00;
  0.0000000E+00;  9.9999998E-03;  1.4000000E+00;111;  0.0000000E+00;  0.0000000E+00;  0.0000000E+00;  1.0000754E+01;  4.0000001E-01;  8.1189841E-02;0;  0.0000000E+00;  0.0000000E+00;  0.0000000E+00;  0.0000000E+00;  0.0000000E+00;  0.0000000E+00;0;  7.6156473E-05;  1.0000000E+02;  0.0000000E+00;  0.0000000E+00;  1.0000000E+02;  0.0000000E+00;  1.0000000E+02;  6.2550243E-05;  0.0000000E+00;  1.3606228E-05;  0.0000000E+00;
  2.0000000E-01;  9.9999998E-03;  1.2000000E+00;120;  0.0000000E+00;  0.0000000E+00;  0.0000000E+00;  1.0000000E+01;  4.0000001E-01;  0.0000000E+00;0;  0.0000000E+00;  0.0000000E+00;  0.0000000E+00;  0.0000000E+00;  0.0000000E+00;  0.0000000E+00;0;  3.0832188E-04;  1.0000000E+02;  0.0000000E+00;  0.0000000E+00;  1.0000000E+02;  0.0000000E+00;  1.0000000E+02;  2.9436755E-04;  0.0000000E+00;  1.3954335E-05;  0.0000000E+00;
  2.0000000E-01;  9.9999998E-03;  1.4000000E+00;121;  0.0000000E+00;  0.0000000E+00;  0.0000000E+00;  1.0000000E+01;  4.0000001E-01;  0.0000000E+00;0;  0.0000000E+00;  0.0000000E+00;  0.0000000E+00;  0.0000000E+00;  0.0000000E+00;  0.0000000E+00;0;  2.1555417E-04;  1.0000000E+02;  0.0000000E+00;  0.0000000E+00;  1.0000000E+02;  0.0000000E+00;  1.0000000E+02;  1.9908455E-04;  0.0000000E+00;  1.6469632E-05;  0.0000000E+00;
  4.0000001E-01;  9.9999998E-03;  1.2000000E+00;130;  0.0000000E+00;  0.0000000E+00;  0.0000000E+00;  1.0000000E+01;  4.0000001E-01;  0.0000000E+00;0;  0.0000000E+00;  0.0000000E+00;  0.0000000E+00;  0.0000000E+00;  0.0000000E+00;  0.0000000E+00;0;  6.7701162E-04;  1.0000000E+02;  0.0000000E+00;  0.0000000E+00;  1.0000000E+02;  0.0000000E+00;  1.0000000E+02;  6.6379656E-04;  0.0000000E+00;  1.3215064E-05;  0.0000000E+00;
  4.0000001E-01;  9.9999998E-03;  1.4000000E+00;131;  0.0000000E+00;  0.0000000E+00;  0.0000000E+00;  1.0000000E+01;  4.0000001E-01;  0.0000000E+00;0;  0.0000000E+00;  0.0000000E+00;  0.0000000E+00;  0.0000000E+00;  0.0000000E+00;  0.0000000E+00;0;  4.7960761E-04;  1.0000000E+02;  0.0000000E+00;  0.0000000E+00;  1.0000000E+02;  0.0000000E+00;  1.0000000E+02;  4.6394585E-04;  0.0000000E+00;  1.5661746E-05;  0.0000000E+00;
  6.0000002E-01;  9.9999998E-03;  1.2000000E+00;140;  0.0000000E+00;  0.0000000E+00;  0.0000000E+00;  1.0000000E+01;  4.0000001E-01;  0.0000000E+00;0;  0.0000000E+00;  0.0000000E+00;  0.0000000E+00;  0.0000000E+00;  0.0000000E+00;  0.0000000E+00;0;  1.2599609E-03;  1.0000000E+02;  0.0000000E+00;  0.0000000E+00;  1.0000000E+02;  0.0000000E+00;  1.0000000E+02;  1.2519407E-03;  0.0000000E+00;  8.0202180E-06;  0.0000000E+00;
  6.0000002E-01;  9.9999998E-03;  1.4000000E+00;141;  0.0000000E+00;  0.0000000E+00;  0.0000000E+00;  1.0000000E+01;  4.0000001E-01;  0.0000000E+00;0;  0.0000000E+00;  0.0000000E+00;  0.0000000E+00;  0.0000000E+00;  0.0000000E+00;  0.0000000E+00;0;  9.0691377E-04;  1.0000000E+02;  0.0000000E+00;  0.0000000E+00;  1.0000000E+02;  0.0000000E+00;  1.0000000E+02;  8.9745282E-04;  0.0000000E+00;  9.4609723E-06;  0.0000000E+00;
  8.0000001E-01;  9.9999998E-03;  1.2000000E+00;150;  0.0000000E+00;  0.0000000E+00;  0.0000000E+00;  1.0000000E+01;  4.0000001E-01;  0.0000000E+00;0;  0.0000000E+00;  0.0000000E+00;  0.0000000E+00;  0.0000000E+00;  0.0000000E+00;  0.0000000E+00;0;  2.0229886E-03;  1.0000000E+02;  0.0000000E+00;  0.0000000E+00;  1.0000000E+02;  0.0000000E+00;  1.0000000E+02;  2.0246638E-03;  0.0000000E+00; -1.6752800E-06;  0.0000000E+00;
  8.0000001E-01;  9.9999998E-03;  1.4000000E+00;151;  0.0000000E+00;  0.0000000E+00;  0.0000000E+00;  1.0000000E+01;  4.0000001E-01;  0.0000000E+00;0;  0.0000000E+00;  0.0000000E+00;  0.0000000E+00;  0.0000000E+00;  0.0000000E+00;  0.0000000E+00;0;  1.4653022E-03;  1.0000000E+02;  0.0000000E+00;  0.0000000E+00;  1.0000000E+02;  0.0000000E+00;  1.0000000E+02;  1.4676717E-03;  0.0000000E+00; -2.3695225E-06;  0.0000000E+00;
  1.0000000E+00;  9.9999998E-03;  1.2000000E+00;160;  0.0000000E+00;  0.0000000E+00;  0.0000000E+00;  1.0000000E+01;  4.0000001E-01;  0.0000000E+00;0;  0.0000000E+00;  0.0000000E+00;  0.0000000E+00;  0.0000000E+00;  0.0000000E+00;  0.0000000E+00;0;  2.8221954E-03;  1.0000000E+02;  0.0000000E+00;  0.0000000E+00;  1.0000000E+02;  0.0000000E+00;  1.0000000E+02;  2.8362160E-03;  0.0000000E+00; -1.4020564E-05;  0.0000000E+00;
  1.0000000E+00;  9.9999998E-03;  1.4000000E+00;161;  0.0000000E+00;  0.0000000E+00;  0.0000000E+00;  1.0000000E+01;  4.0000001E-01;  0.0000000E+00;0;  0.0000000E+00;  0.0000000E+00;  0.0000000E+00;  0.0000000E+00;  0.0000000E+00;  0.0000000E+00;0;  2.0298942E-03;  1.0000000E+02;  0.0000000E+00;  0.0000000E+00;  1.0000000E+02;  0.0000000E+00;  1.0000000E+02;  2.0486722E-03;  0.0000000E+00; -1.8778110E-05;  0.0000000E+00;
 -1.0000000E+00;  9.9999998E-03;  1.6000000E+00;18;  0.0000000E+00;  0.0000000E+00;  0.0000000E+00;  1.0000038E+01;  4.0000001E-01;  4.1044201E-03;0;  0.0000000E+00;  0.0000000E+00;  0.0000000E+00;  0.0000000E+00;  0.0000000E+00;  0.0000000E+00;0; -2.6826706E-06;  1.0000000E+02;  0.0000000E+00;  0.0000000E+00;  1.0000000E+02;  0.0000000E+00;  1.0000000E+02; -2.9103251E-06;  0.0000000E+00;  2.2765450E-07;  0.0000000E+00;
 -1.0000000E+00;  9.9999998E-03;  1.8000000E+00;19;  0.0000000E+00;  0.0000000E+00;  0.0000000E+00;  1.0000000E+01;  4.0000001E-01;  0.0000000E+00;0;  0.0000000E+00;  0.0000000E+00;  0.0000000E+00;  0.0000000E+00;  0.0000000E+00;  0.0000000E+00;0; -1.3127933E-06;  1.0000000E+02;  0.0000000E+00;  0.0000000E+00;  1.0000000E+02;  0.0000000E+00;  1.0000000E+02; -1.3961203E-06;  0.0000000E+00;  8.3327031E-08;  0.0000000E+00;
 -1.0000000E+00;  9.9999998E-03;  2.0000000E+00;20;  0.0000000E+00;  0.0000000E+00;  0.0000000E+00;  1.0000000E+01;  4.0000001E-01;  0.0000000E+00;0;  0.0000000E+00;  0.0000000E+00;  0.0000000E+00;  0.0000000E+00;  0.0000000E+00;  0.0000000E+00;0; -4.8763707E-07;  1.0000000E+02;  0.0000000E+00;  0.0000000E+00;  1.0000000E+02;  0.0000000E+00;  1.0000000E+02; -4.9037345E-07;  0.0000000E+00;  2.7363765E-09;  0.0000000E+00;
 -8.0000001E-01;  9.9999998E-03;  1.6000000E+00;39;  0.0000000E+00;  0.0000000E+00;  0.0000000E+00;  1.0000361E+01;  4.0000001E-01;  3.8863719E-02;0;  0.0000000E+00;  0.0000000E+00;  0.0000000E+00;  0.0000000E+00;  0.0000000E+00;  0.0000000E+00;0; -5.8729183E-06;  1.0000000E+02;  0.0000000E+00;  0.0000000E+00;  1.0000000E+02;  0.0000000E+00;  1.0000000E+02; -6.7563401E-06;  0.0000000E+00;  8.8342176E-07;  0.0000000E+00;
 -8.0000001E-01;  9.9999998E-03;  1.8000000E+00;40;  0.0000000E+00;  0.0000000E+00;  0.0000000E+00;  1.0000087E+01;  4.0000001E-01;  9.3632061E-03;0;  0.0000000E+00;  0.0000000E+00;  0.0000000E+00;  0.0000000E+00;  0.0000000E+00;  0.0000000E+00;0; -3.0254175E-06;  1.0000000E+02;  0.0000000E+00;  0.0000000E+00;  1.0000000E+02;  0.0000000E+00;  1.0000000E+02; -3.4970863E-06;  0.0000000E+00;  4.7166867E-07;  0.0000000E+00;
 -8.0000001E-01;  9.9999998E-03;  2.0000000E+00;41;  0.0000000E+00;  0.0000000E+00;  0.0000000E+00;  1.0000000E+01;  4.0000001E-01;  0.0000000E+00;0;  0.0000000E+00;  0.0000000E+00;  0.0000000E+00;  0.0000000E+00;  0.0000000E+00;  0.0000000E+00;0; -1.3066677E-06;  1.0000000E+02;  0.0000000E+00;  0.0000000E+00;  1.0000000E+02;  0.0000000E+00;  1.0000000E+02; -1.4381416E-06;  0.0000000E+00;  1.3147385E-07;  0.0000000E+00;
 -6.0000002E-01;  9.9999998E-03;  1.6000000E+00;60;  0.0000000E+00;  0.0000000E+00;  0.0000000E+00;  1.0000634E+01;  4.0000001E-01;  6.8235934E-02;0;  0.0000000E+00;  0.0000000E+00;  0.0000000E+00;  0.0000000E+00;  0.0000000E+00;  0.0000000E+00;0; -8.2200613E-06;  1.0000000E+02;  0.0000000E+00;  0.0000000E+00;  1.0000000E+02;  0.0000000E+00;  1.0000000E+02; -1.0557846E-05;  0.0000000E+00;  2.3377843E-06;  0.0000000E+00;
 -6.0000002E-01;  9.9999998E-03;  1.8000000E+00;61;  0.0000000E+00;  0.0000000E+00;  0.0000000E+00;  1.0000278E+01;  4.0000001E-01;  3.0013552E-02;0;  0.0000000E+00;  0.0000000E+00;  0.0000000E+00;  0.0000000E+00;  0.0000000E+00;  0.0000000E+00;0; -4.2652041E-06;  1.0000000E+02;  0.0000000E+00;  0.0000000E+00;  1.0000000E+02;  0.0000000E+00;  1.0000000E+02; -5.6998301E-06;  0.0000000E+00;  1.4346261E-06;  0.0000000E+00;
 -6.0000002E-01;  9.9999998E-03;  2.0000000E+00;62;  0.0000000E+00;  0.0000000E+00;  0.0000000E+00;  1.0000000E+01;  4.0000001E-01;  0.0000000E+00;0;  0.0000000E+00;  0.0000000E+00;  0.0000000E+00;  0.0000000E+00;  0.0000000E+00;  0.0000000E+00;0; -2.0042876E-06;  1.0000000E+02;  0.0000000E+00;  0.0000000E+00;  1.0000000E+02;  0.0000000E+00;  1.0000000E+02; -2.5398481E-06;  0.0000000E+00;  5.3556062E-07;  0.0000000E+00;
 -4.0000001E-01;  9.9999998E-03;  1.6000000E+00;81;  0.0000000E+00;  0.0000000E+00;  0.0000000E+00;  1.0000803E+01;  4.0000001E-01;  8.6449198E-02;0;  0.0000000E+00;  0.0000000E+00;  0.0000000E+00;  0.0000000E+00;  0.0000000E+00;  0.0000000E+00;0; -5.9915778E-06;  1.0000000E+02;  0.0000000E+00;  0.0000000E+00;  1.0000000E+02;  0.0000000E+00;  1.0000000E+02; -1.0932904E-05;  0.0000000E+00;  4.9413261E-06;  0.0000000E+00;
 -4.0000001E-01;  9.9999998E-03;  1.8000000E+00;82;  0.0000000E+00;  0.0000000E+00;  0.0000000E+00;  1.0000381E+01;  4.0000001E-01;  4.0915869E-02;0;  0.0000000E+00;  0.0000000E+00;  0.0000000E+00;  0.0000000E+00;  0.0000000E+00;  0.0000000E+00;0; -3.3088052E-06;  1.0000000E+02;  0.0000000E+00;  0.0000000E+00;  1.0000000E+02;  0.0000000E+00;  1.0000000E+02; -6.6119233E-06;  0.0000000E+00;  3.3031181E-06;  0.0000000E+00;
 -4.0000001E-01;  9.9999998E-03;  2.0000000E+00;83;  0.0000000E+00;  0.0000000E+00;  0.0000000E+00;  1.0000092E+01;  4.0000001E-01;  9.8762438E-03;0;  0.0000000E+00;  0.0000000E+00;  0.0000000E+00;  0.0000000E+00;  0.0000000E+00;  0.0000000E+00;0; -1.8256725E-06;  1.0000000E+02;  0.0000000E+00;  0.0000000E+00;  1.0000000E+02;  0.0000000E+00;  1.0000000E+02; -3.2622029E-06;  0.0000000E+00;  1.4365304E-06;  0.0000000E+00;
 -2.0000000E-01;  9.9999998E-03;  1.6000000E+00;102;  0.0000000E+00;  0.0000000E+00;  0.0000000E+00;  1.0000818E+01;  4.0000001E-01;  8.7988168E-02;0;  0.0000000E+00;  0.0000000E+00;  0.0000000E+00;  0.0000000E+00;  0.0000000E+00;  0.0000000E+00;0;  8.0124209E-06;  1.0000000E+02;  0.0000000E+00;  0.0000000E+00;  1.0000000E+02;  0.0000000E+00;  1.0000000E+02; -6.6223777E-07;  0.0000000E+00;  8.6746586E-06;  0.0000000E+00;
 -2.0000000E-01;  9.9999998E-03;  1.8000000E+00;103;  0.0000000E+00;  0.0000000E+00;  0.0000000E+00;  1.0000424E+01;  4.0000001E-01;  4.5661498E-02;0;  0.0000000E+00;  0.0000000E+00;  0.0000000E+00;  0.0000000E+00;  0.0000000E+00;  0.0000000E+00;0;  3.7756988E-06;  1.0000000E+02;  0.0000000E+00;  0.0000000E+00;  1.0000000E+02;  0.0000000E+00;  1.0000000E+02; -2.3523551E-06;  0.0000000E+00;  6.1280539E-06;  0.0000000E+00;
 -2.0000000E-01;  9.9999998E-03;  2.0000000E+00;104;  0.0000000E+00;  0.0000000E+00;  0.0000000E+00;  1.0000140E+01;  4.0000001E-01;  1.5134990E-02;0;  0.0000000E+00;  0.0000000E+00;  0.0000000E+00;  0.0000000E+00;  0.0000000E+00;  0.0000000E+00;0;  5.5873397E-07;  1.0000000E+02;  0.0000000E+00;  0.0000000E+00;  1.0000000E+02;  0.0000000E+00;  1.0000000E+02; -2.4050546E-06;  0.0000000E+00;  2.9637886E-06;  0.0000000E+00;
  0.0000000E+00;  9.9999998E-03;  1.6000000E+00;112;  0.0000000E+00;  0.0000000E+00;  0.0000000E+00;  1.0000484E+01;  4.0000001E-01;  5.2074369E-02;0;  0.0000000E+00;  0.0000000E+00;  0.0000000E+00;  0.0000000E+00;  0.0000000E+00;  0.0000000E+00;0;  4.6770368E-05;  1.0000000E+02;  0.0000000E+00;  0.0000000E+00;  1.0000000E+02;  0.0000000E+00;  1.0000000E+02;  3.4020188E-05;  0.0000000E+00;  1.2750182E-05;  0.0000000E+00;
  0.0000000E+00;  9.9999998E-03;  1.8000000E+00;113;  0.0000000E+00;  0.0000000E+00;  0.0000000E+00;  1.0000260E+01;  4.0000001E-01;  2.7961114E-02;0;  0.0000000E+00;  0.0000000E+00;  0.0000000E+00;  0.0000000E+00;  0.0000000E+00;  0.0000000E+00;0;  2.3977354E-05;  1.0000000E+02;  0.0000000E+00;  0.0000000E+00;  1.0000000E+02;  0.0000000E+00;  1.0000000E+02;  1.4668776E-05;  0.0000000E+00;  9.3085782E-06;  0.0000000E+00;
  0.0000000E+00;  9.9999998E-03;  2.0000000E+00;114;  0.0000000E+00;  0.0000000E+00;  0.0000000E+00;  1.0000150E+01;  4.0000001E-01;  1.6161012E-02;0;  0.0000000E+00;  0.0000000E+00;  0.0000000E+00;  0.0000000E+00;  0.0000000E+00;  0.0000000E+00;0;  8.8805318E-06;  1.0000000E+02;  0.0000000E+00;  0.0000000E+00;  1.0000000E+02;  0.0000000E+00;  1.0000000E+02;  4.0586056E-06;  0.0000000E+00;  4.8219258E-06;  0.0000000E+00;
  2.0000000E-01;  9.9999998E-03;  1.6000000E+00;122;  0.0000000E+00;  0.0000000E+00;  0.0000000E+00;  1.0000000E+01;  4.0000001E-01;  0.0000000E+00;0;  0.0000000E+00;  0.0000000E+00;  0.0000000E+00;  0.0000000E+00;  0.0000000E+00;  0.0000000E+00;0;  1.3252480E-04;  1.0000000E+02;  0.0000000E+00;  0.0000000E+00;  1.0000000E+02;  0.0000000E+00;  1.0000000E+02;  1.1705293E-04;  0.0000000E+00;  1.5471875E-05;  0.0000000E+00;
  2.0000000E-01;  9.9999998E-03;  1.8000000E+00;123;  0.0000000E+00;  0.0000000E+00;  0.0000000E+00;  1.0000000E+01;  4.0000001E-01;  0.0000000E+00;0;  0.0000000E+00;  0.0000000E+00;  0.0000000E+00;  0.0000000E+00;  0.0000000E+00;  0.0000000E+00;0;  6.9894253E-05;  1.0000000E+02;  0.0000000E+00;  0.0000000E+00;  1.0000000E+02;  0.0000000E+00;  1.0000000E+02;  5.8394999E-05;  0.0000000E+00;  1.1499254E-05;  0.0000000E+00;
  2.0000000E-01;  9.9999998E-03;  2.0000000E+00;124;  0.0000000E+00;  0.0000000E+00;  0.0000000E+00;  1.0000000E+01;  4.0000001E-01;  0.0000000E+00;0;  0.0000000E+00;  0.0000000E+00;  0.0000000E+00;  0.0000000E+00;  0.0000000E+00;  0.0000000E+00;0;  2.9406025E-05;  1.0000000E+02;  0.0000000E+00;  0.0000000E+00;  1.0000000E+02;  0.0000000E+00;  1.0000000E+02;  2.3164313E-05;  0.0000000E+00;  6.2417112E-06;  0.0000000E+00;
  4.0000001E-01;  9.9999998E-03;  1.6000000E+00;132;  0.0000000E+00;  0.0000000E+00;  0.0000000E+00;  1.0000000E+01;  4.0000001E-01;  0.0000000E+00;0;  0.0000000E+00;  0.0000000E+00;  0.0000000E+00;  0.0000000E+00;  0.0000000E+00;  0.0000000E+00;0;  2.9907250E-04;  1.0000000E+02;  0.0000000E+00;  0.0000000E+00;  1.0000000E+02;  0.0000000E+00;  1.0000000E+02;  2.8435979E-04;  0.0000000E+00;  1.4712718E-05;  0.0000000E+00;
  4.0000001E-01;  9.9999998E-03;  1.8000000E+00;133;  0.0000000E+00;  0.0000000E+00;  0.0000000E+00;  1.0000000E+01;  4.0000001E-01;  0.0000000E+00;0;  0.0000000E+00;  0.0000000E+00;  0.0000000E+00;  0.0000000E+00;  0.0000000E+00;  0.0000000E+00;0;  1.6185848E-04;  1.0000000E+02;  0.0000000E+00;  0.0000000E+00;  1.0000000E+02;  0.0000000E+00;  1.0000000E+02;  1.5080589E-04;  0.0000000E+00;  1.1052583E-05;  0.0000000E+00;
  4.0000001E-01;  9.9999998E-03;  2.0000000E+00;134;  0.0000000E+00;  0.0000000E+00;  0.0000000E+00;  1.0000000E+01;  4.0000001E-01;  0.0000000E+00;0;  0.0000000E+00;  0.0000000E+00;  0.0000000E+00;  0.0000000E+00;  0.0000000E+00;  0.0000000E+00;0;  7.2759576E-05;  1.0000000E+02;  0.0000000E+00;  0.0000000E+00;  1.0000000E+02;  0.0000000E+00;  1.0000000E+02;  6.6546498E-05;  0.0000000E+00;  6.2130748E-06;  0.0000000E+00;
  6.0000002E-01;  9.9999998E-03;  1.6000000E+00;142;  0.0000000E+00;  0.0000000E+00;  0.0000000E+00;  1.0000000E+01;  4.0000001E-01;  0.0000000E+00;0;  0.0000000E+00;  0.0000000E+00;  0.0000000E+00;  0.0000000E+00;  0.0000000E+00;  0.0000000E+00;0;  5.7546474E-04;  1.0000000E+02;  0.0000000E+00;  0.0000000E+00;  1.0000000E+02;  0.0000000E+00;  1.0000000E+02;  5.6659681E-04;  0.0000000E+00;  8.8679426E-06;  0.0000000E+00;
  6.0000002E-01;  9.9999998E-03;  1.8000000E+00;143;  0.0000000E+00;  0.0000000E+00;  0.0000000E+00;  1.0000000E+01;  4.0000001E-01;  0.0000000E+00;0;  0.0000000E+00;  0.0000000E+00;  0.0000000E+00;  0.0000000E+00;  0.0000000E+00;  0.0000000E+00;0;  3.2099333E-04;  1.0000000E+02;  0.0000000E+00;  0.0000000E+00;  1.0000000E+02;  0.0000000E+00;  1.0000000E+02;  3.1428700E-04;  0.0000000E+00;  6.7063456E-06;  0.0000000E+00;
  6.0000002E-01;  9.9999998E-03;  2.0000000E+00;144;  0.0000000E+00;  0.0000000E+00;  0.0000000E+00;  1.0000000E+01;  4.0000001E-01;  0.0000000E+00;0;  0.0000000E+00;  0.0000000E+00;  0.0000000E+00;  0.0000000E+00;  0.0000000E+00;  0.0000000E+00;0;  1.5248026E-04;  1.0000000E+02;  0.0000000E+00;  0.0000000E+00;  1.0000000E+02;  0.0000000E+00;  1.0000000E+02;  1.4860876E-04;  0.0000000E+00;  3.8715025E-06;  0.0000000E+00;
  8.0000001E-01;  9.9999998E-03;  1.6000000E+00;152;  0.0000000E+00;  0.0000000E+00;  0.0000000E+00;  1.0000000E+01;  4.0000001E-01;  0.0000000E+00;0;  0.0000000E+00;  0.0000000E+00;  0.0000000E+00;  0.0000000E+00;  0.0000000E+00;  0.0000000E+00;0;  9.3600230E-04;  1.0000000E+02;  0.0000000E+00;  0.0000000E+00;  1.0000000E+02;  0.0000000E+00;  1.0000000E+02;  9.3846273E-04;  0.0000000E+00; -2.4604612E-06;  0.0000000E+00;
  8.0000001E-01;  9.9999998E-03;  1.8000000E+00;153;  0.0000000E+00;  0.0000000E+00;  0.0000000E+00;  1.0000000E+01;  4.0000001E-01;  0.0000000E+00;0;  0.0000000E+00;  0.0000000E+00;  0.0000000E+00;  0.0000000E+00;  0.0000000E+00;  0.0000000E+00;0;  5.3592183E-04;  1.0000000E+02;  0.0000000E+00;  0.0000000E+00;  1.0000000E+02;  0.0000000E+00;  1.0000000E+02;  5.3818204E-04;  0.0000000E+00; -2.2602135E-06;  0.0000000E+00;
  8.0000001E-01;  9.9999998E-03;  2.0000000E+00;154;  0.0000000E+00;  0.0000000E+00;  0.0000000E+00;  1.0000000E+01;  4.0000001E-01;  0.0000000E+00;0;  0.0000000E+00;  0.0000000E+00;  0.0000000E+00;  0.0000000E+00;  0.0000000E+00;  0.0000000E+00;0;  2.7208042E-04;  1.0000000E+02;  0.0000000E+00;  0.0000000E+00;  1.0000000E+02;  0.0000000E+00;  1.0000000E+02;  2.7379725E-04;  0.0000000E+00; -1.7168232E-06;  0.0000000E+00;
  1.0000000E+00;  9.9999998E-03;  1.6000000E+00;162;  0.0000000E+00;  0.0000000E+00;  0.0000000E+00;  1.0000000E+01;  4.0000001E-01;  0.0000000E+00;0;  0.0000000E+00;  0.0000000E+00;  0.0000000E+00;  0.0000000E+00;  0.0000000E+00;  0.0000000E+00;0;  1.2863656E-03;  1.0000000E+02;  0.0000000E+00;  0.0000000E+00;  1.0000000E+02;  0.0000000E+00;  1.0000000E+02;  1.3054423E-03;  0.0000000E+00; -1.9076801E-05;  0.0000000E+00;
  1.0000000E+00;  9.9999998E-03;  1.8000000E+00;163;  0.0000000E+00;  0.0000000E+00;  0.0000000E+00;  1.0000000E+01;  4.0000001E-01;  0.0000000E+00;0;  0.0000000E+00;  0.0000000E+00;  0.0000000E+00;  0.0000000E+00;  0.0000000E+00;  0.0000000E+00;0;  7.4136542E-04;  1.0000000E+02;  0.0000000E+00;  0.0000000E+00;  1.0000000E+02;  0.0000000E+00;  1.0000000E+02;  7.5812539E-04;  0.0000000E+00; -1.6759974E-05;  0.0000000E+00;
  1.0000000E+00;  9.9999998E-03;  2.0000000E+00;164;  0.0000000E+00;  0.0000000E+00;  0.0000000E+00;  1.0000000E+01;  4.0000001E-01;  0.0000000E+00;0;  0.0000000E+00;  0.0000000E+00;  0.0000000E+00;  0.0000000E+00;  0.0000000E+00;  0.0000000E+00;0;  3.9686720E-04;  1.0000000E+02;  0.0000000E+00;  0.0000000E+00;  1.0000000E+02;  0.0000000E+00;  1.0000000E+02;  4.0945603E-04;  0.0000000E+00; -1.2588835E-05;  0.0000000E+00;
 -4.4391511E-04;  9.9999998E-03; -1.0000579E+00;165; -8.2487924E-05;  0.0000000E+00; -4.5245356E-06;  9.9996824E+00;  3.9990798E-01; -3.4181822E-02;3; -2.4466876E-02;  0.0000000E+00; -9.5897606E-03;  0.0000000E+00;  0.0000000E+00;  0.0000000E+00;0;  1.3882678E-04;  1.0003924E+02;  0.0000000E+00; -1.9805723E-04;  1.0000000E+02;  0.0000000E+00;  1.0000087E+02;  1.3197309E-04;  0.0000000E+00;  6.8536888E-06;  0.0000000E+00;
 -4.8109936E-04;  9.9999998E-03; -8.0004388E-01;166; -6.4135827E-05;  0.0000000E+00;  3.2046528E-06;  9.9996881E+00;  3.9987451E-01; -3.3540510E-02;3; -3.3761717E-02;  0.0000000E+00; -5.7009417E-03;  0.0000000E+00;  0.0000000E+00;  0.0000000E+00;0;  1.5714546E-04;  1.0005650E+02;  0.0000000E+00; -1.4260890E-04;  1.0000000E+02;  0.0000000E+00;  1.0000000E+02;  1.5734643E-04;  0.0000000E+00; -2.0096900E-07;  0.0000000E+00;
 -5.1278283E-04;  9.9999998E-03; -6.0003573E-01;167; -4.8211044E-05;  0.0000000E+00;  5.5529540E-06;  9.9997749E+00;  3.9983815E-01; -2.4241516E-02;3; -4.2716917E-02;  0.0000000E+00; -1.5449161E-03;  0.0000000E+00;  0.0000000E+00;  0.0000000E+00;0;  1.6392254E-04;  1.0007529E+02;  0.0000000E+00; -6.5666572E-05;  1.0000000E+02;  0.0000000E+00;  9.9998749E+01;  1.7087422E-04;  0.0000000E+00; -6.9516882E-06;  0.0000000E+00;
 -5.3675822E-04;  9.9999998E-03; -4.0002632E-01;168; -3.5120520E-05;  0.0000000E+00;  4.4614103E-06;  9.9998856E+00;  3.9980963E-01; -1.2313152E-02;3; -4.9650058E-02;  0.0000000E+00;  9.8880799E-04;  0.0000000E+00;  0.0000000E+00;  0.0000000E+00;0;  1.6194448E-04;  1.0009283E+02;  0.0000000E+00; -1.6700502E-05;  1.0000000E+02;  0.0000000E+00;  1.0000059E+02;  1.7406150E-04;  0.0000000E+00; -1.2117011E-05;  0.0000000E+00;
 -5.5135187E-04;  9.9999998E-03; -2.0001404E-01;169; -2.6408468E-05;  0.0000000E+00;  2.3328510E-06;  9.9999676E+00;  3.9978796E-01; -3.4630739E-03;3; -5.3975750E-02;  0.0000000E+00;  1.2896494E-03;  0.0000000E+00;  0.0000000E+00;  0.0000000E+00;0;  1.5645594E-04;  1.0010564E+02;  0.0000000E+00; -1.4852958E-06;  1.0000000E+02;  0.0000000E+00;  1.0000024E+02;  1.7162578E-04;  0.0000000E+00; -1.5169847E-05;  0.0000000E+00;
  1.9945125E-01;  9.9999998E-03; -9.9997908E-01;176; -1.1472677E-04;  0.0000000E+00;  4.2820335E-05;  9.9988661E+00;  3.9996511E-01; -1.2197582E-01;3; -1.9454876E-02;  0.0000000E+00; -2.1224717E-02;  0.0000000E+00;  0.0000000E+00;  0.0000000E+00;0;  3.8268455E-04;  9.9994347E+01;  0.0000000E+00; -7.8647363E-04;  1.0000000E+02;  0.0000000E+00;  1.0000108E+02;  3.7796306E-04;  0.0000000E+00;  4.7214799E-06;  0.0000000E+00;
  1.9940551E-01;  9.9999998E-03; -7.9999274E-01;177; -8.9431589E-05;  0.0000000E+00;  3.3323802E-05;  9.9987040E+00;  3.9994404E-01; -1.3941927E-01;3; -2.5678370E-02;  0.0000000E+00; -1.4829389E-02;  0.0000000E+00;  0.0000000E+00;  0.0000000E+00;0;  4.4646699E-04;  1.0000188E+02;  0.0000000E+00; -6.3730084E-04;  1.0000000E+02;  0.0000000E+00;  9.9999870E+01;  4.4853726E-04;  0.0000000E+00; -2.0702810E-06;  0.0000000E+00;
  1.9936702E-01;  9.9999998E-03; -6.0000432E-01;178; -6.9358030E-05;  0.0000000E+00;  2.4491617E-05;  9.9986620E+00;  3.9991391E-01; -1.4397252E-01;3; -3.1938709E-02;  0.0000000E+00; -8.3551072E-03;  0.0000000E+00;  0.0000000E+00;  0.0000000E+00;0;  4.7881505E-04;  1.0001604E+02;  0.0000000E+00; -3.5238932E-04;  1.0000000E+02;  0.0000000E+00;  1.0000060E+02;  4.8822811E-04;  0.0000000E+00; -9.4130446E-06;  0.0000000E+00;
  1.9933733E-01;  9.9999998E-03; -4.0000907E-01;179; -5.3594915E-05;  0.0000000E+00;  1.5780730E-05;  9.9987555E+00;  3.9988315E-01; -1.3390405E-01;3; -3.7301362E-02;  0.0000000E+00; -3.5745641E-03;  0.0000000E+00;  0.0000000E+00;  0.0000000E+00;0;  4.8645824E-04;  1.0003326E+02;  0.0000000E+00; -1.2089314E-04;  1.0000000E+02;  0.0000000E+00;  1.0000044E+02;  5.0102919E-04;  0.0000000E+00; -1.4570959E-05;  0.0000000E+00;
  1.9931889E-01;  9.9999998E-03; -2.0000681E-01;180; -4.2795797E-05;  0.0000000E+00;  7.5874768E-06;  9.9988031E+00;  3.9985844E-01; -1.2877364E-01;3; -4.0348947E-02;  0.0000000E+00; -9.5015555E-04;  0.0000000E+00;  0.0000000E+00;  0.0000000E+00;0;  4.8148117E-04;  1.0004756E+02;  0.0000000E+00; -1.8540593E-05;  1.0000000E+02;  0.0000000E+00;  1.0000008E+02;  4.9872190E-04;  0.0000000E+00; -1.7240738E-05;  0.0000000E+00;
  3.9943153E-01;  9.9999998E-03; -9.9996471E-01;187; -1.0452786E-04;  0.0000000E+00;  5.9312504E-05;  9.9978485E+00;  4.0009493E-01; -2.3150472E-01;3; -5.1352896E-02;  0.0000000E+00; -1.1041715E-01;  0.0000000E+00;  0.0000000E+00;  0.0000000E+00;0;  8.2803814E-04;  9.9908989E+01;  0.0000000E+00; -1.7588221E-03;  1.0000000E+02;  0.0000000E+00;  1.0000108E+02;  8.2763948E-04;  0.0000000E+00;  3.9868974E-07;  0.0000000E+00;
  3.9932913E-01;  9.9999998E-03; -7.9995900E-01;188; -9.7087875E-05;  0.0000000E+00;  4.8756850E-05;  9.9975348E+00;  4.0009812E-01; -2.6523644E-01;3; -5.7519000E-02;  0.0000000E+00; -8.6296320E-02;  0.0000000E+00;  0.0000000E+00;  0.0000000E+00;0;  9.5378526E-04;  9.9901733E+01;  0.0000000E+00; -1.6879375E-03;  1.0000000E+02;  0.0000000E+00;  9.9999763E+01;  9.5898920E-04;  0.0000000E+00; -5.2039104E-06;  0.0000000E+00;
  3.9926228E-01;  9.9999998E-03; -5.9997541E-01;189; -8.1884056E-05;  0.0000000E+00;  3.3150827E-05;  9.9974289E+00;  4.0007973E-01; -2.7665135E-01;3; -6.3241921E-02;  0.0000000E+00; -5.6894328E-02;  0.0000000E+00;  0.0000000E+00;  0.0000000E+00;0;  1.0179827E-03;  9.9908379E+01;  0.0000000E+00; -1.1074848E-03;  1.0000000E+02;  0.0000000E+00;  1.0000090E+02;  1.0287797E-03;  0.0000000E+00; -1.0796988E-05;  0.0000000E+00;
  3.9921564E-01;  9.9999998E-03; -3.9998826E-01;190; -6.7145702E-05;  0.0000000E+00;  1.9709763E-05;  9.9974785E+00;  4.0004918E-01; -2.7126455E-01;3; -6.8069227E-02;  0.0000000E+00; -3.1569235E-02;  0.0000000E+00;  0.0000000E+00;  0.0000000E+00;0;  1.0339748E-03;  9.9924225E+01;  0.0000000E+00; -4.6159278E-04;  1.0000000E+02;  0.0000000E+00;  1.0000016E+02;  1.0478448E-03;  0.0000000E+00; -1.3869974E-05;  0.0000000E+00;
  3.9918867E-01;  9.9999998E-03; -1.9999553E-01;191; -5.6735716E-05;  0.0000000E+00;  9.2827559E-06;  9.9975300E+00;  4.0002173E-01; -2.6574948E-01;3; -7.1010835E-02;  0.0000000E+00; -1.3334931E-02;  0.0000000E+00;  0.0000000E+00;  0.0000000E+00;0;  1.0260203E-03;  9.9940132E+01;  0.0000000E+00; -9.2473609E-05;  1.0000000E+02;  0.0000000E+00;  1.0000001E+02;  1.0406736E-03;  0.0000000E+00; -1.4653341E-05;  0.0000000E+00;
  5.9950149E-01;  9.9999998E-03; -9.9997181E-01;198; -7.7729776E-05;  0.0000000E+00;  8.2781320E-05;  9.9967575E+00;  4.0032753E-01; -3.4884140E-01;3; -4.2330652E-02;  0.0000000E+00; -1.2870353E-01;  0.0000000E+00;  0.0000000E+00;  0.0000000E+00;0;  1.5152982E-03;  9.9770966E+01;  0.0000000E+00; -1.7309050E-03;  1.0000000E+02;  0.0000000E+00;  1.0000175E+02;  1.5265641E-03;  0.0000000E+00; -1.1265976E-05;  0.0000000E+00;
  5.9931576E-01;  9.9999998E-03; -7.9994208E-01;199; -9.4375289E-05;  0.0000000E+00;  6.1368381E-05;  9.9963646E+00;  4.0035671E-01; -3.9109993E-01;3; -3.9802004E-02;  0.0000000E+00; -1.0150953E-01;  0.0000000E+00;  0.0000000E+00;  0.0000000E+00;0;  1.7047793E-03;  9.9749191E+01;  0.0000000E+00; -2.7017808E-03;  1.0000000E+02;  0.0000000E+00;  1.0000080E+02;  1.7149256E-03;  0.0000000E+00; -1.0146287E-05;  0.0000000E+00;
  5.9920979E-01;  9.9999998E-03; -5.9995747E-01;200; -7.9583318E-05;  0.0000000E+00;  3.5599027E-05;  9.9962482E+00;  4.0035200E-01; -4.0360442E-01;3; -3.7286028E-02;  0.0000000E+00; -6.5177225E-02;  0.0000000E+00;  0.0000000E+00;  0.0000000E+00;0;  1.7919597E-03;  9.9748703E+01;  0.0000000E+00; -2.3278357E-03;  1.0000000E+02;  0.0000000E+00;  1.0000030E+02;  1.8020804E-03;  0.0000000E+00; -1.0120675E-05;  0.0000000E+00;
  5.9913725E-01;  9.9999998E-03; -3.9997354E-01;201; -6.5639346E-05;  0.0000000E+00;  1.8241952E-05;  9.9962664E+00;  4.0032226E-01; -4.0168065E-01;3; -3.7111349E-02;  0.0000000E+00; -3.5422340E-02;  0.0000000E+00;  0.0000000E+00;  0.0000000E+00;0;  1.8025910E-03;  9.9764915E+01;  0.0000000E+00; -1.1633440E-03;  1.0000000E+02;  0.0000000E+00;  1.0000000E+02;  1.8115439E-03;  0.0000000E+00; -8.9528703E-06;  0.0000000E+00;
  5.9909743E-01;  9.9999998E-03; -1.9998719E-01;202; -5.6671375E-05;  0.0000000E+00;  7.6170895E-06;  9.9963770E+00;  4.0028912E-01; -3.8975334E-01;3; -3.7905362E-02;  0.0000000E+00; -1.4993422E-02;  0.0000000E+00;  0.0000000E+00;  0.0000000E+00;0;  1.7788101E-03;  9.9784073E+01;  0.0000000E+00; -2.7215734E-04;  1.0000000E+02;  0.0000000E+00;  9.9999344E+01;  1.7854034E-03;  0.0000000E+00; -6.5932927E-06;  0.0000000E+00;
  7.9982531E-01;  9.9999998E-03; -1.0000131E+00;209;  1.7825203E-04;  0.0000000E+00;  4.2337331E-05;  9.9956589E+00;  4.0070516E-01; -4.6696776E-01;3; -2.2686871E-02;  0.0000000E+00; -1.2407850E-01;  0.0000000E+00;  0.0000000E+00;  0.0000000E+00;0;  2.5085718E-03;  9.9562195E+01;  0.0000000E+00;  1.9114400E-03;  1.0000000E+02;  0.0000000E+00;  9.9999542E+01;  2.5224781E-03;  0.0000000E+00; -1.3906232E-05;  0.0000000E+00;
  7.9947311E-01;  9.9999998E-03; -7.9998916E-01;210; -7.7747551E-05;  0.0000000E+00;  4.8733429E-05;  9.9954386E+00;  4.0074164E-01; -4.9069139E-01;3; -3.0048637E-02;  0.0000000E+00; -1.0155609E-01;  0.0000000E+00;  0.0000000E+00;  0.0000000E+00;0;  2.6563318E-03;  9.9539848E+01;  0.0000000E+00; -2.0396837E-03;  1.0000000E+02;  0.0000000E+00;  9.9998962E+01;  2.6682727E-03;  0.0000000E+00; -1.1941069E-05;  0.0000000E+00;
  7.9926366E-01;  9.9999998E-03; -5.9997070E-01;211; -6.6289263E-05;  0.0000000E+00;  2.3425109E-05;  9.9952888E+00;  4.0073964E-01; -5.0678492E-01;3; -2.3212913E-02;  0.0000000E+00; -6.5503642E-02;  0.0000000E+00;  0.0000000E+00;  0.0000000E+00;0;  2.7461911E-03;  9.9538612E+01;  0.0000000E+00; -3.4263784E-03;  1.0000000E+02;  0.0000000E+00;  9.9997978E+01;  2.7511837E-03;  0.0000000E+00; -4.9926903E-06;  0.0000000E+00;
  7.9911703E-01;  9.9999998E-03; -3.9997295E-01;212; -4.1767405E-05;  0.0000000E+00;  8.2870411E-06;  9.9953537E+00;  4.0070575E-01; -4.9979624E-01;3; -1.7966175E-02;  0.0000000E+00; -3.4747846E-02;  0.0000000E+00;  0.0000000E+00;  0.0000000E+00;0;  2.7349731E-03;  9.9557854E+01;  0.0000000E+00; -2.1315222E-03;  1.0000000E+02;  0.0000000E+00;  9.9997360E+01;  2.7349021E-03;  0.0000000E+00;  7.0949682E-08;  0.0000000E+00;
  7.9904807E-01;  9.9999998E-03; -1.9998604E-01;213; -3.6569487E-05;  0.0000000E+00;  1.8972685E-06;  9.9954634E+00;  4.0066311E-01; -4.8799860E-01;3; -1.6517298E-02;  0.0000000E+00; -1.4506090E-02;  0.0000000E+00;  0.0000000E+00;  0.0000000E+00;0;  2.6833143E-03;  9.9581146E+01;  0.0000000E+00; -5.5895891E-04;  1.0000000E+02;  0.0000000E+00;  9.9997932E+01;  2.6781540E-03;  0.0000000E+00;  5.1603397E-06;  0.0000000E+00;
  1.0013674E+00;  9.9999998E-03; -1.0000837E+00;220;  2.7094029E-03;  0.0000000E+00; -1.1702704E-04;  9.9934835E+00;  4.0137824E-01; -7.0080650E-01;3; -3.4218438E-02;  0.0000000E+00; -9.5283642E-02;  0.0000000E+00;  0.0000000E+00;  0.0000000E+00;0;  4.7375155E-03;  9.9193993E+01;  0.0000000E+00;  5.1699963E-04;  1.0000000E+02;  0.0000000E+00;  9.9992752E+01;  4.6808179E-03;  0.0000000E+00;  5.6697667E-05;  0.0000000E+00;
  1.0005788E+00;  9.9999998E-03; -8.0004030E-01;221; -2.5053572E-05;  0.0000000E+00;  2.3308801E-06;  9.9947033E+00;  4.0133438E-01; -5.6959450E-01;3; -2.8883487E-02;  0.0000000E+00; -8.4760547E-02;  0.0000000E+00;  0.0000000E+00;  0.0000000E+00;0;  3.7335455E-03;  9.9237793E+01;  0.0000000E+00; -2.3759198E-03;  1.0000000E+02;  0.0000000E+00;  9.9993141E+01;  3.7285865E-03;  0.0000000E+00;  4.9590813E-06;  0.0000000E+00;
  1.0009927E+00;  9.9999998E-03; -6.0009378E-01;222;  1.6476942E-03;  0.0000000E+00; -2.3914554E-05;  9.9943304E+00;  4.0132323E-01; -6.0972065E-01;3; -2.5712164E-02;  0.0000000E+00; -5.1398773E-02;  0.0000000E+00;  0.0000000E+00;  0.0000000E+00;0;  4.0364657E-03;  9.9239716E+01;  0.0000000E+00; -7.0012365E-03;  1.0000000E+02;  0.0000000E+00;  9.9988808E+01;  4.0216101E-03;  0.0000000E+00;  1.4855440E-05;  0.0000000E+00;
  1.0000926E+00;  9.9999998E-03; -4.0005106E-01;223;  2.2131267E-03;  0.0000000E+00; -7.7168603E-05;  9.9945707E+00;  4.0122831E-01; -5.8388937E-01;3; -8.1011169E-03;  0.0000000E+00; -2.8715771E-02;  0.0000000E+00;  0.0000000E+00;  0.0000000E+00;0;  3.9137364E-03;  9.9288231E+01;  0.0000000E+00; -3.5277219E-03;  1.0000000E+02;  0.0000000E+00;  9.9993141E+01;  3.8924040E-03;  0.0000000E+00;  2.1332551E-05;  0.0000000E+00;
  9.9915344E-01;  9.9999998E-03; -2.0001310E-01;224;  6.2564306E-04;  0.0000000E+00; -9.3961127E-05;  9.9948244E+00;  4.0116623E-01; -5.5658364E-01;3; -3.5892359E-03;  0.0000000E+00; -1.2775351E-02;  0.0000000E+00;  0.0000000E+00;  0.0000000E+00;0;  3.7336424E-03;  9.9320740E+01;  0.0000000E+00; -8.5693318E-04;  1.0000000E+02;  0.0000000E+00;  9.9995224E+01;  3.7128895E-03;  0.0000000E+00;  2.0752916E-05;  0.0000000E+00;
  1.2025591E+00;  9.9999998E-03; -1.0001254E+00;231;  3.9679590E-03;  0.0000000E+00; -1.1623267E-04;  9.9928398E+00;  4.0211666E-01; -7.6957029E-01;3; -5.8339715E-02;  0.0000000E+00; -5.3601168E-02;  0.0000000E+00;  0.0000000E+00;  0.0000000E+00;0;  6.3334350E-03;  9.8827995E+01;  0.0000000E+00; -2.0076036E-03;  1.0000000E+02;  0.0000000E+00;  9.9981056E+01;  6.2417020E-03;  0.0000000E+00;  9.1733004E-05;  0.0000000E+00;
  1.2015876E+00;  9.9999998E-03; -8.0003279E-01;232;  2.1924300E-03;  0.0000000E+00; -9.4084622E-05;  9.9938211E+00;  4.0200600E-01; -6.6406387E-01;3; -2.2719432E-02;  0.0000000E+00; -5.8836356E-02;  0.0000000E+00;  0.0000000E+00;  0.0000000E+00;0;  5.4954393E-03;  9.8893898E+01;  0.0000000E+00; -2.6510935E-03;  1.0000000E+02;  0.0000000E+00;  9.9987480E+01;  5.4168017E-03;  0.0000000E+00;  7.8637531E-05;  0.0000000E+00;
  1.2021121E+00;  9.9999998E-03; -6.0010219E-01;233;  2.2274104E-03;  0.0000000E+00; -8.1515644E-08;  9.9939051E+00;  4.0202239E-01; -6.5509385E-01;3; -2.5284989E-02;  0.0000000E+00; -3.5310786E-02;  0.0000000E+00;  0.0000000E+00;  0.0000000E+00;0;  5.3191995E-03;  9.8895569E+01;  0.0000000E+00; -9.8956274E-03;  1.0000000E+02;  0.0000000E+00;  9.9980141E+01;  5.2912417E-03;  0.0000000E+00;  2.7957969E-05;  0.0000000E+00;
  1.2014371E+00;  9.9999998E-03; -4.0010187E-01;234;  3.1094286E-03;  0.0000000E+00; -1.3455156E-04;  9.9940538E+00;  4.0192562E-01; -6.3908023E-01;3; -6.1881482E-03;  0.0000000E+00; -1.8919174E-02;  0.0000000E+00;  0.0000000E+00;  0.0000000E+00;0;  5.2300929E-03;  9.8940208E+01;  0.0000000E+00; -4.9332385E-03;  1.0000000E+02;  0.0000000E+00;  9.9985260E+01;  5.1806830E-03;  0.0000000E+00;  4.9409802E-05;  0.0000000E+00;
  1.2003052E+00;  9.9999998E-03; -2.0000549E-01;235;  2.7656595E-03;  0.0000000E+00; -1.5458501E-04;  9.9942465E+00;  4.0185633E-01; -6.1839134E-01;3;  1.1607938E-03;  0.0000000E+00; -8.7431557E-03;  0.0000000E+00;  0.0000000E+00;  0.0000000E+00;0;  5.0567896E-03;  9.8970818E+01;  0.0000000E+00; -1.1086653E-03;  1.0000000E+02;  0.0000000E+00;  9.9992546E+01;  5.0236210E-03;  0.0000000E+00;  3.3168599E-05;  0.0000000E+00;
  1.4036835E+00;  9.9999998E-03; -1.0001214E+00;242;  4.5854794E-03;  0.0000000E+00; -8.8875240E-05;  9.9930973E+00;  4.0288332E-01; -7.4090660E-01;3; -4.7917850E-02;  0.0000000E+00; -3.6874756E-02;  0.0000000E+00;  0.0000000E+00;  0.0000000E+00;0;  7.4362000E-03;  9.8462303E+01;  0.0000000E+00; -2.4694249E-03;  1.0000000E+02;  0.0000000E+00;  9.9975929E+01;  7.3351911E-03;  0.0000000E+00;  1.0100870E-04;  0.0000000E+00;
  1.4026871E+00;  9.9999998E-03; -8.0002850E-01;243;  3.6394005E-03;  0.0000000E+00; -6.3948013E-05;  9.9934139E+00;  4.0283540E-01; -7.0694208E-01;3; -1.9907709E-02;  0.0000000E+00; -3.5029128E-02;  0.0000000E+00;  0.0000000E+00;  0.0000000E+00;0;  7.1253185E-03;  9.8488480E+01;  0.0000000E+00; -2.7857611E-03;  1.0000000E+02;  0.0000000E+00;  9.9978966E+01;  7.0194914E-03;  0.0000000E+00;  1.0582722E-04;  0.0000000E+00;
  1.4028156E+00;  9.9999998E-03; -6.0002828E-01;244;  3.1419755E-03;  0.0000000E+00;  5.1702780E-05;  9.9935379E+00;  4.0287450E-01; -6.9363409E-01;3; -1.4752991E-02;  0.0000000E+00; -2.2357879E-02;  0.0000000E+00;  0.0000000E+00;  0.0000000E+00;0;  6.9445306E-03;  9.8475815E+01;  0.0000000E+00; -8.9414958E-03;  1.0000000E+02;  0.0000000E+00;  9.9973907E+01;  6.9085127E-03;  0.0000000E+00;  3.6017816E-05;  0.0000000E+00;
  1.4020824E+00;  9.9999998E-03; -4.0003905E-01;245;  3.3794490E-03;  0.0000000E+00; -8.4549138E-05;  9.9935427E+00;  4.0283698E-01; -6.9312716E-01;3; -3.6652212E-03;  0.0000000E+00; -1.1789299E-02;  0.0000000E+00;  0.0000000E+00;  0.0000000E+00;0;  6.9286558E-03;  9.8490265E+01;  0.0000000E+00; -4.4515724E-03;  1.0000000E+02;  0.0000000E+00;  9.9978165E+01;  6.8623540E-03;  0.0000000E+00;  6.6301676E-05;  0.0000000E+00;
  1.4011441E+00;  9.9999998E-03; -1.9996411E-01;246;  3.0397815E-03;  0.0000000E+00; -8.8586807E-05;  9.9936094E+00;  4.0280294E-01; -6.8596780E-01;3;  1.0883979E-04;  0.0000000E+00; -5.8128312E-03;  0.0000000E+00;  0.0000000E+00;  0.0000000E+00;0;  6.8342183E-03;  9.8498428E+01;  0.0000000E+00; -1.0015731E-03;  1.0000000E+02;  0.0000000E+00;  9.9987701E+01;  6.7981607E-03;  0.0000000E+00;  3.6057470E-05;  0.0000000E+00;
  1.6051441E+00;  9.9999998E-03; -1.0001675E+00;253;  5.9192716E-03;  0.0000000E+00; -7.9019483E-05;  9.9931326E+00;  4.0380237E-01; -7.3498076E-01;3; -3.2097757E-02;  0.0000000E+00; -2.0777218E-02;  0.0000000E+00;  0.0000000E+00;  0.0000000E+00;0;  8.9424914E-03;  9.8025414E+01;  0.0000000E+00; -2.8071164E-03;  1.0000000E+02;  0.0000000E+00;  9.9965416E+01;  8.8407388E-03;  0.0000000E+00;  1.0175271E-04;  0.0000000E+00;
  1.6041070E+00;  9.9999998E-03; -8.0003846E-01;254;  4.9309996E-03;  0.0000000E+00; -3.8702383E-06;  9.9930887E+00;  4.0388125E-01; -7.3965335E-01;3; -1.4354721E-02;  0.0000000E+00; -1.7632430E-02;  0.0000000E+00;  0.0000000E+00;  0.0000000E+00;0;  8.9867003E-03;  9.7985092E+01;  0.0000000E+00; -2.4609640E-03;  1.0000000E+02;  0.0000000E+00;  9.9965515E+01;  8.8862171E-03;  0.0000000E+00;  1.0048340E-04;  0.0000000E+00;
  1.6036801E+00;  9.9999998E-03; -5.9994411E-01;255;  3.9300779E-03;  0.0000000E+00;  9.4935735E-05;  9.9930019E+00;  4.0398428E-01; -7.4897337E-01;3; -7.8409584E-03;  0.0000000E+00; -1.1588862E-02;  0.0000000E+00;  0.0000000E+00;  0.0000000E+00;0;  9.0870131E-03;  9.7935074E+01;  0.0000000E+00; -5.4219496E-03;  1.0000000E+02;  0.0000000E+00;  9.9963203E+01;  9.0198424E-03;  0.0000000E+00;  6.7171095E-05;  0.0000000E+00;
  1.6026268E+00;  9.9999998E-03; -3.9991871E-01;256;  3.5897766E-03;  0.0000000E+00;  4.9509476E-05;  9.9928637E+00;  4.0403885E-01; -7.6378959E-01;3; -1.9632271E-03;  0.0000000E+00; -5.8775507E-03;  0.0000000E+00;  0.0000000E+00;  0.0000000E+00;0;  9.2601292E-03;  9.7904381E+01;  0.0000000E+00; -2.5840194E-03;  1.0000000E+02;  0.0000000E+00;  9.9964928E+01;  9.1787335E-03;  0.0000000E+00;  8.1395796E-05;  0.0000000E+00;
  1.6017903E+00;  9.9999998E-03; -1.9991678E-01;257;  3.1231295E-03;  0.0000000E+00;  3.4533165E-05;  9.9927988E+00;  4.0407223E-01; -7.7075624E-01;3;  1.4191415E-04;  0.0000000E+00; -2.5558500E-03;  0.0000000E+00;  0.0000000E+00;  0.0000000E+00;0;  9.3322219E-03;  9.7880394E+01;  0.0000000E+00; -5.8621657E-04;  1.0000000E+02;  0.0000000E+00;  9.9971924E+01;  9.2768343E-03;  0.0000000E+00;  5.5387976E-05;  0.0000000E+00;
  1.8073452E+00;  9.9999998E-03; -1.0003005E+00;264;  7.7084550E-03;  0.0000000E+00; -1.3568439E-04;  9.9929762E+00;  4.0496263E-01; -7.4700534E-01;3; -2.1340784E-02;  0.0000000E+00; -1.1352970E-02;  0.0000000E+00;  0.0000000E+00;  0.0000000E+00;0;  1.0898720E-02;  9.7481781E+01;  0.0000000E+00; -4.6956590E-03;  1.0000000E+02;  0.0000000E+00;  9.9943176E+01;  1.0756957E-02;  0.0000000E+00;  1.4176262E-04;  0.0000000E+00;
  1.8062408E+00;  9.9999998E-03; -8.0008304E-01;265;  6.2956284E-03;  0.0000000E+00; -2.5439005E-05;  9.9927244E+00;  4.0516716E-01; -7.7379376E-01;3; -4.3507069E-03;  0.0000000E+00; -9.0870662E-03;  0.0000000E+00;  0.0000000E+00;  0.0000000E+00;0;  1.1335694E-02;  9.7378731E+01;  0.0000000E+00; -2.7004064E-03;  1.0000000E+02;  0.0000000E+00;  9.9943275E+01;  1.1160836E-02;  0.0000000E+00;  1.7485864E-04;  0.0000000E+00;
  1.8054234E+00;  9.9999998E-03; -5.9987307E-01;266;  5.7627941E-03;  0.0000000E+00;  1.2097126E-04;  9.9923983E+00;  4.0536049E-01; -8.0856264E-01;3; -3.1062830E-03;  0.0000000E+00; -5.3391713E-03;  0.0000000E+00;  0.0000000E+00;  0.0000000E+00;0;  1.1824194E-02;  9.7282036E+01;  0.0000000E+00; -2.7117785E-03;  1.0000000E+02;  0.0000000E+00;  9.9940285E+01;  1.1669490E-02;  0.0000000E+00;  1.5470503E-04;  0.0000000E+00;
  1.8035945E+00;  9.9999998E-03; -3.9977005E-01;267;  4.4333534E-03;  0.0000000E+00;  2.0036352E-04;  9.9921350E+00;  4.0551937E-01; -8.3658665E-01;3; -2.8465412E-04;  0.0000000E+00; -2.2192884E-03;  0.0000000E+00;  0.0000000E+00;  0.0000000E+00;0;  1.2206373E-02;  9.7205818E+01;  0.0000000E+00; -8.7845762E-04;  1.0000000E+02;  0.0000000E+00;  9.9936043E+01;  1.2058123E-02;  0.0000000E+00;  1.4824999E-04;  0.0000000E+00;
  1.8026986E+00;  9.9999998E-03; -1.9986498E-01;268;  3.6241091E-03;  0.0000000E+00;  1.0627609E-04;  9.9919395E+00;  4.0563530E-01; -8.5741550E-01;3;  4.7349171E-05;  0.0000000E+00; -6.9330016E-04;  0.0000000E+00;  0.0000000E+00;  0.0000000E+00;0;  1.2494323E-02;  9.7148483E+01;  0.0000000E+00; -1.9697829E-04;  1.0000000E+02;  0.0000000E+00;  9.9933746E+01;  1.2342685E-02;  0.0000000E+00;  1.5163783E-04;  0.0000000E+00;
  2.0103638E+00;  9.9999998E-03; -1.0006025E+00;275;  8.3440011E-03;  0.0000000E+00; -3.1476034E-04;  9.9928589E+00;  4.0633130E-01; -7.4992138E-01;3; -4.7748494E-03;  0.0000000E+00; -4.3241614E-03;  0.0000000E+00;  0.0000000E+00;  0.0000000E+00;0;  1.3149113E-02;  9.6875259E+01;  0.0000000E+00; -4.8723072E-03;  1.0000000E+02;  0.0000000E+00;  9.9891327E+01;  1.2861018E-02;  0.0000000E+00;  2.8809544E-04;  0.0000000E+00;
  2.0112622E+00;  9.9999998E-03; -8.0025971E-01;276;  1.0415585E-02;  0.0000000E+00; -9.7216463E-05;  9.9923878E+00;  4.0663028E-01; -7.9930866E-01;3; -1.6233131E-03;  0.0000000E+00; -3.6574495E-03;  0.0000000E+00;  0.0000000E+00;  0.0000000E+00;0;  1.4048570E-02;  9.6722771E+01;  0.0000000E+00; -6.9690021E-03;  1.0000000E+02;  0.0000000E+00;  9.9890945E+01;  1.3743118E-02;  0.0000000E+00;  3.0545110E-04;  0.0000000E+00;
  2.0090311E+00;  9.9999998E-03; -5.9985685E-01;277;  9.7017176E-03;  0.0000000E+00;  1.4716339E-04;  9.9919891E+00;  4.0687373E-01; -8.4133887E-01;3;  2.3495194E-03;  0.0000000E+00; -2.0127303E-03;  0.0000000E+00;  0.0000000E+00;  0.0000000E+00;0;  1.4749600E-02;  9.6601143E+01;  0.0000000E+00; -1.6788295E-03;  1.0000000E+02;  0.0000000E+00;  9.9891151E+01;  1.4434068E-02;  0.0000000E+00;  3.1553092E-04;  0.0000000E+00;
  2.0063393E+00;  9.9999998E-03; -3.9967573E-01;278;  6.5523135E-03;  0.0000000E+00;  3.0779123E-04;  9.9916401E+00;  4.0713996E-01; -8.7822092E-01;3;  2.6674449E-04;  0.0000000E+00; -5.0277100E-04;  0.0000000E+00;  0.0000000E+00;  0.0000000E+00;0;  1.5385638E-02;  9.6486015E+01;  0.0000000E+00; -2.6023405E-04;  1.0000000E+02;  0.0000000E+00;  9.9870918E+01;  1.5042065E-02;  0.0000000E+00;  3.4357360E-04;  0.0000000E+00;
  2.0051808E+00;  9.9999998E-03; -1.9983180E-01;279;  5.4472582E-03;  0.0000000E+00;  1.5938257E-04;  9.9913559E+00;  4.0733448E-01; -9.0811300E-01;3;  4.2539780E-04;  0.0000000E+00; -6.6651446E-05;  0.0000000E+00;  0.0000000E+00;  0.0000000E+00;0;  1.5886519E-02;  9.6401833E+01;  0.0000000E+00; -3.9839873E-05;  1.0000000E+02;  0.0000000E+00;  9.9857750E+01;  1.5501942E-02;  0.0000000E+00;  3.8457732E-04;  0.0000000E+00;
  2.2157497E+00;  9.9999998E-03; -1.0011780E+00;286;  1.4051664E-02;  0.0000000E+00; -6.9396460E-04;  9.9926472E+00;  4.0781111E-01; -7.5441569E-01;3;  3.9101206E-04;  0.0000000E+00; -8.5156539E-04;  0.0000000E+00;  0.0000000E+00;  0.0000000E+00;0;  1.5897671E-02;  9.6272636E+01;  0.0000000E+00; -4.7337459E-03;  1.0000000E+02;  0.0000000E+00;  9.9783104E+01;  1.5267826E-02;  0.0000000E+00;  6.2984589E-04;  0.0000000E+00;
  2.2144332E+00;  9.9999998E-03; -8.0068207E-01;287;  1.3707044E-02;  0.0000000E+00; -3.3007434E-04;  9.9923143E+00;  4.0808126E-01; -7.8868836E-01;3;  3.2422524E-03;  0.0000000E+00; -8.4913446E-04;  0.0000000E+00;  0.0000000E+00;  0.0000000E+00;0;  1.6595000E-02;  9.6140450E+01;  0.0000000E+00; -1.7486943E-03;  1.0000000E+02;  0.0000000E+00;  9.9781456E+01;  1.5976127E-02;  0.0000000E+00;  6.1887386E-04;  0.0000000E+00;
  2.2134652E+00;  9.9999998E-03; -6.0008800E-01;288;  1.3187626E-02;  0.0000000E+00;  2.0276893E-05;  9.9919310E+00;  4.0837061E-01; -8.2819396E-01;3;  3.8307756E-03;  0.0000000E+00; -1.7557594E-04;  0.0000000E+00;  0.0000000E+00;  0.0000000E+00;0;  1.7452287E-02;  9.5996902E+01;  0.0000000E+00; -4.8676974E-04;  1.0000000E+02;  0.0000000E+00;  9.9780777E+01;  1.6766438E-02;  0.0000000E+00;  6.8584835E-04;  0.0000000E+00;
  2.2130253E+00;  9.9999998E-03; -3.9972648E-01;289;  1.2993687E-02;  0.0000000E+00;  3.2924936E-04;  9.9915476E+00;  4.0869865E-01; -8.6758399E-01;3;  3.6435346E-03;  0.0000000E+00;  5.6665773E-05;  0.0000000E+00;  0.0000000E+00;  0.0000000E+00;0;  1.8266179E-02;  9.5863350E+01;  0.0000000E+00; -7.5956486E-05;  1.0000000E+02;  0.0000000E+00;  9.9753250E+01;  1.7526280E-02;  0.0000000E+00;  7.3989847E-04;  0.0000000E+00;
  2.2129483E+00;  9.9999998E-03; -1.9984850E-01;290;  1.2937607E-02;  0.0000000E+00;  1.8153082E-04;  9.9912653E+00;  4.0893474E-01; -8.9653158E-01;3;  3.2017545E-03;  0.0000000E+00;  7.1960785E-05;  0.0000000E+00;  0.0000000E+00;  0.0000000E+00;0;  1.8906245E-02;  9.5767899E+01;  0.0000000E+00;  3.9109423E-06;  1.0000000E+02;  0.0000000E+00;  9.9730316E+01;  1.8080551E-02;  0.0000000E+00;  8.2569418E-04;  0.0000000E+00;
  2.4162824E+00;  9.9999998E-03; -1.0021195E+00;297;  1.4033982E-02;  0.0000000E+00; -1.3434206E-03;  9.9924688E+00;  4.0944302E-01; -7.4718481E-01;3;  2.5632689E-03;  0.0000000E+00; -1.4810906E-04;  0.0000000E+00;  0.0000000E+00;  0.0000000E+00;0;  1.8815942E-02;  9.5686211E+01;  0.0000000E+00;  6.6748755E-05;  1.0000000E+02;  0.0000000E+00;  9.9593216E+01;  1.7553290E-02;  0.0000000E+00;  1.2626522E-03;  0.0000000E+00;
  2.4169347E+00;  9.9999998E-03; -8.0146122E-01;298;  1.4885206E-02;  0.0000000E+00; -8.1948075E-04;  9.9922771E+00;  4.0965742E-01; -7.6613343E-01;3;  3.0263085E-03;  0.0000000E+00; -1.6145332E-03;  0.0000000E+00;  0.0000000E+00;  0.0000000E+00;0;  1.9310763E-02;  9.5585602E+01;  0.0000000E+00; -8.6483131E-05;  1.0000000E+02;  0.0000000E+00;  9.9589752E+01;  1.8088773E-02;  0.0000000E+00;  1.2219900E-03;  0.0000000E+00;
  2.4181907E+00;  9.9999998E-03; -6.0071176E-01;299;  1.6803363E-02;  0.0000000E+00; -2.0413146E-04;  9.9920177E+00;  4.0988714E-01; -7.9166901E-01;3;  4.5405198E-03;  0.0000000E+00;  1.6981796E-03;  0.0000000E+00;  0.0000000E+00;  0.0000000E+00;0;  1.9924337E-02;  9.5476059E+01;  0.0000000E+00; -7.5956814E-06;  1.0000000E+02;  0.0000000E+00;  9.9587196E+01;  1.8695837E-02;  0.0000000E+00;  1.2284996E-03;  0.0000000E+00;
  2.4199264E+00;  9.9999998E-03; -3.9997604E-01;300;  1.9304471E-02;  0.0000000E+00;  1.4674029E-04;  9.9917612E+00;  4.1011488E-01; -8.1682378E-01;3;  6.3636685E-03;  0.0000000E+00;  1.5029748E-04;  0.0000000E+00;  0.0000000E+00;  0.0000000E+00;0;  2.0679647E-02;  9.5374969E+01;  0.0000000E+00;  2.5415507E-05;  1.0000000E+02;  0.0000000E+00;  9.9575890E+01;  1.9277625E-02;  0.0000000E+00;  1.4020220E-03;  0.0000000E+00;
  2.4213009E+00;  9.9999998E-03; -1.9994704E-01;301;  2.1227943E-02;  0.0000000E+00;  1.1553513E-04;  9.9915628E+00;  4.1032571E-01; -8.3628798E-01;3;  7.6219477E-03;  0.0000000E+00;  8.5150867E-05;  0.0000000E+00;  0.0000000E+00;  0.0000000E+00;0;  2.1217342E-02;  9.5302551E+01;  0.0000000E+00;  7.2537027E-06;  1.0000000E+02;  0.0000000E+00;  9.9545158E+01;  1.9702448E-02;  0.0000000E+00;  1.5148940E-03;  0.0000000E+00;
  2.6193485E+00;  9.9999998E-03; -1.0034429E+00;308;  1.5851934E-02;  0.0000000E+00; -2.3426316E-03;  9.9920769E+00;  4.1143388E-01; -7.5671184E-01;3;  2.0194408E-03;  0.0000000E+00; -3.9307313E-04;  0.0000000E+00;  0.0000000E+00;  0.0000000E+00;0;  2.2663977E-02;  9.5019890E+01;  0.0000000E+00;  6.9496935E-05;  1.0000000E+02;  0.0000000E+00;  9.9315269E+01;  2.0355837E-02;  0.0000000E+00;  2.3081405E-03;  0.0000000E+00;
  2.6208107E+00;  9.9999998E-03; -8.0261582E-01;309;  1.7502183E-02;  0.0000000E+00; -1.7453308E-03;  9.9919748E+00;  4.1150931E-01; -7.6624590E-01;3;  2.8485968E-03;  0.0000000E+00;  4.1866698E-03;  0.0000000E+00;  0.0000000E+00;  0.0000000E+00;0;  2.2875665E-02;  9.4986847E+01;  0.0000000E+00; -1.7860118E-06;  1.0000000E+02;  0.0000000E+00;  9.9311432E+01;  2.0519396E-02;  0.0000000E+00;  2.3562692E-03;  0.0000000E+00;
  2.6223912E+00;  9.9999998E-03; -6.0173386E-01;310;  1.9655708E-02;  0.0000000E+00; -1.1887094E-03;  9.9919233E+00;  4.1157943E-01; -7.7092272E-01;3;  4.3007350E-03;  0.0000000E+00;  1.3149349E-03;  0.0000000E+00;  0.0000000E+00;  0.0000000E+00;0;  2.3149123E-02;  9.4951019E+01;  0.0000000E+00;  2.8344071E-05;  1.0000000E+02;  0.0000000E+00;  9.9313980E+01;  2.0709939E-02;  0.0000000E+00;  2.4391839E-03;  0.0000000E+00;
  2.6243951E+00;  9.9999998E-03; -4.0070692E-01;311;  2.2443185E-02;  0.0000000E+00; -6.2891113E-04;  9.9918861E+00;  4.1162223E-01; -7.7423078E-01;3;  6.4186994E-03;  0.0000000E+00; -1.6982758E-03;  0.0000000E+00;  0.0000000E+00;  0.0000000E+00;0;  2.3339396E-02;  9.4918694E+01;  0.0000000E+00;  1.4332725E-05;  1.0000000E+02;  0.0000000E+00;  9.9325218E+01;  2.0891629E-02;  0.0000000E+00;  2.4477667E-03;  0.0000000E+00;
  2.6260643E+00;  9.9999998E-03; -2.0008095E-01;312;  2.4798980E-02;  0.0000000E+00;  4.7953105E-05;  9.9918556E+00;  4.1170168E-01; -7.7690083E-01;3;  8.2171811E-03;  0.0000000E+00;  4.5642406E-05;  0.0000000E+00;  0.0000000E+00;  0.0000000E+00;0;  2.3431305E-02;  9.4896385E+01;  0.0000000E+00;  2.1013557E-06;  1.0000000E+02;  0.0000000E+00;  9.9310364E+01;  2.1021195E-02;  0.0000000E+00;  2.4101096E-03;  0.0000000E+00;
  2.8248937E+00;  9.9999998E-03; -1.0049969E+00;319;  2.0501347E-02;  0.0000000E+00; -3.6398566E-03;  9.9915257E+00;  4.1377988E-01; -7.8408104E-01;3;  3.0079812E-03;  0.0000000E+00; -1.2718037E-03;  0.0000000E+00;  0.0000000E+00;  0.0000000E+00;0;  2.7494757E-02;  9.4245651E+01;  0.0000000E+00; -1.0052438E-04;  1.0000000E+02;  0.0000000E+00;  9.8988075E+01;  2.3773408E-02;  0.0000000E+00;  3.7213489E-03;  0.0000000E+00;
  2.8259366E+00;  9.9999998E-03; -8.0395269E-01;320;  2.1556046E-02;  0.0000000E+00; -2.9664850E-03;  9.9915667E+00;  4.1369200E-01; -7.8017336E-01;3;  3.3531457E-03;  0.0000000E+00;  1.5410451E-05;  0.0000000E+00;  0.0000000E+00;  0.0000000E+00;0;  2.7375720E-02;  9.4280914E+01;  0.0000000E+00; -4.9487127E-05;  1.0000000E+02;  0.0000000E+00;  9.8994263E+01;  2.3555476E-02;  0.0000000E+00;  3.8202433E-03;  0.0000000E+00;
  2.8268948E+00;  9.9999998E-03; -6.0291106E-01;321;  2.2857023E-02;  0.0000000E+00; -2.1947094E-03;  9.9916821E+00;  4.1358364E-01; -7.6938355E-01;3;  4.0279506E-03;  0.0000000E+00; -1.5158458E-03;  0.0000000E+00;  0.0000000E+00;  0.0000000E+00;0;  2.7029416E-02;  9.4321281E+01;  0.0000000E+00;  3.6588739E-05;  1.0000000E+02;  0.0000000E+00;  9.9005394E+01;  2.3312876E-02;  0.0000000E+00;  3.7165391E-03;  0.0000000E+00;
  2.8281074E+00;  9.9999998E-03; -4.0184078E-01;322;  2.4615197E-02;  0.0000000E+00; -1.1350149E-03;  9.9918118E+00;  4.1347244E-01; -7.5730461E-01;3;  5.1898044E-03;  0.0000000E+00; -1.7107227E-03;  0.0000000E+00;  0.0000000E+00;  0.0000000E+00;0;  2.6592845E-02;  9.4360336E+01;  0.0000000E+00;  3.4077828E-05;  1.0000000E+02;  0.0000000E+00;  9.9020119E+01;  2.3084970E-02;  0.0000000E+00;  3.5078742E-03;  0.0000000E+00;
  2.8292115E+00;  9.9999998E-03; -2.0083971E-01;323;  2.6295939E-02;  0.0000000E+00;  3.1851878E-06;  9.9918852E+00;  4.1339937E-01; -7.5036556E-01;3;  6.5100035E-03;  0.0000000E+00;  3.6814707E-04;  0.0000000E+00;  0.0000000E+00;  0.0000000E+00;0;  2.6364785E-02;  9.4389671E+01;  0.0000000E+00;  9.5759751E-06;  1.0000000E+02;  0.0000000E+00;  9.9025734E+01;  2.2917613E-02;  0.0000000E+00;  3.4471708E-03;  0.0000000E+00;
  3.0321157E+00;  9.9999998E-03; -1.0065696E+00;330;  2.6882056E-02;  0.0000000E+00; -4.8902668E-03;  9.9910173E+00;  4.1634297E-01; -8.1449664E-01;3;  4.4933953E-03;  0.0000000E+00; -3.4921719E-03;  0.0000000E+00;  0.0000000E+00;  0.0000000E+00;0;  3.2559428E-02;  9.3383987E+01;  0.0000000E+00; -1.2900482E-04;  1.0000000E+02;  0.0000000E+00;  9.8665283E+01;  2.7570195E-02;  0.0000000E+00;  4.9892338E-03;  0.0000000E+00;
  3.0323868E+00;  9.9999998E-03; -8.0528510E-01;331;  2.7180297E-02;  0.0000000E+00; -4.0693944E-03;  9.9911203E+00;  4.1613579E-01; -8.0518496E-01;3;  4.4217557E-03;  0.0000000E+00; -1.5554252E-03;  0.0000000E+00;  0.0000000E+00;  0.0000000E+00;0;  3.2203462E-02;  9.3464821E+01;  0.0000000E+00; -8.7079407E-06;  1.0000000E+02;  0.0000000E+00;  9.8679993E+01;  2.7100740E-02;  0.0000000E+00;  5.1027215E-03;  0.0000000E+00;
  3.0325053E+00;  9.9999998E-03; -6.0403019E-01;332;  2.7582858E-02;  0.0000000E+00; -3.1065044E-03;  9.9913082E+00;  4.1589993E-01; -7.8809971E-01;3;  4.5189229E-03;  0.0000000E+00; -2.8594814E-03;  0.0000000E+00;  0.0000000E+00;  0.0000000E+00;0;  3.1509645E-02;  9.3554482E+01;  0.0000000E+00;  8.2940656E-05;  1.0000000E+02;  0.0000000E+00;  9.8700485E+01;  2.6580442E-02;  0.0000000E+00;  4.9292031E-03;  0.0000000E+00;
  3.0328403E+00;  9.9999998E-03; -4.0285194E-01;333;  2.8320003E-02;  0.0000000E+00; -1.7285099E-03;  9.9915142E+00;  4.1569006E-01; -7.6943564E-01;3;  4.9302159E-03;  0.0000000E+00;  1.0547361E-04;  0.0000000E+00;  0.0000000E+00;  0.0000000E+00;0;  3.0732490E-02;  9.3638763E+01;  0.0000000E+00;  7.0663220E-05;  1.0000000E+02;  0.0000000E+00;  9.8714821E+01;  2.6093660E-02;  0.0000000E+00;  4.6388297E-03;  0.0000000E+00;
  3.0331783E+00;  9.9999998E-03; -2.0172094E-01;334;  2.9085757E-02;  0.0000000E+00; -9.6535281E-04;  9.9916029E+00;  4.1553408E-01; -7.6136482E-01;3;  5.5746343E-03;  0.0000000E+00;  4.8872113E-04;  0.0000000E+00;  0.0000000E+00;  0.0000000E+00;0;  3.0414533E-02;  9.3700638E+01;  0.0000000E+00;  2.1781723E-05;  1.0000000E+02;  0.0000000E+00;  9.8726692E+01;  2.5738234E-02;  0.0000000E+00;  4.6763001E-03;  0.0000000E+00;
  3.2408617E+00;  9.9999998E-03; -1.0080168E+00;341;  3.4534551E-02;  0.0000000E+00; -5.9868856E-03;  9.9906616E+00;  4.1889194E-01; -8.3780223E-01;3;  5.9484611E-03;  0.0000000E+00; -2.6547199E-03;  0.0000000E+00;  0.0000000E+00;  0.0000000E+00;0;  3.7211265E-02;  9.2512283E+01;  0.0000000E+00;  1.2322039E-04;  1.0000000E+02;  0.0000000E+00;  9.8379395E+01;  3.1189794E-02;  0.0000000E+00;  6.0214731E-03;  0.0000000E+00;
  3.2404730E+00;  9.9999998E-03; -8.0648130E-01;342;  3.4313910E-02;  0.0000000E+00; -5.0684395E-03;  9.9907551E+00;  4.1865185E-01; -8.2941782E-01;3;  5.8301534E-03;  0.0000000E+00; -2.2115197E-03;  0.0000000E+00;  0.0000000E+00;  0.0000000E+00;0;  3.6917411E-02;  9.2602219E+01;  0.0000000E+00;  2.5495418E-04;  1.0000000E+02;  0.0000000E+00;  9.8398079E+01;  3.0675741E-02;  0.0000000E+00;  6.2416699E-03;  0.0000000E+00;
  3.2399256E+00;  9.9999998E-03; -6.0498589E-01;343;  3.4140304E-02;  0.0000000E+00; -3.8920171E-03;  9.9909554E+00;  4.1838664E-01; -8.1146520E-01;3;  5.8332309E-03;  0.0000000E+00; -3.3517703E-03;  0.0000000E+00;  0.0000000E+00;  0.0000000E+00;0;  3.6119681E-02;  9.2701614E+01;  0.0000000E+00;  2.4223221E-04;  1.0000000E+02;  0.0000000E+00;  9.8421104E+01;  3.0106863E-02;  0.0000000E+00;  6.0128164E-03;  0.0000000E+00;
  3.2395415E+00;  9.9999998E-03; -4.0362254E-01;344;  3.4182910E-02;  0.0000000E+00; -2.5123816E-03;  9.9911203E+00;  4.1816112E-01; -7.9671615E-01;3;  6.0185115E-03;  0.0000000E+00;  1.5162580E-03;  0.0000000E+00;  0.0000000E+00;  0.0000000E+00;0;  3.5378776E-02;  9.2794601E+01;  0.0000000E+00;  1.4323185E-04;  1.0000000E+02;  0.0000000E+00;  9.8432152E+01;  2.9572513E-02;  0.0000000E+00;  5.8062654E-03;  0.0000000E+00;
  3.2392499E+00;  9.9999998E-03; -2.0213571E-01;345;  3.4276586E-02;  0.0000000E+00; -1.6371378E-03;  9.9912176E+00;  4.1797549E-01; -7.8795373E-01;3;  6.2945043E-03;  0.0000000E+00;  1.5829914E-04;  0.0000000E+00;  0.0000000E+00;  0.0000000E+00;0;  3.5020590E-02;  9.2862427E+01;  0.0000000E+00;  4.0553321E-05;  1.0000000E+02;  0.0000000E+00;  9.8449226E+01;  2.9181337E-02;  0.0000000E+00;  5.8392528E-03;  0.0000000E+00;
  3.4506695E+00;  9.9999998E-03; -1.0092734E+00;352;  4.2800348E-02;  0.0000000E+00; -6.8904241E-03;  9.9905214E+00;  4.2122760E-01; -8.4607965E-01;3;  7.2643072E-03;  0.0000000E+00; -6.6548528E-04;  0.0000000E+00;  0.0000000E+00;  0.0000000E+00;0;  4.0912084E-02;  9.1708168E+01;  0.0000000E+00;  3.4736400E-04;  1.0000000E+02;  0.0000000E+00;  9.8141861E+01;  3.4094952E-02;  0.0000000E+00;  6.8171318E-03;  0.0000000E+00;
  3.4499149E+00;  9.9999998E-03; -8.0749333E-01;353;  4.2381816E-02;  0.0000000E+00; -5.8265636E-03;  9.9905815E+00;  4.2103463E-01; -8.4076899E-01;3;  7.4125514E-03;  0.0000000E+00; -2.3897386E-03;  0.0000000E+00;  0.0000000E+00;  0.0000000E+00;0;  4.0790379E-02;  9.1777748E+01;  0.0000000E+00;  5.3370983E-04;  1.0000000E+02;  0.0000000E+00;  9.8158386E+01;  3.3710521E-02;  0.0000000E+00;  7.0798569E-03;  0.0000000E+00;
  3.4489849E+00;  9.9999998E-03; -6.0574758E-01;354;  4.1958503E-02;  0.0000000E+00; -4.4553862E-03;  9.9907274E+00;  4.2082211E-01; -8.2774568E-01;3;  7.6717311E-03;  0.0000000E+00; -2.9798644E-03;  0.0000000E+00;  0.0000000E+00;  0.0000000E+00;0;  4.0148996E-02;  9.1855934E+01;  0.0000000E+00;  4.1102854E-04;  1.0000000E+02;  0.0000000E+00;  9.8177246E+01;  3.3278424E-02;  0.0000000E+00;  6.8705711E-03;  0.0000000E+00;
  3.4481564E+00;  9.9999998E-03; -4.0412885E-01;355;  4.1628867E-02;  0.0000000E+00; -3.3090068E-03;  9.9908085E+00;  4.2064124E-01; -8.2052028E-01;3;  7.9480382E-03;  0.0000000E+00;  1.9973277E-03;  0.0000000E+00;  0.0000000E+00;  0.0000000E+00;0;  3.9750520E-02;  9.1930092E+01;  0.0000000E+00;  2.0817902E-04;  1.0000000E+02;  0.0000000E+00;  9.8183540E+01;  3.2865927E-02;  0.0000000E+00;  6.8845931E-03;  0.0000000E+00;
  3.4474542E+00;  9.9999998E-03; -2.0228888E-01;356;  4.1317753E-02;  0.0000000E+00; -2.0482815E-03;  9.9908848E+00;  4.2048344E-01; -8.1371880E-01;3;  8.1020305E-03;  0.0000000E+00; -2.8713812E-05;  0.0000000E+00;  0.0000000E+00;  0.0000000E+00;0;  3.9414559E-02;  9.1984573E+01;  0.0000000E+00;  5.4383956E-05;  1.0000000E+02;  0.0000000E+00;  9.8200760E+01;  3.2559924E-02;  0.0000000E+00;  6.8546357E-03;  0.0000000E+00;
  3.6609213E+00;  9.9999998E-03; -1.0103556E+00;363;  5.1106300E-02;  0.0000000E+00; -7.5771478E-03;  9.9905443E+00;  4.2331564E-01; -8.4213859E-01;3;  8.7150456E-03;  0.0000000E+00;  1.5620146E-03;  0.0000000E+00;  0.0000000E+00;  0.0000000E+00;0;  4.3508448E-02;  9.0988602E+01;  0.0000000E+00;  3.2934695E-04;  1.0000000E+02;  0.0000000E+00;  9.7944969E+01;  3.6136322E-02;  0.0000000E+00;  7.3721269E-03;  0.0000000E+00;
  3.6600931E+00;  9.9999998E-03; -8.0834299E-01;364;  5.0720464E-02;  0.0000000E+00; -6.3336021E-03;  9.9905672E+00;  4.2319280E-01; -8.4012616E-01;3;  9.2190467E-03;  0.0000000E+00; -2.0054223E-03;  0.0000000E+00;  0.0000000E+00;  0.0000000E+00;0;  4.3564796E-02;  9.1030846E+01;  0.0000000E+00;  5.4992730E-04;  1.0000000E+02;  0.0000000E+00;  9.7956955E+01;  3.5942249E-02;  0.0000000E+00;  7.6225488E-03;  0.0000000E+00;
  3.6590819E+00;  9.9999998E-03; -6.0633624E-01;365;  5.0276477E-02;  0.0000000E+00; -4.7557214E-03;  9.9906521E+00;  4.2305544E-01; -8.3254099E-01;3;  9.8132724E-03;  0.0000000E+00; -2.2493014E-03;  0.0000000E+00;  0.0000000E+00;  0.0000000E+00;0;  4.3178778E-02;  9.1079819E+01;  0.0000000E+00;  4.0313110E-04;  1.0000000E+02;  0.0000000E+00;  9.7969170E+01;  3.5714474E-02;  0.0000000E+00;  7.4643032E-03;  0.0000000E+00;
  3.6581290E+00;  9.9999998E-03; -4.0436086E-01;366;  4.9834218E-02;  0.0000000E+00; -3.8293581E-03;  9.9906368E+00;  4.2293069E-01; -8.3392680E-01;3;  1.0294263E-02;  0.0000000E+00;  1.3086108E-03;  0.0000000E+00;  0.0000000E+00;  0.0000000E+00;0;  4.3221045E-02;  9.1128410E+01;  0.0000000E+00;  1.8532081E-04;  1.0000000E+02;  0.0000000E+00;  9.7974083E+01;  3.5486948E-02;  0.0000000E+00;  7.7340980E-03;  0.0000000E+00;
  3.6572604E+00;  9.9999998E-03; -2.0209812E-01;367;  4.9344890E-02;  0.0000000E+00; -2.0555397E-03;  9.9906950E+00;  4.2281714E-01; -8.2872945E-01;3;  1.0469712E-02;  0.0000000E+00; -4.7222449E-05;  0.0000000E+00;  0.0000000E+00;  0.0000000E+00;0;  4.2960722E-02;  9.1165855E+01;  0.0000000E+00;  4.3801661E-05;  1.0000000E+02;  0.0000000E+00;  9.7987350E+01;  3.5310343E-02;  0.0000000E+00;  7.6503800E-03;  0.0000000E+00;
  3.8710234E+00;  9.9999998E-03; -1.0113313E+00;374;  5.9003543E-02;  0.0000000E+00; -8.1070028E-03;  9.9905882E+00;  4.2530027E-01; -8.3737373E-01;3;  1.0661392E-02;  0.0000000E+00;  3.6090075E-03;  0.0000000E+00;  0.0000000E+00;  0.0000000E+00;0;  4.5393758E-02;  9.0304825E+01;  0.0000000E+00;  2.7002467E-04;  1.0000000E+02;  0.0000000E+00;  9.7768188E+01;  3.7599228E-02;  0.0000000E+00;  7.7945287E-03;  0.0000000E+00;
  3.8703597E+00;  9.9999998E-03; -8.0910754E-01;375;  5.8769777E-02;  0.0000000E+00; -6.6997558E-03;  9.9905939E+00;  4.2520800E-01; -8.3689809E-01;3;  1.1362255E-02;  0.0000000E+00; -1.3207328E-03;  0.0000000E+00;  0.0000000E+00;  0.0000000E+00;0;  4.5565497E-02;  9.0334770E+01;  0.0000000E+00;  3.8604214E-04;  1.0000000E+02;  0.0000000E+00;  9.7778069E+01;  3.7548084E-02;  0.0000000E+00;  8.0174133E-03;  0.0000000E+00;
  3.8695691E+00;  9.9999998E-03; -6.0685068E-01;376;  5.8467388E-02;  0.0000000E+00; -4.9400125E-03;  9.9906292E+00;  4.2511389E-01; -8.3377123E-01;3;  1.2134526E-02;  0.0000000E+00; -1.3875101E-03;  0.0000000E+00;  0.0000000E+00;  0.0000000E+00;0;  4.5390282E-02;  9.0367737E+01;  0.0000000E+00;  2.5851934E-04;  1.0000000E+02;  0.0000000E+00;  9.7786629E+01;  3.7485190E-02;  0.0000000E+00;  7.9050930E-03;  0.0000000E+00;
  3.8688152E+00;  9.9999998E-03; -4.0445727E-01;377;  5.8143277E-02;  0.0000000E+00; -3.9106766E-03;  9.9905634E+00;  4.2501342E-01; -8.3960670E-01;3;  1.2792760E-02;  0.0000000E+00; -2.5332667E-04;  0.0000000E+00;  0.0000000E+00;  0.0000000E+00;0;  4.5701358E-02;  9.0401627E+01;  0.0000000E+00;  1.0351797E-04;  1.0000000E+02;  0.0000000E+00;  9.7794937E+01;  3.7413482E-02;  0.0000000E+00;  8.2878768E-03;  0.0000000E+00;
  3.8680813E+00;  9.9999998E-03; -2.0163588E-01;378;  5.7743952E-02;  0.0000000E+00; -1.7719752E-03;  9.9905910E+00;  4.2492911E-01; -8.3716905E-01;3;  1.3098385E-02;  0.0000000E+00; -1.4446264E-04;  0.0000000E+00;  0.0000000E+00;  0.0000000E+00;0;  4.5581788E-02;  9.0429199E+01;  0.0000000E+00;  2.0520267E-05;  1.0000000E+02;  0.0000000E+00;  9.7804298E+01;  3.7350409E-02;  0.0000000E+00;  8.2313772E-03;  0.0000000E+00;
  4.0805082E+00;  9.9999998E-03; -1.0122629E+00;385;  6.6082500E-02;  0.0000000E+00; -8.5623255E-03;  9.9904957E+00;  4.2736775E-01; -8.4528029E-01;3;  1.3161359E-02;  0.0000000E+00;  5.2375430E-03;  0.0000000E+00;  0.0000000E+00;  0.0000000E+00;0;  4.7160588E-02;  8.9592751E+01;  0.0000000E+00;  1.9154626E-04;  1.0000000E+02;  0.0000000E+00;  9.7591484E+01;  3.8941775E-02;  0.0000000E+00;  8.2188128E-03;  0.0000000E+00;
  4.0802255E+00;  9.9999998E-03; -8.0987418E-01;386;  6.6126719E-02;  0.0000000E+00; -7.0371339E-03;  9.9904995E+00;  4.2724332E-01; -8.4490955E-01;3;  1.3817285E-02;  0.0000000E+00; -6.1349757E-04;  0.0000000E+00;  0.0000000E+00;  0.0000000E+00;0;  4.7336765E-02;  8.9633415E+01;  0.0000000E+00;  2.3621389E-04;  1.0000000E+02;  0.0000000E+00;  9.7604233E+01;  3.8936079E-02;  0.0000000E+00;  8.4006861E-03;  0.0000000E+00;
  4.0799398E+00;  9.9999998E-03; -6.0743147E-01;387;  6.6156670E-02;  0.0000000E+00; -5.1934537E-03;  9.9905214E+00;  4.2712760E-01; -8.4294856E-01;3;  1.4550379E-02;  0.0000000E+00; -1.1277929E-03;  0.0000000E+00;  0.0000000E+00;  0.0000000E+00;0;  4.7263160E-02;  8.9673309E+01;  0.0000000E+00;  1.6089139E-04;  1.0000000E+02;  0.0000000E+00;  9.7614532E+01;  3.8940944E-02;  0.0000000E+00;  8.3222156E-03;  0.0000000E+00;
  4.0797167E+00;  9.9999998E-03; -4.0471688E-01;388;  6.6219769E-02;  0.0000000E+00; -3.7958312E-03;  9.9904633E+00;  4.2700264E-01; -8.4814364E-01;3;  1.5262531E-02;  0.0000000E+00; -1.7174846E-03;  0.0000000E+00;  0.0000000E+00;  0.0000000E+00;0;  4.7572609E-02;  8.9711754E+01;  0.0000000E+00;  6.3359279E-05;  1.0000000E+02;  0.0000000E+00;  9.7628372E+01;  3.8941480E-02;  0.0000000E+00;  8.6311297E-03;  0.0000000E+00;
  4.0794358E+00;  9.9999998E-03; -2.0135619E-01;389;  6.6210248E-02;  0.0000000E+00; -1.6554591E-03;  9.9904566E+00;  4.2691174E-01; -8.4872705E-01;3;  1.5784996E-02;  0.0000000E+00; -5.4516463E-04;  0.0000000E+00;  0.0000000E+00;  0.0000000E+00;0;  4.7606371E-02;  8.9741211E+01;  0.0000000E+00;  1.2138121E-05;  1.0000000E+02;  0.0000000E+00;  9.7638054E+01;  3.8936794E-02;  0.0000000E+00;  8.6695757E-03;  0.0000000E+00;
  4.2907424E+00;  9.9999998E-03; -2.0182283E-01;400;  7.4404538E-02;  0.0000000E+00; -2.0956099E-03;  9.9902153E+00;  4.2878690E-01; -8.7003052E-01;3;  1.8277397E-02;  0.0000000E+00; -1.1519663E-03;  0.0000000E+00;  0.0000000E+00;  0.0000000E+00;0;  4.9230743E-02;  8.9095963E+01;  0.0000000E+00;  2.2657141E-05;  1.0000000E+02;  0.0000000E+00;  9.7482178E+01;  4.0221859E-02;  0.0000000E+00;  9.0088844E-03;  0.0000000E+00;
  4.2898321E+00;  9.9999998E-03; -8.1064880E-01;397;  7.2932288E-02;  0.0000000E+00; -7.3914290E-03;  9.9902334E+00;  4.2929170E-01; -8.6844093E-01;3;  1.6405150E-02;  0.0000000E+00; -6.7889952E-04;  0.0000000E+00;  0.0000000E+00;  0.0000000E+00;0;  4.9095027E-02;  8.8930649E+01;  0.0000000E+00; -8.7453125E-05;  1.0000000E+02;  0.0000000E+00;  9.7433929E+01;  4.0266626E-02;  0.0000000E+00;  8.8284016E-03;  0.0000000E+00;
  4.2901597E+00;  9.9999998E-03; -6.0814178E-01;398;  7.3398896E-02;  0.0000000E+00; -5.5690962E-03;  9.9902639E+00;  4.2910075E-01; -8.6568481E-01;3;  1.6942762E-02;  0.0000000E+00; -1.8563595E-03;  0.0000000E+00;  0.0000000E+00;  0.0000000E+00;0;  4.8984975E-02;  8.8995354E+01;  0.0000000E+00;  2.3171051E-05;  1.0000000E+02;  0.0000000E+00;  9.7450439E+01;  4.0244263E-02;  0.0000000E+00;  8.7407110E-03;  0.0000000E+00;
  4.2905273E+00;  9.9999998E-03; -4.0536556E-01;399;  7.3941506E-02;  0.0000000E+00; -3.8452798E-03;  9.9902401E+00;  4.2891878E-01; -8.6780459E-01;3;  1.7579252E-02;  0.0000000E+00; -2.3405217E-03;  0.0000000E+00;  0.0000000E+00;  0.0000000E+00;0;  4.9106177E-02;  8.9054085E+01;  0.0000000E+00;  4.5682340E-05;  1.0000000E+02;  0.0000000E+00;  9.7468506E+01;  4.0228561E-02;  0.0000000E+00;  8.8776164E-03;  0.0000000E+00;
  4.2896972E+00;  9.9999998E-03; -1.0131277E+00;396;  7.2542362E-02;  0.0000000E+00; -8.9709908E-03;  9.9902105E+00;  4.2948931E-01; -8.7045503E-01;3;  1.5937561E-02;  0.0000000E+00;  5.8712317E-03;  0.0000000E+00;  0.0000000E+00;  0.0000000E+00;0;  4.8998874E-02;  8.8865921E+01;  0.0000000E+00; -4.0727397E-04;  1.0000000E+02;  0.0000000E+00;  9.7415512E+01;  4.0299792E-02;  0.0000000E+00;  8.6990809E-03;  0.0000000E+00;
  4.5011425E+00;  9.9999998E-03; -1.0137699E+00;407;  8.0320321E-02;  0.0000000E+00; -9.2503810E-03;  9.9898119E+00;  4.3122321E-01; -9.0583682E-01;3;  1.8863901E-02;  0.0000000E+00;  5.1623476E-03;  0.0000000E+00;  0.0000000E+00;  0.0000000E+00;0;  5.0330244E-02;  8.8274239E+01;  0.0000000E+00; -1.0358656E-03;  1.0000000E+02;  0.0000000E+00;  9.7273949E+01;  4.1195989E-02;  0.0000000E+00;  9.1342572E-03;  0.0000000E+00;
  4.5009661E+00;  9.9999998E-03; -8.1128222E-01;408;  8.0636337E-02;  0.0000000E+00; -7.6480107E-03;  9.9898586E+00;  4.3097493E-01; -9.0165037E-01;3;  1.9070413E-02;  0.0000000E+00; -1.6789094E-03;  0.0000000E+00;  0.0000000E+00;  0.0000000E+00;0;  5.0299965E-02;  8.8356133E+01;  0.0000000E+00; -2.0244990E-04;  1.0000000E+02;  0.0000000E+00;  9.7296524E+01;  4.1125003E-02;  0.0000000E+00;  9.1749635E-03;  0.0000000E+00;
  4.5011053E+00;  9.9999998E-03; -6.0884029E-01;409;  8.1062473E-02;  0.0000000E+00; -5.8671455E-03;  9.9899197E+00;  4.3070731E-01; -8.9624494E-01;3;  1.9362878E-02;  0.0000000E+00; -3.2363385E-03;  0.0000000E+00;  0.0000000E+00;  0.0000000E+00;0;  5.0036691E-02;  8.8446114E+01;  0.0000000E+00; -2.8144388E-04;  1.0000000E+02;  0.0000000E+00;  9.7318932E+01;  4.1030988E-02;  0.0000000E+00;  9.0057040E-03;  0.0000000E+00;
  4.5014515E+00;  9.9999998E-03; -4.0631679E-01;410;  8.1639789E-02;  0.0000000E+00; -4.2246701E-03;  9.9899244E+00;  4.3047553E-01; -8.9582086E-01;3;  1.9835375E-02;  0.0000000E+00; -1.5747633E-03;  0.0000000E+00;  0.0000000E+00;  0.0000000E+00;0;  5.0012439E-02;  8.8526306E+01;  0.0000000E+00; -2.3886780E-04;  1.0000000E+02;  0.0000000E+00;  9.7335670E+01;  4.0951423E-02;  0.0000000E+00;  9.0610152E-03;  0.0000000E+00;
  4.5017791E+00;  9.9999998E-03; -2.0321748E-01;411;  8.2203068E-02;  0.0000000E+00; -2.9926880E-03;  9.9899082E+00;  4.3030128E-01; -8.9725167E-01;3;  2.0431772E-02;  0.0000000E+00; -1.5299664E-03;  0.0000000E+00;  0.0000000E+00;  0.0000000E+00;0;  5.0093651E-02;  8.8581070E+01;  0.0000000E+00; -5.3460426E-05;  1.0000000E+02;  0.0000000E+00;  9.7353699E+01;  4.0903129E-02;  0.0000000E+00;  9.1905203E-03;  0.0000000E+00;
  4.7195573E+00;  9.9999998E-03; -1.0139556E+00;418;  9.3070611E-02;  0.0000000E+00; -9.2687747E-03;  9.9894514E+00;  4.3188778E-01; -9.3786490E-01;3;  2.2341328E-02;  0.0000000E+00;  2.6191638E-03;  0.0000000E+00;  0.0000000E+00;  0.0000000E+00;0;  5.0086588E-02;  8.8044785E+01;  0.0000000E+00;  9.7985449E-04;  1.0000000E+02;  0.0000000E+00;  9.7220360E+01;  4.0721521E-02;  0.0000000E+00;  9.3650660E-03;  0.0000000E+00;
  4.7174191E+00;  9.9999998E-03; -8.1150597E-01;419;  9.2110470E-02;  0.0000000E+00; -7.5928275E-03;  9.9895411E+00;  4.3161899E-01; -9.2986321E-01;3;  2.2150017E-02;  0.0000000E+00; -2.8492999E-03;  0.0000000E+00;  0.0000000E+00;  0.0000000E+00;0;  4.9826562E-02;  8.8135323E+01;  0.0000000E+00; -4.8290778E-04;  1.0000000E+02;  0.0000000E+00;  9.7243675E+01;  4.0620200E-02;  0.0000000E+00;  9.2063630E-03;  0.0000000E+00;
  4.7151957E+00;  9.9999998E-03; -6.0917675E-01;420;  9.1028944E-02;  0.0000000E+00; -5.8339089E-03;  9.9896364E+00;  4.3131834E-01; -9.2138457E-01;3;  2.2071952E-02;  0.0000000E+00; -4.4237389E-03;  0.0000000E+00;  0.0000000E+00;  0.0000000E+00;0;  4.9413048E-02;  8.8236855E+01;  0.0000000E+00; -4.2758483E-04;  1.0000000E+02;  0.0000000E+00;  9.7268646E+01;  4.0473875E-02;  0.0000000E+00;  8.9391749E-03;  0.0000000E+00;
  4.7138186E+00;  9.9999998E-03; -4.0698022E-01;421;  9.0477660E-02;  0.0000000E+00; -4.4281399E-03;  9.9896555E+00;  4.3107852E-01; -9.1968900E-01;3;  2.2255851E-02;  0.0000000E+00; -1.2730425E-03;  0.0000000E+00;  0.0000000E+00;  0.0000000E+00;0;  4.9334086E-02;  8.8322563E+01;  0.0000000E+00; -5.3902756E-04;  1.0000000E+02;  0.0000000E+00;  9.7282616E+01;  4.0350419E-02;  0.0000000E+00;  8.9836689E-03;  0.0000000E+00;
  4.7127557E+00;  9.9999998E-03; -2.0486811E-01;422;  9.0042166E-02;  0.0000000E+00; -3.4877015E-03;  9.9896650E+00;  4.3090868E-01; -9.1884124E-01;3;  2.2431893E-02;  0.0000000E+00; -1.1316176E-03;  0.0000000E+00;  0.0000000E+00;  0.0000000E+00;0;  4.9307916E-02;  8.8381149E+01;  0.0000000E+00; -2.2585162E-04;  1.0000000E+02;  0.0000000E+00;  9.7294800E+01;  4.0260583E-02;  0.0000000E+00;  9.0473341E-03;  0.0000000E+00;
  4.9461350E+00;  9.9999998E-03; -1.0136312E+00;429;  1.0908972E-01;  0.0000000E+00; -8.9553455E-03;  9.9891443E+00;  4.3148443E-01; -9.6514130E-01;3;  2.1659395E-02;  0.0000000E+00; -8.0528471E-04;  0.0000000E+00;  0.0000000E+00;  0.0000000E+00;0;  4.7853302E-02;  8.8174782E+01;  0.0000000E+00;  2.3827905E-02;  1.0000000E+02;  0.0000000E+00;  9.7253807E+01;  3.8536847E-02;  0.0000000E+00;  9.3164556E-03;  0.0000000E+00;
  4.9419169E+00;  9.9999998E-03; -8.1117672E-01;430;  1.0889138E-01;  0.0000000E+00; -7.1054171E-03;  9.9893398E+00;  4.3095818E-01; -9.4776016E-01;3;  2.4340175E-02;  0.0000000E+00; -5.0112656E-03;  0.0000000E+00;  0.0000000E+00;  0.0000000E+00;0;  4.7111239E-02;  8.8352951E+01;  0.0000000E+00; -1.3130142E-02;  1.0000000E+02;  0.0000000E+00;  9.7297684E+01;  3.8314212E-02;  0.0000000E+00;  8.7970262E-03;  0.0000000E+00;
  4.9345088E+00;  9.9999998E-03; -6.0884452E-01;431;  1.0445897E-01;  0.0000000E+00; -5.4432172E-03;  9.9895258E+00;  4.3044981E-01; -9.3122697E-01;3;  2.4516953E-02;  0.0000000E+00; -5.3314967E-03;  0.0000000E+00;  0.0000000E+00;  0.0000000E+00;0;  4.6443328E-02;  8.8526947E+01;  0.0000000E+00; -5.7214033E-03;  1.0000000E+02;  0.0000000E+00;  9.7339104E+01;  3.7904158E-02;  0.0000000E+00;  8.5391710E-03;  0.0000000E+00;
  4.9298706E+00;  9.9999998E-03; -4.0668669E-01;432;  1.0225074E-01;  0.0000000E+00; -4.3889410E-03;  9.9895649E+00;  4.3016568E-01; -9.2772967E-01;3;  2.5059927E-02;  0.0000000E+00; -3.1362544E-03;  0.0000000E+00;  0.0000000E+00;  0.0000000E+00;0;  4.6345275E-02;  8.8625244E+01;  0.0000000E+00; -1.9119281E-04;  1.0000000E+02;  0.0000000E+00;  9.7360245E+01;  3.7718147E-02;  0.0000000E+00;  8.6271269E-03;  0.0000000E+00;
  4.9263754E+00;  9.9999998E-03; -2.0498338E-01;433;  1.0026934E-01;  0.0000000E+00; -2.5763782E-03;  9.9896526E+00;  4.3001997E-01; -9.1994005E-01;3;  2.4821630E-02;  0.0000000E+00; -1.1440495E-03;  0.0000000E+00;  0.0000000E+00;  0.0000000E+00;0;  4.6018850E-02;  8.8681480E+01;  0.0000000E+00;  3.5446146E-04;  1.0000000E+02;  0.0000000E+00;  9.7366058E+01;  3.7599906E-02;  0.0000000E+00;  8.4189428E-03;  0.0000000E+00;
  5.1506882E+00;  9.9999998E-03; -1.0125172E+00;440;  1.0899652E-01;  0.0000000E+00; -8.1000281E-03;  9.9895153E+00;  4.2871091E-01; -9.3212193E-01;3;  2.2426277E-02;  0.0000000E+00; -4.1608410E-03;  0.0000000E+00;  0.0000000E+00;  0.0000000E+00;0;  4.1718028E-02;  8.9118118E+01;  0.0000000E+00;  4.2288698E-02;  1.0000000E+02;  0.0000000E+00;  9.7480278E+01;  3.3219241E-02;  0.0000000E+00;  8.4987869E-03;  0.0000000E+00;
  5.1520405E+00;  9.9999998E-03; -8.1017703E-01;441;  1.1322266E-01;  0.0000000E+00; -6.3716611E-03;  9.9894409E+00;  4.2859453E-01; -9.3874586E-01;3;  2.8946174E-02;  0.0000000E+00; -1.0036387E-02;  0.0000000E+00;  0.0000000E+00;  0.0000000E+00;0;  4.2052962E-02;  8.9152679E+01;  0.0000000E+00; -1.1761148E-02;  1.0000000E+02;  0.0000000E+00;  9.7493729E+01;  3.3920739E-02;  0.0000000E+00;  8.1322230E-03;  0.0000000E+00;
  5.1522021E+00;  9.9999998E-03; -6.0796863E-01;442;  1.1281934E-01;  0.0000000E+00; -4.7302246E-03;  9.9895773E+00;  4.2839968E-01; -9.2661077E-01;3;  2.2602163E-02;  0.0000000E+00; -6.0093673E-03;  0.0000000E+00;  0.0000000E+00;  0.0000000E+00;0;  4.1342881E-02;  8.9220451E+01;  0.0000000E+00; -1.9041849E-02;  1.0000000E+02;  0.0000000E+00;  9.7510590E+01;  3.3512764E-02;  0.0000000E+00;  7.8301160E-03;  0.0000000E+00;
  5.1506948E+00;  9.9999998E-03; -4.0583286E-01;443;  1.1678042E-01;  0.0000000E+00; -3.5360418E-03;  9.9895649E+00;  4.2806447E-01; -9.2772365E-01;3;  2.6731459E-02;  0.0000000E+00; -4.0284321E-03;  0.0000000E+00;  0.0000000E+00;  0.0000000E+00;0;  4.1431852E-02;  8.9333267E+01;  0.0000000E+00; -6.1014812E-03;  1.0000000E+02;  0.0000000E+00;  9.7539497E+01;  3.3653442E-02;  0.0000000E+00;  7.7784103E-03;  0.0000000E+00;
  5.1464167E+00;  9.9999998E-03; -2.0369273E-01;444;  1.1573981E-01;  0.0000000E+00; -9.2972739E-04;  9.9897823E+00;  4.2772204E-01; -9.0838182E-01;3;  2.7432730E-02;  0.0000000E+00; -2.0327256E-03;  0.0000000E+00;  0.0000000E+00;  0.0000000E+00;0;  4.0658448E-02;  8.9454948E+01;  0.0000000E+00;  4.4887245E-04;  1.0000000E+02;  0.0000000E+00;  9.7566872E+01;  3.3271730E-02;  0.0000000E+00;  7.3867175E-03;  0.0000000E+00;
  5.3534040E+00;  9.9999998E-03; -1.0107023E+00;451;  1.1296433E-01;  0.0000000E+00; -6.9045923E-03;  9.9899883E+00;  4.2390788E-01; -8.9009738E-01;3;  2.7385183E-02;  0.0000000E+00; -8.4812585E-03;  0.0000000E+00;  0.0000000E+00;  0.0000000E+00;0;  3.4528881E-02;  9.0782501E+01;  0.0000000E+00;  1.8697454E-02;  1.0000000E+02;  0.0000000E+00;  9.7882072E+01;  2.7301485E-02;  0.0000000E+00;  7.2273985E-03;  0.0000000E+00;
  5.3607612E+00;  9.9999998E-03; -8.0884641E-01;452;  1.1852366E-01;  0.0000000E+00; -5.5457391E-03;  9.9892673E+00;  4.2546919E-01; -9.5416391E-01;3;  2.3990508E-02;  0.0000000E+00; -8.8741826E-03;  0.0000000E+00;  0.0000000E+00;  0.0000000E+00;0;  3.6664590E-02;  9.0216713E+01;  0.0000000E+00;  2.1227296E-03;  1.0000000E+02;  0.0000000E+00;  9.7760834E+01;  2.9292485E-02;  0.0000000E+00;  7.3721060E-03;  0.0000000E+00;
  5.3608842E+00;  9.9999998E-03; -6.0663277E-01;453;  1.1858732E-01;  0.0000000E+00; -3.6296546E-03;  9.9895945E+00;  4.2523697E-01; -9.2512465E-01;3;  2.2546681E-02;  0.0000000E+00; -6.4467685E-03;  0.0000000E+00;  0.0000000E+00;  0.0000000E+00;0;  3.5359997E-02;  9.0303856E+01;  0.0000000E+00; -1.4304401E-02;  1.0000000E+02;  0.0000000E+00;  9.7779671E+01;  2.8659496E-02;  0.0000000E+00;  6.7004994E-03;  0.0000000E+00;
  5.3616838E+00;  9.9999998E-03; -4.0459445E-01;454;  1.1988939E-01;  0.0000000E+00; -2.9181561E-03;  9.9895926E+00;  4.2509168E-01; -9.2528361E-01;3;  1.9762823E-02;  0.0000000E+00; -5.0344113E-03;  0.0000000E+00;  0.0000000E+00;  0.0000000E+00;0;  3.5355497E-02;  9.0345818E+01;  0.0000000E+00; -5.0112698E-03;  1.0000000E+02;  0.0000000E+00;  9.7801224E+01;  2.8442819E-02;  0.0000000E+00;  6.9126789E-03;  0.0000000E+00;
  5.3611097E+00;  9.9999998E-03; -2.0290434E-01;455;  1.2019302E-01;  0.0000000E+00; -1.3979962E-03;  9.9898052E+00;  4.2481464E-01; -9.0636563E-01;3;  2.1176970E-02;  0.0000000E+00;  6.8206119E-04;  0.0000000E+00;  0.0000000E+00;  0.0000000E+00;0;  3.4605321E-02;  9.0448479E+01;  0.0000000E+00;  1.5119083E-04;  1.0000000E+02;  0.0000000E+00;  9.7821312E+01;  2.8042102E-02;  0.0000000E+00;  6.5632178E-03;  0.0000000E+00;
  5.5597157E+00;  9.9999998E-03; -1.0087222E+00;462;  1.1711948E-01;  0.0000000E+00; -6.3615409E-03;  9.9897375E+00;  4.1929132E-01; -9.1240567E-01;3;  1.2650517E-02;  0.0000000E+00; -1.7914234E-02;  0.0000000E+00;  0.0000000E+00;  0.0000000E+00;0;  2.8852617E-02;  9.2404922E+01;  0.0000000E+00;  1.2698802E-02;  1.0000000E+02;  0.0000000E+00;  9.8287987E+01;  2.1674860E-02;  0.0000000E+00;  7.1777566E-03;  0.0000000E+00;
  5.5655813E+00;  9.9999998E-03; -8.0718827E-01;463;  1.1853015E-01;  0.0000000E+00; -4.1619088E-03;  9.9900255E+00;  4.2137066E-01; -8.8675785E-01;3;  1.5771797E-02;  0.0000000E+00; -1.5346748E-02;  0.0000000E+00;  0.0000000E+00;  0.0000000E+00;0;  2.7559849E-02;  9.1662239E+01;  0.0000000E+00;  3.0210236E-02;  1.0000000E+02;  0.0000000E+00;  9.8115364E+01;  2.1798352E-02;  0.0000000E+00;  5.7614967E-03;  0.0000000E+00;
  5.5659690E+00;  9.9999998E-03; -6.0506415E-01;464;  1.2063289E-01;  0.0000000E+00; -2.4690309E-03;  9.9897003E+00;  4.2119664E-01; -9.1569114E-01;3;  1.4498365E-02;  0.0000000E+00; -8.4963944E-03;  0.0000000E+00;  0.0000000E+00;  0.0000000E+00;0;  2.8173681E-02;  9.1718773E+01;  0.0000000E+00; -9.6118171E-04;  1.0000000E+02;  0.0000000E+00;  9.8128990E+01;  2.2828881E-02;  0.0000000E+00;  5.3448016E-03;  0.0000000E+00;
  5.5650563E+00;  9.9999998E-03; -4.0288156E-01;465;  1.2062475E-01;  0.0000000E+00; -1.1441649E-03;  9.9899216E+00;  4.2079613E-01; -8.9603132E-01;3;  2.0915328E-02;  0.0000000E+00; -4.4248700E-03;  0.0000000E+00;  0.0000000E+00;  0.0000000E+00;0;  2.7647085E-02;  9.1864136E+01;  0.0000000E+00;  1.0378468E-02;  1.0000000E+02;  0.0000000E+00;  9.8164619E+01;  2.2346288E-02;  0.0000000E+00;  5.3007966E-03;  0.0000000E+00;
  5.5644598E+00;  9.9999998E-03; -2.0066014E-01;466;  1.2034708E-01;  0.0000000E+00;  2.2731369E-06;  9.9900932E+00;  4.2056444E-01; -8.8076979E-01;3;  2.1284519E-02;  0.0000000E+00; -2.5086873E-04;  0.0000000E+00;  0.0000000E+00;  0.0000000E+00;0;  2.7186662E-02;  9.1948265E+01;  0.0000000E+00;  7.3679001E-03;  1.0000000E+02;  0.0000000E+00;  9.8186180E+01;  2.1875482E-02;  0.0000000E+00;  5.3111804E-03;  0.0000000E+00;
  5.7667022E+00;  9.9999998E-03; -8.0495834E-01;473;  1.2154433E-01;  0.0000000E+00; -3.5550124E-03;  9.9891033E+00;  4.1541132E-01; -9.6878809E-01;3; -2.3665843E-03;  0.0000000E+00; -3.5495725E-02;  0.0000000E+00;  0.0000000E+00;  0.0000000E+00;0;  2.2549959E-02;  9.3785118E+01;  0.0000000E+00; -6.1694803E-03;  1.0000000E+02;  0.0000000E+00;  9.8646873E+01;  1.7360004E-02;  0.0000000E+00;  5.1899552E-03;  0.0000000E+00;
  5.7680755E+00;  9.9999998E-03; -6.0318589E-01;474;  1.2043681E-01;  0.0000000E+00; -1.4037926E-03;  9.9906340E+00;  4.1596776E-01; -8.3270627E-01;3;  1.5220420E-02;  0.0000000E+00; -1.5137395E-02;  0.0000000E+00;  0.0000000E+00;  0.0000000E+00;0;  1.9035162E-02;  9.3612396E+01;  0.0000000E+00; -5.3960714E-03;  1.0000000E+02;  0.0000000E+00;  9.8595093E+01;  1.5156253E-02;  0.0000000E+00;  3.8789096E-03;  0.0000000E+00;
  5.7671118E+00;  9.9999998E-03; -4.0097541E-01;475;  1.2054342E-01;  0.0000000E+00; -1.0877397E-04;  9.9906511E+00;  4.1550511E-01; -8.3116955E-01;3;  2.0834839E-02;  0.0000000E+00; -2.0241011E-03;  0.0000000E+00;  0.0000000E+00;  0.0000000E+00;0;  1.8883247E-02;  9.3791832E+01;  0.0000000E+00;  9.9076340E-03;  1.0000000E+02;  0.0000000E+00;  9.8626335E+01;  1.5018663E-02;  0.0000000E+00;  3.8645826E-03;  0.0000000E+00;
  5.7690563E+00;  9.9999998E-03; -2.0005777E-01;476;  1.2306561E-01;  0.0000000E+00;  2.0244373E-04;  9.9892416E+00;  4.1653138E-01; -9.5649409E-01;3;  1.3577877E-02;  0.0000000E+00;  4.4503342E-04;  0.0000000E+00;  0.0000000E+00;  0.0000000E+00;0;  2.1522181E-02;  9.3412506E+01;  0.0000000E+00;  5.9830784E-03;  1.0000000E+02;  0.0000000E+00;  9.8511734E+01;  1.7230876E-02;  0.0000000E+00;  4.2913058E-03;  0.0000000E+00;
  5.9698968E+00;  9.9999998E-03; -4.0000752E-01;483;  1.2267330E-01;  0.0000000E+00;  7.6862787E-05;  9.9887609E+00;  4.1090354E-01; -9.9920493E-01;3;  1.2571747E-02;  0.0000000E+00; -1.5483517E-04;  0.0000000E+00;  0.0000000E+00;  0.0000000E+00;0;  1.3666455E-02;  9.5496208E+01;  0.0000000E+00; -3.4725867E-02;  1.0000000E+02;  0.0000000E+00;  9.9010834E+01;  1.0712438E-02;  0.0000000E+00;  2.9540169E-03;  0.0000000E+00;
  5.9705415E+00;  9.9999998E-03; -6.0191292E-01;482;  1.2395987E-01;  0.0000000E+00; -1.6510737E-03;  9.9860964E+00;  4.1146821E-01; -1.2360762E+00;3;  9.6885879E-03;  0.0000000E+00; -1.3183868E-02;  0.0000000E+00;  0.0000000E+00;  0.0000000E+00;0;  1.7265886E-02;  9.5224403E+01;  0.0000000E+00; -4.2615950E-02;  1.0000000E+02;  0.0000000E+00;  9.8968666E+01;  1.3324973E-02;  0.0000000E+00;  3.9409138E-03;  0.0000000E+00;
  5.9720092E+00;  9.9999998E-03; -1.9962409E-01;484;  1.2435260E-01;  0.0000000E+00;  3.8687725E-04;  9.9866276E+00;  4.1241124E-01; -1.1888610E+00;3;  8.5407868E-03;  0.0000000E+00;  4.2754924E-05;  0.0000000E+00;  0.0000000E+00;  0.0000000E+00;0;  1.6059591E-02;  9.4932114E+01;  0.0000000E+00; -5.1879394E-03;  1.0000000E+02;  0.0000000E+00;  9.8831451E+01;  1.2723736E-02;  0.0000000E+00;  3.3358538E-03;  0.0000000E+00;
  6.1715260E+00;  9.9999998E-03; -3.9975947E-01;489;  1.2416282E-01;  0.0000000E+00; -2.7442514E-04;  9.9736423E+00;  4.0665275E-01; -2.3433304E+00;3; -5.9692934E-04;  0.0000000E+00; -3.8288664E-03;  0.0000000E+00;  0.0000000E+00;  0.0000000E+00;0;  1.0672693E-02;  9.6958649E+01;  0.0000000E+00; -9.2513658E-02;  1.0000000E+02;  0.0000000E+00;  9.9268700E+01;  7.9836128E-03;  0.0000000E+00;  2.6890803E-03;  0.0000000E+00;
  6.1722889E+00;  9.9999998E-03; -1.9872937E-01;490;  1.2433498E-01;  0.0000000E+00;  7.8526564E-04;  9.9750738E+00;  4.0715986E-01; -2.2160451E+00;3;  8.1127547E-03;  0.0000000E+00;  3.5160035E-04;  0.0000000E+00;  0.0000000E+00;  0.0000000E+00;0;  1.0027945E-02;  9.6826378E+01;  0.0000000E+00; -3.9314598E-02;  1.0000000E+02;  0.0000000E+00;  9.9185921E+01;  7.6665669E-03;  0.0000000E+00;  2.3613786E-03;  0.0000000E+00;
 -5.5613450E-04;  9.9999998E-03;  3.5777395E-11;170; -2.3308530E-05;  0.0000000E+00;  1.5168351E-10;  1.0000019E+01;  3.9977908E-01;  2.0521919E-03;3; -5.5638097E-02;  0.0000000E+00;  2.7030643E-08;  0.0000000E+00;  0.0000000E+00;  0.0000000E+00;0;  1.5362164E-04;  1.0011041E+02;  0.0000000E+00; -1.5782082E-17;  1.0000000E+02;  0.0000000E+00;  1.0000000E+02;  1.6978459E-04;  0.0000000E+00; -1.6162949E-05;  0.0000000E+00;
 -5.5135193E-04;  9.9999998E-03;  2.0001404E-01;171; -2.6408648E-05;  0.0000000E+00; -2.3326140E-06;  9.9999676E+00;  3.9978796E-01; -3.4630739E-03;3; -5.3975783E-02;  0.0000000E+00; -1.2895883E-03;  0.0000000E+00;  0.0000000E+00;  0.0000000E+00;0;  1.5645570E-04;  1.0010564E+02;  0.0000000E+00; -1.4852612E-06;  1.0000000E+02;  0.0000000E+00;  1.0000024E+02;  1.7162571E-04;  0.0000000E+00; -1.5170001E-05;  0.0000000E+00;
 -5.3675828E-04;  9.9999998E-03;  4.0002632E-01;172; -3.5120738E-05;  0.0000000E+00; -4.4611456E-06;  9.9998856E+00;  3.9980963E-01; -1.2313152E-02;3; -4.9650136E-02;  0.0000000E+00; -9.8874106E-04;  0.0000000E+00;  0.0000000E+00;  0.0000000E+00;0;  1.6194394E-04;  1.0009283E+02;  0.0000000E+00; -1.6700529E-05;  1.0000000E+02;  0.0000000E+00;  1.0000059E+02;  1.7406125E-04;  0.0000000E+00; -1.2117301E-05;  0.0000000E+00;
 -5.1278295E-04;  9.9999998E-03;  6.0003573E-01;173; -4.8211303E-05;  0.0000000E+00; -5.5527125E-06;  9.9997749E+00;  3.9983815E-01; -2.4241516E-02;3; -4.2716969E-02;  0.0000000E+00;  1.5449682E-03;  0.0000000E+00;  0.0000000E+00;  0.0000000E+00;0;  1.6392177E-04;  1.0007529E+02;  0.0000000E+00; -6.5666645E-05;  1.0000000E+02;  0.0000000E+00;  9.9998749E+01;  1.7087384E-04;  0.0000000E+00; -6.9520788E-06;  0.0000000E+00;
 -4.8109947E-04;  9.9999998E-03;  8.0004388E-01;174; -6.4136220E-05;  0.0000000E+00; -3.2045009E-06;  9.9996881E+00;  3.9987451E-01; -3.3540510E-02;3; -3.3761770E-02;  0.0000000E+00;  5.7009677E-03;  0.0000000E+00;  0.0000000E+00;  0.0000000E+00;0;  1.5714446E-04;  1.0005650E+02;  0.0000000E+00; -1.4260893E-04;  1.0000000E+02;  0.0000000E+00;  1.0000000E+02;  1.5734586E-04;  0.0000000E+00; -2.0139896E-07;  0.0000000E+00;
 -4.4391520E-04;  9.9999998E-03;  1.0000579E+00;175; -8.2488281E-05;  0.0000000E+00;  4.5245811E-06;  9.9996824E+00;  3.9990798E-01; -3.4181822E-02;3; -2.4466909E-02;  0.0000000E+00;  9.5897671E-03;  0.0000000E+00;  0.0000000E+00;  0.0000000E+00;0;  1.3882577E-04;  1.0003924E+02;  0.0000000E+00; -1.9805702E-04;  1.0000000E+02;  0.0000000E+00;  1.0000087E+02;  1.3197250E-04;  0.0000000E+00;  6.8532718E-06;  0.0000000E+00;
  1.9931263E-01;  9.9999998E-03;  5.0870582E-11;181; -3.9013750E-05;  0.0000000E+00;  2.9968428E-10;  9.9988518E+00;  3.9984816E-01; -1.2351495E-01;3; -4.1624349E-02;  0.0000000E+00;  2.8786911E-08;  0.0000000E+00;  0.0000000E+00;  0.0000000E+00;0;  4.7777966E-04;  1.0005318E+02;  0.0000000E+00;  3.5330691E-17;  1.0000000E+02;  0.0000000E+00;  9.9999908E+01;  4.9579324E-04;  0.0000000E+00; -1.8013568E-05;  0.0000000E+00;
  1.9931889E-01;  9.9999998E-03;  2.0000681E-01;182; -4.2796073E-05;  0.0000000E+00; -7.5868988E-06;  9.9988031E+00;  3.9985844E-01; -1.2877364E-01;3; -4.0348977E-02;  0.0000000E+00;  9.5021114E-04;  0.0000000E+00;  0.0000000E+00;  0.0000000E+00;0;  4.8148065E-04;  1.0004756E+02;  0.0000000E+00; -1.8540484E-05;  1.0000000E+02;  0.0000000E+00;  1.0000008E+02;  4.9872173E-04;  0.0000000E+00; -1.7241076E-05;  0.0000000E+00;
  1.9933733E-01;  9.9999998E-03;  4.0000907E-01;183; -5.3595286E-05;  0.0000000E+00; -1.5780144E-05;  9.9987555E+00;  3.9988315E-01; -1.3390405E-01;3; -3.7301417E-02;  0.0000000E+00;  3.5746237E-03;  0.0000000E+00;  0.0000000E+00;  0.0000000E+00;0;  4.8645731E-04;  1.0003326E+02;  0.0000000E+00; -1.2089311E-04;  1.0000000E+02;  0.0000000E+00;  1.0000044E+02;  5.0102884E-04;  0.0000000E+00; -1.4571542E-05;  0.0000000E+00;
  1.9936702E-01;  9.9999998E-03;  6.0000432E-01;184; -6.9358422E-05;  0.0000000E+00; -2.4491075E-05;  9.9986620E+00;  3.9991391E-01; -1.4397252E-01;3; -3.1938758E-02;  0.0000000E+00;  8.3551500E-03;  0.0000000E+00;  0.0000000E+00;  0.0000000E+00;0;  4.7881374E-04;  1.0001604E+02;  0.0000000E+00; -3.5238909E-04;  1.0000000E+02;  0.0000000E+00;  1.0000060E+02;  4.8822752E-04;  0.0000000E+00; -9.4137686E-06;  0.0000000E+00;
  1.9940551E-01;  9.9999998E-03;  7.9999274E-01;185; -8.9432040E-05;  0.0000000E+00; -3.3323329E-05;  9.9987040E+00;  3.9994404E-01; -1.3941927E-01;3; -2.5678415E-02;  0.0000000E+00;  1.4829430E-02;  0.0000000E+00;  0.0000000E+00;  0.0000000E+00;0;  4.4646527E-04;  1.0000188E+02;  0.0000000E+00; -6.3730060E-04;  1.0000000E+02;  0.0000000E+00;  9.9999870E+01;  4.4853630E-04;  0.0000000E+00; -2.0710249E-06;  0.0000000E+00;
  1.9945125E-01;  9.9999998E-03;  9.9997908E-01;186; -1.1472722E-04;  0.0000000E+00; -4.2819978E-05;  9.9988661E+00;  3.9996511E-01; -1.2197582E-01;3; -1.9454919E-02;  0.0000000E+00;  2.1224754E-02;  0.0000000E+00;  0.0000000E+00;  0.0000000E+00;0;  3.8268307E-04;  9.9994347E+01;  0.0000000E+00; -7.8647299E-04;  1.0000000E+02;  0.0000000E+00;  1.0000108E+02;  3.7796219E-04;  0.0000000E+00;  4.7208614E-06;  0.0000000E+00;
  3.9918020E-01;  9.9999998E-03;  8.1631236E-11;192; -5.2741769E-05;  0.0000000E+00;  5.4546057E-10;  9.9975739E+00;  4.0001062E-01; -2.6100394E-01;3; -7.2062157E-02;  0.0000000E+00;  3.8460314E-08;  0.0000000E+00;  0.0000000E+00;  0.0000000E+00;0;  1.0196795E-03;  9.9946785E+01;  0.0000000E+00; -1.1633222E-16;  1.0000000E+02;  0.0000000E+00;  1.0000000E+02;  1.0343229E-03;  0.0000000E+00; -1.4643458E-05;  0.0000000E+00;
  3.9918867E-01;  9.9999998E-03;  1.9999553E-01;193; -5.6735924E-05;  0.0000000E+00; -9.2816390E-06;  9.9975300E+00;  4.0002173E-01; -2.6574948E-01;3; -7.1010888E-02;  0.0000000E+00;  1.3335003E-02;  0.0000000E+00;  0.0000000E+00;  0.0000000E+00;0;  1.0260197E-03;  9.9940132E+01;  0.0000000E+00; -9.2473303E-05;  1.0000000E+02;  0.0000000E+00;  1.0000001E+02;  1.0406737E-03;  0.0000000E+00; -1.4654011E-05;  0.0000000E+00;
  3.9921564E-01;  9.9999998E-03;  3.9998826E-01;194; -6.7146153E-05;  0.0000000E+00; -1.9708907E-05;  9.9974785E+00;  4.0004918E-01; -2.7126455E-01;3; -6.8069242E-02;  0.0000000E+00;  3.1569269E-02;  0.0000000E+00;  0.0000000E+00;  0.0000000E+00;0;  1.0339734E-03;  9.9924225E+01;  0.0000000E+00; -4.6159193E-04;  1.0000000E+02;  0.0000000E+00;  1.0000016E+02;  1.0478445E-03;  0.0000000E+00; -1.3871129E-05;  0.0000000E+00;
  3.9926228E-01;  9.9999998E-03;  5.9997541E-01;195; -8.1884595E-05;  0.0000000E+00; -3.3149914E-05;  9.9974289E+00;  4.0007973E-01; -2.7665135E-01;3; -6.3241944E-02;  0.0000000E+00;  5.6894377E-02;  0.0000000E+00;  0.0000000E+00;  0.0000000E+00;0;  1.0179810E-03;  9.9908379E+01;  0.0000000E+00; -1.1074846E-03;  1.0000000E+02;  0.0000000E+00;  1.0000090E+02;  1.0287793E-03;  0.0000000E+00; -1.0798317E-05;  0.0000000E+00;
  3.9932913E-01;  9.9999998E-03;  7.9995900E-01;196; -9.7088378E-05;  0.0000000E+00; -4.8755959E-05;  9.9975348E+00;  4.0009812E-01; -2.6523644E-01;3; -5.7519052E-02;  0.0000000E+00;  8.6296357E-02;  0.0000000E+00;  0.0000000E+00;  0.0000000E+00;0;  9.5378276E-04;  9.9901733E+01;  0.0000000E+00; -1.6879366E-03;  1.0000000E+02;  0.0000000E+00;  9.9999763E+01;  9.5898786E-04;  0.0000000E+00; -5.2050909E-06;  0.0000000E+00;
  3.9943153E-01;  9.9999998E-03;  9.9996471E-01;197; -1.0452847E-04;  0.0000000E+00; -5.9311791E-05;  9.9978485E+00;  4.0009493E-01; -2.3150472E-01;3; -5.1352967E-02;  0.0000000E+00;  1.1041718E-01;  0.0000000E+00;  0.0000000E+00;  0.0000000E+00;0;  8.2803587E-04;  9.9908989E+01;  0.0000000E+00; -1.7588214E-03;  1.0000000E+02;  0.0000000E+00;  1.0000108E+02;  8.2763797E-04;  0.0000000E+00;  3.9789666E-07;  0.0000000E+00;
  5.9908575E-01;  9.9999998E-03;  8.6084494E-11;203; -5.3240849E-05;  0.0000000E+00;  7.9948470E-10;  9.9964151E+00;  4.0027434E-01; -3.8564932E-01;3; -3.8151994E-02;  0.0000000E+00;  5.8068022E-09;  0.0000000E+00;  0.0000000E+00;  0.0000000E+00;0;  1.7643311E-03;  9.9792320E+01;  0.0000000E+00; -8.2830944E-16;  1.0000000E+02;  0.0000000E+00;  9.9999237E+01;  1.7696741E-03;  0.0000000E+00; -5.3429403E-06;  0.0000000E+00;
  5.9909743E-01;  9.9999998E-03;  1.9998719E-01;204; -5.6671641E-05;  0.0000000E+00; -7.6157348E-06;  9.9963770E+00;  4.0028912E-01; -3.8975334E-01;3; -3.7905362E-02;  0.0000000E+00;  1.4993403E-02;  0.0000000E+00;  0.0000000E+00;  0.0000000E+00;0;  1.7788094E-03;  9.9784073E+01;  0.0000000E+00; -2.7215618E-04;  1.0000000E+02;  0.0000000E+00;  9.9999344E+01;  1.7854039E-03;  0.0000000E+00; -6.5945878E-06;  0.0000000E+00;
  5.9913725E-01;  9.9999998E-03;  3.9997354E-01;205; -6.5639855E-05;  0.0000000E+00; -1.8240511E-05;  9.9962664E+00;  4.0032226E-01; -4.0168065E-01;3; -3.7111398E-02;  0.0000000E+00;  3.5422388E-02;  0.0000000E+00;  0.0000000E+00;  0.0000000E+00;0;  1.8025887E-03;  9.9764915E+01;  0.0000000E+00; -1.1633408E-03;  1.0000000E+02;  0.0000000E+00;  1.0000000E+02;  1.8115437E-03;  0.0000000E+00; -8.9549858E-06;  0.0000000E+00;
  5.9920979E-01;  9.9999998E-03;  5.9995747E-01;206; -7.9583850E-05;  0.0000000E+00; -3.5597564E-05;  9.9962482E+00;  4.0035200E-01; -4.0360442E-01;3; -3.7286103E-02;  0.0000000E+00;  6.5177239E-02;  0.0000000E+00;  0.0000000E+00;  0.0000000E+00;0;  1.7919565E-03;  9.9748703E+01;  0.0000000E+00; -2.3278338E-03;  1.0000000E+02;  0.0000000E+00;  1.0000030E+02;  1.8020794E-03;  0.0000000E+00; -1.0122891E-05;  0.0000000E+00;
  5.9931576E-01;  9.9999998E-03;  7.9994208E-01;207; -9.4375944E-05;  0.0000000E+00; -6.1366976E-05;  9.9963646E+00;  4.0035671E-01; -3.9109993E-01;3; -3.9802104E-02;  0.0000000E+00;  1.0150939E-01;  0.0000000E+00;  0.0000000E+00;  0.0000000E+00;0;  1.7047765E-03;  9.9749191E+01;  0.0000000E+00; -2.7017777E-03;  1.0000000E+02;  0.0000000E+00;  1.0000080E+02;  1.7149245E-03;  0.0000000E+00; -1.0147942E-05;  0.0000000E+00;
  5.9950149E-01;  9.9999998E-03;  9.9997181E-01;208; -7.7730459E-05;  0.0000000E+00; -8.2780112E-05;  9.9967575E+00;  4.0032753E-01; -3.4884140E-01;3; -4.2330734E-02;  0.0000000E+00;  1.2870334E-01;  0.0000000E+00;  0.0000000E+00;  0.0000000E+00;0;  1.5152963E-03;  9.9770966E+01;  0.0000000E+00; -1.7309061E-03;  1.0000000E+02;  0.0000000E+00;  1.0000175E+02;  1.5265630E-03;  0.0000000E+00; -1.1266689E-05;  0.0000000E+00;
  7.9902840E-01;  9.9999998E-03;  4.6206997E-11;214; -3.6716559E-05;  0.0000000E+00;  1.2013065E-09;  9.9955139E+00;  4.0064415E-01; -4.8254862E-01;3; -1.6198762E-02;  0.0000000E+00;  2.7682503E-08;  0.0000000E+00;  0.0000000E+00;  0.0000000E+00;0;  2.6569923E-03;  9.9591476E+01;  0.0000000E+00; -3.5575106E-16;  1.0000000E+02;  0.0000000E+00;  9.9998116E+01;  2.6494223E-03;  0.0000000E+00;  7.5699609E-06;  0.0000000E+00;
  7.9904807E-01;  9.9999998E-03;  1.9998604E-01;215; -3.6569974E-05;  0.0000000E+00; -1.8951372E-06;  9.9954634E+00;  4.0066311E-01; -4.8799860E-01;3; -1.6517315E-02;  0.0000000E+00;  1.4506121E-02;  0.0000000E+00;  0.0000000E+00;  0.0000000E+00;0;  2.6833143E-03;  9.9581146E+01;  0.0000000E+00; -5.5895490E-04;  1.0000000E+02;  0.0000000E+00;  9.9997932E+01;  2.6781559E-03;  0.0000000E+00;  5.1582838E-06;  0.0000000E+00;
  7.9911703E-01;  9.9999998E-03;  3.9997295E-01;216; -4.1768049E-05;  0.0000000E+00; -8.2850247E-06;  9.9953537E+00;  4.0070575E-01; -4.9979624E-01;3; -1.7966187E-02;  0.0000000E+00;  3.4747910E-02;  0.0000000E+00;  0.0000000E+00;  0.0000000E+00;0;  2.7349691E-03;  9.9557854E+01;  0.0000000E+00; -2.1315163E-03;  1.0000000E+02;  0.0000000E+00;  9.9997360E+01;  2.7349014E-03;  0.0000000E+00;  6.7731207E-08;  0.0000000E+00;
  7.9926366E-01;  9.9999998E-03;  5.9997070E-01;217; -6.6289824E-05;  0.0000000E+00; -2.3423454E-05;  9.9952888E+00;  4.0073964E-01; -5.0678492E-01;3; -2.3212971E-02;  0.0000000E+00;  6.5503560E-02;  0.0000000E+00;  0.0000000E+00;  0.0000000E+00;0;  2.7461878E-03;  9.9538612E+01;  0.0000000E+00; -3.4263711E-03;  1.0000000E+02;  0.0000000E+00;  9.9997978E+01;  2.7511837E-03;  0.0000000E+00; -4.9957980E-06;  0.0000000E+00;
  7.9947311E-01;  9.9999998E-03;  7.9998916E-01;218; -7.7747813E-05;  0.0000000E+00; -4.8731988E-05;  9.9954386E+00;  4.0074164E-01; -4.9069139E-01;3; -3.0048726E-02;  0.0000000E+00;  1.0155597E-01;  0.0000000E+00;  0.0000000E+00;  0.0000000E+00;0;  2.6563301E-03;  9.9539848E+01;  0.0000000E+00; -2.0396807E-03;  1.0000000E+02;  0.0000000E+00;  9.9998962E+01;  2.6682732E-03;  0.0000000E+00; -1.1943033E-05;  0.0000000E+00;
  7.9982531E-01;  9.9999998E-03;  1.0000131E+00;219;  1.7824916E-04;  0.0000000E+00; -4.2336069E-05;  9.9956589E+00;  4.0070516E-01; -4.6696776E-01;3; -2.2686981E-02;  0.0000000E+00;  1.2407831E-01;  0.0000000E+00;  0.0000000E+00;  0.0000000E+00;0;  2.5085711E-03;  9.9562195E+01;  0.0000000E+00;  1.9114276E-03;  1.0000000E+02;  0.0000000E+00;  9.9999542E+01;  2.5224774E-03;  0.0000000E+00; -1.3906363E-05;  0.0000000E+00;
  9.9903655E-01;  9.9999998E-03; -2.6863786E-10;225;  2.8961719E-04;  0.0000000E+00;  3.0997267E-09;  9.9948854E+00;  4.0114519E-01; -5.5004555E-01;3; -3.2221696E-03;  0.0000000E+00;  1.1039671E-07;  0.0000000E+00;  0.0000000E+00;  0.0000000E+00;0;  3.6892623E-03;  9.9331093E+01;  0.0000000E+00;  2.8633684E-16;  1.0000000E+02;  0.0000000E+00;  9.9996223E+01;  3.6708110E-03;  0.0000000E+00;  1.8451452E-05;  0.0000000E+00;
  9.9915344E-01;  9.9999998E-03;  2.0001310E-01;226;  6.2563660E-04;  0.0000000E+00;  9.3965136E-05;  9.9948244E+00;  4.0116623E-01; -5.5658364E-01;3; -3.5892671E-03;  0.0000000E+00;  1.2775525E-02;  0.0000000E+00;  0.0000000E+00;  0.0000000E+00;0;  3.7336391E-03;  9.9320732E+01;  0.0000000E+00; -8.5692568E-04;  1.0000000E+02;  0.0000000E+00;  9.9995224E+01;  3.7128886E-03;  0.0000000E+00;  2.0750556E-05;  0.0000000E+00;
  1.0000926E+00;  9.9999998E-03;  4.0005106E-01;227;  2.2131316E-03;  0.0000000E+00;  7.7172226E-05;  9.9945707E+00;  4.0122831E-01; -5.8388937E-01;3; -8.1011485E-03;  0.0000000E+00;  2.8716005E-02;  0.0000000E+00;  0.0000000E+00;  0.0000000E+00;0;  3.9137327E-03;  9.9288231E+01;  0.0000000E+00; -3.5277081E-03;  1.0000000E+02;  0.0000000E+00;  9.9993141E+01;  3.8924038E-03;  0.0000000E+00;  2.1328873E-05;  0.0000000E+00;
  1.0009927E+00;  9.9999998E-03;  6.0009378E-01;228;  1.6477047E-03;  0.0000000E+00;  2.3916258E-05;  9.9943304E+00;  4.0132323E-01; -6.0972065E-01;3; -2.5712267E-02;  0.0000000E+00;  5.1398829E-02;  0.0000000E+00;  0.0000000E+00;  0.0000000E+00;0;  4.0364657E-03;  9.9239716E+01;  0.0000000E+00; -7.0012347E-03;  1.0000000E+02;  0.0000000E+00;  9.9988808E+01;  4.0216139E-03;  0.0000000E+00;  1.4851911E-05;  0.0000000E+00;
  1.0005788E+00;  9.9999998E-03;  8.0004030E-01;229; -2.5056432E-05;  0.0000000E+00; -2.3309117E-06;  9.9947033E+00;  4.0133438E-01; -5.6959450E-01;3; -2.8883711E-02;  0.0000000E+00;  8.4760636E-02;  0.0000000E+00;  0.0000000E+00;  0.0000000E+00;0;  3.7335423E-03;  9.9237793E+01;  0.0000000E+00; -2.3759382E-03;  1.0000000E+02;  0.0000000E+00;  9.9993141E+01;  3.7285853E-03;  0.0000000E+00;  4.9570408E-06;  0.0000000E+00;
  1.0013674E+00;  9.9999998E-03;  1.0000837E+00;230;  2.7093932E-03;  0.0000000E+00;  1.1702300E-04;  9.9934835E+00;  4.0137824E-01; -7.0080650E-01;3; -3.4219179E-02;  0.0000000E+00;  9.5283404E-02;  0.0000000E+00;  0.0000000E+00;  0.0000000E+00;0;  4.7375113E-03;  9.9193993E+01;  0.0000000E+00;  5.1694398E-04;  1.0000000E+02;  0.0000000E+00;  9.9992760E+01;  4.6808147E-03;  0.0000000E+00;  5.6696394E-05;  0.0000000E+00;
  1.1997709E+00;  9.9999998E-03; -9.5147235E-10;236;  2.0425613E-03;  0.0000000E+00;  2.4538886E-09;  9.9943151E+00;  4.0183643E-01; -6.1102563E-01;3;  1.3289305E-03;  0.0000000E+00;  2.2127941E-07;  0.0000000E+00;  0.0000000E+00;  0.0000000E+00;0;  4.9875886E-03;  9.8980057E+01;  0.0000000E+00;  8.3597848E-16;  1.0000000E+02;  0.0000000E+00;  9.9995064E+01;  4.9663638E-03;  0.0000000E+00;  2.1224972E-05;  0.0000000E+00;
  1.2003052E+00;  9.9999998E-03;  2.0000549E-01;237;  2.7656488E-03;  0.0000000E+00;  1.5458891E-04;  9.9942465E+00;  4.0185633E-01; -6.1839134E-01;3;  1.1607397E-03;  0.0000000E+00;  8.7434230E-03;  0.0000000E+00;  0.0000000E+00;  0.0000000E+00;0;  5.0567873E-03;  9.8970818E+01;  0.0000000E+00; -1.1086513E-03;  1.0000000E+02;  0.0000000E+00;  9.9992546E+01;  5.0236206E-03;  0.0000000E+00;  3.3166714E-05;  0.0000000E+00;
  1.2014371E+00;  9.9999998E-03;  4.0010187E-01;238;  3.1094283E-03;  0.0000000E+00;  1.3455398E-04;  9.9940538E+00;  4.0192562E-01; -6.3908023E-01;3; -6.1884024E-03;  0.0000000E+00;  1.8919425E-02;  0.0000000E+00;  0.0000000E+00;  0.0000000E+00;0;  5.2300906E-03;  9.8940208E+01;  0.0000000E+00; -4.9332082E-03;  1.0000000E+02;  0.0000000E+00;  9.9985260E+01;  5.1806839E-03;  0.0000000E+00;  4.9406641E-05;  0.0000000E+00;
  1.2021121E+00;  9.9999998E-03;  6.0010219E-01;239;  2.2274202E-03;  0.0000000E+00;  8.4142613E-08;  9.9939051E+00;  4.0202239E-01; -6.5509385E-01;3; -2.5285305E-02;  0.0000000E+00;  3.5310939E-02;  0.0000000E+00;  0.0000000E+00;  0.0000000E+00;0;  5.3191967E-03;  9.8895569E+01;  0.0000000E+00; -9.8956237E-03;  1.0000000E+02;  0.0000000E+00;  9.9980141E+01;  5.2912408E-03;  0.0000000E+00;  2.7955899E-05;  0.0000000E+00;
  1.2015876E+00;  9.9999998E-03;  8.0003279E-01;240;  2.1924211E-03;  0.0000000E+00;  9.4083262E-05;  9.9938211E+00;  4.0200600E-01; -6.6406387E-01;3; -2.2720028E-02;  0.0000000E+00;  5.8836430E-02;  0.0000000E+00;  0.0000000E+00;  0.0000000E+00;0;  5.4954393E-03;  9.8893898E+01;  0.0000000E+00; -2.6511415E-03;  1.0000000E+02;  0.0000000E+00;  9.9987480E+01;  5.4168026E-03;  0.0000000E+00;  7.8636658E-05;  0.0000000E+00;
  1.2025591E+00;  9.9999998E-03;  1.0001254E+00;241;  3.9679371E-03;  0.0000000E+00;  1.1622263E-04;  9.9928398E+00;  4.0211666E-01; -7.6957029E-01;3; -5.8340240E-02;  0.0000000E+00;  5.3601682E-02;  0.0000000E+00;  0.0000000E+00;  0.0000000E+00;0;  6.3334233E-03;  9.8827995E+01;  0.0000000E+00; -2.0076351E-03;  1.0000000E+02;  0.0000000E+00;  9.9981056E+01;  6.2416946E-03;  0.0000000E+00;  9.1728667E-05;  0.0000000E+00;
  1.4007658E+00;  9.9999998E-03; -7.4891621E-10;247;  2.6483117E-03;  0.0000000E+00;  3.0715468E-09;  9.9936399E+00;  4.0279719E-01; -6.8264347E-01;3;  7.7149115E-04;  0.0000000E+00;  3.1707830E-07;  0.0000000E+00;  0.0000000E+00;  0.0000000E+00;0;  6.7977956E-03;  9.8500023E+01;  0.0000000E+00;  2.1882863E-15;  1.0000000E+02;  0.0000000E+00;  9.9989861E+01;  6.7769876E-03;  0.0000000E+00;  2.0808195E-05;  0.0000000E+00;
  1.4011441E+00;  9.9999998E-03;  1.9996411E-01;248;  3.0397808E-03;  0.0000000E+00;  8.8589353E-05;  9.9936094E+00;  4.0280294E-01; -6.8596780E-01;3;  1.0868624E-04;  0.0000000E+00;  5.8133197E-03;  0.0000000E+00;  0.0000000E+00;  0.0000000E+00;0;  6.8342164E-03;  9.8498428E+01;  0.0000000E+00; -1.0015547E-03;  1.0000000E+02;  0.0000000E+00;  9.9987701E+01;  6.7981593E-03;  0.0000000E+00;  3.6057045E-05;  0.0000000E+00;
  1.4020824E+00;  9.9999998E-03;  4.0003905E-01;249;  3.3794488E-03;  0.0000000E+00;  8.4550040E-05;  9.9935427E+00;  4.0283698E-01; -6.9312716E-01;3; -3.6655292E-03;  0.0000000E+00;  1.1789754E-02;  0.0000000E+00;  0.0000000E+00;  0.0000000E+00;0;  6.9286525E-03;  9.8490265E+01;  0.0000000E+00; -4.4515361E-03;  1.0000000E+02;  0.0000000E+00;  9.9978165E+01;  6.8623512E-03;  0.0000000E+00;  6.6301174E-05;  0.0000000E+00;
  1.4028156E+00;  9.9999998E-03;  6.0002828E-01;250;  3.1419736E-03;  0.0000000E+00; -5.1701394E-05;  9.9935379E+00;  4.0287450E-01; -6.9363409E-01;3; -1.4753383E-02;  0.0000000E+00;  2.2358319E-02;  0.0000000E+00;  0.0000000E+00;  0.0000000E+00;0;  6.9445334E-03;  9.8475815E+01;  0.0000000E+00; -8.9414548E-03;  1.0000000E+02;  0.0000000E+00;  9.9973907E+01;  6.9085145E-03;  0.0000000E+00;  3.6019068E-05;  0.0000000E+00;
  1.4026871E+00;  9.9999998E-03;  8.0002850E-01;251;  3.6393877E-03;  0.0000000E+00;  6.3934247E-05;  9.9934139E+00;  4.0283540E-01; -7.0694208E-01;3; -1.9909089E-02;  0.0000000E+00;  3.5029083E-02;  0.0000000E+00;  0.0000000E+00;  0.0000000E+00;0;  7.1253143E-03;  9.8488495E+01;  0.0000000E+00; -2.7858312E-03;  1.0000000E+02;  0.0000000E+00;  9.9978966E+01;  7.0194937E-03;  0.0000000E+00;  1.0582041E-04;  0.0000000E+00;
  1.4036835E+00;  9.9999998E-03;  1.0001214E+00;252;  4.5854333E-03;  0.0000000E+00;  8.8839312E-05;  9.9930973E+00;  4.0288332E-01; -7.4090660E-01;3; -4.7919918E-02;  0.0000000E+00;  3.6874715E-02;  0.0000000E+00;  0.0000000E+00;  0.0000000E+00;0;  7.4361609E-03;  9.8462303E+01;  0.0000000E+00; -2.4695292E-03;  1.0000000E+02;  0.0000000E+00;  9.9975929E+01;  7.3351827E-03;  0.0000000E+00;  1.0097832E-04;  0.0000000E+00;
  1.6015242E+00;  9.9999998E-03; -1.8100053E-10;258;  2.9308484E-03;  0.0000000E+00;  1.6022680E-09;  9.9927750E+00;  4.0408474E-01; -7.7331221E-01;3;  6.5684516E-04;  0.0000000E+00;  3.2910958E-07;  0.0000000E+00;  0.0000000E+00;  0.0000000E+00;0;  9.3589155E-03;  9.7871155E+01;  0.0000000E+00;  5.2406132E-15;  1.0000000E+02;  0.0000000E+00;  9.9974373E+01;  9.3141701E-03;  0.0000000E+00;  4.4745346E-05;  0.0000000E+00;
  1.6017903E+00;  9.9999998E-03;  1.9991678E-01;259;  3.1231332E-03;  0.0000000E+00; -3.4530207E-05;  9.9927988E+00;  4.0407223E-01; -7.7075624E-01;3;  1.4171939E-04;  0.0000000E+00;  2.5564886E-03;  0.0000000E+00;  0.0000000E+00;  0.0000000E+00;0;  9.3322275E-03;  9.7880394E+01;  0.0000000E+00; -5.8620208E-04;  1.0000000E+02;  0.0000000E+00;  9.9971924E+01;  9.2768371E-03;  0.0000000E+00;  5.5390523E-05;  0.0000000E+00;
  1.6026268E+00;  9.9999998E-03;  3.9991871E-01;260;  3.5897878E-03;  0.0000000E+00; -4.9506434E-05;  9.9928637E+00;  4.0403885E-01; -7.6378959E-01;3; -1.9635851E-03;  0.0000000E+00;  5.8781919E-03;  0.0000000E+00;  0.0000000E+00;  0.0000000E+00;0;  9.2601329E-03;  9.7904381E+01;  0.0000000E+00; -2.5839868E-03;  1.0000000E+02;  0.0000000E+00;  9.9964928E+01;  9.1787316E-03;  0.0000000E+00;  8.1401638E-05;  0.0000000E+00;
  1.6036801E+00;  9.9999998E-03;  5.9994411E-01;261;  3.9300979E-03;  0.0000000E+00; -9.4934658E-05;  9.9930019E+00;  4.0398428E-01; -7.4897337E-01;3; -7.8414856E-03;  0.0000000E+00;  1.1589428E-02;  0.0000000E+00;  0.0000000E+00;  0.0000000E+00;0;  9.0870271E-03;  9.7935074E+01;  0.0000000E+00; -5.4219007E-03;  1.0000000E+02;  0.0000000E+00;  9.9963203E+01;  9.0198470E-03;  0.0000000E+00;  6.7179863E-05;  0.0000000E+00;
  1.6041070E+00;  9.9999998E-03;  8.0003846E-01;262;  4.9310308E-03;  0.0000000E+00;  3.8493008E-06;  9.9930887E+00;  4.0388125E-01; -7.3965335E-01;3; -1.4355993E-02;  0.0000000E+00;  1.7632212E-02;  0.0000000E+00;  0.0000000E+00;  0.0000000E+00;0;  8.9867041E-03;  9.7985077E+01;  0.0000000E+00; -2.4609705E-03;  1.0000000E+02;  0.0000000E+00;  9.9965515E+01;  8.8862292E-03;  0.0000000E+00;  1.0047482E-04;  0.0000000E+00;
  1.6051441E+00;  9.9999998E-03;  1.0001675E+00;263;  5.9192618E-03;  0.0000000E+00;  7.8983612E-05;  9.9931326E+00;  4.0380237E-01; -7.3498076E-01;3; -3.2099910E-02;  0.0000000E+00;  2.0776721E-02;  0.0000000E+00;  0.0000000E+00;  0.0000000E+00;0;  8.9424644E-03;  9.8025421E+01;  0.0000000E+00; -2.8072230E-03;  1.0000000E+02;  0.0000000E+00;  9.9965416E+01;  8.8407453E-03;  0.0000000E+00;  1.0171917E-04;  0.0000000E+00;
  1.8024708E+00;  9.9999998E-03;  4.5779816E-10;269;  3.4197771E-03;  0.0000000E+00; -2.8507992E-09;  9.9918737E+00;  4.0567267E-01; -8.6446172E-01;3;  5.9329899E-04;  0.0000000E+00;  3.1238883E-07;  0.0000000E+00;  0.0000000E+00;  0.0000000E+00;0;  1.2591643E-02;  9.7127487E+01;  0.0000000E+00;  1.5799868E-14;  1.0000000E+02;  0.0000000E+00;  9.9935188E+01;  1.2448156E-02;  0.0000000E+00;  1.4348702E-04;  0.0000000E+00;
  1.8026986E+00;  9.9999998E-03;  1.9986498E-01;270;  3.6241200E-03;  0.0000000E+00; -1.0628373E-04;  9.9919395E+00;  4.0563530E-01; -8.5741550E-01;3;  4.7222780E-05;  0.0000000E+00;  6.9373148E-04;  0.0000000E+00;  0.0000000E+00;  0.0000000E+00;0;  1.2494338E-02;  9.7148483E+01;  0.0000000E+00; -1.9697074E-04;  1.0000000E+02;  0.0000000E+00;  9.9933746E+01;  1.2342695E-02;  0.0000000E+00;  1.5164282E-04;  0.0000000E+00;
  1.8035945E+00;  9.9999998E-03;  3.9977005E-01;271;  4.4333762E-03;  0.0000000E+00; -2.0037201E-04;  9.9921350E+00;  4.0551934E-01; -8.3658665E-01;3; -2.8479259E-04;  0.0000000E+00;  2.2198404E-03;  0.0000000E+00;  0.0000000E+00;  0.0000000E+00;0;  1.2206384E-02;  9.7205818E+01;  0.0000000E+00; -8.7843492E-04;  1.0000000E+02;  0.0000000E+00;  9.9936043E+01;  1.2058125E-02;  0.0000000E+00;  1.4825941E-04;  0.0000000E+00;
  1.8054234E+00;  9.9999998E-03;  5.9987307E-01;272;  5.7627838E-03;  0.0000000E+00; -1.2098169E-04;  9.9923983E+00;  4.0536049E-01; -8.0856264E-01;3; -3.1067487E-03;  0.0000000E+00;  5.3395573E-03;  0.0000000E+00;  0.0000000E+00;  0.0000000E+00;0;  1.1824208E-02;  9.7282036E+01;  0.0000000E+00; -2.7117203E-03;  1.0000000E+02;  0.0000000E+00;  9.9940285E+01;  1.1669491E-02;  0.0000000E+00;  1.5471665E-04;  0.0000000E+00;
  1.8062408E+00;  9.9999998E-03;  8.0008304E-01;273;  6.2956326E-03;  0.0000000E+00;  2.5288111E-05;  9.9927244E+00;  4.0516719E-01; -7.7379376E-01;3; -4.3523959E-03;  0.0000000E+00;  9.0741972E-03;  0.0000000E+00;  0.0000000E+00;  0.0000000E+00;0;  1.1335568E-02;  9.7378731E+01;  0.0000000E+00; -2.7002953E-03;  1.0000000E+02;  0.0000000E+00;  9.9943275E+01;  1.1160849E-02;  0.0000000E+00;  1.7471936E-04;  0.0000000E+00;
  1.8073452E+00;  9.9999998E-03;  1.0003005E+00;274;  7.7085271E-03;  0.0000000E+00;  1.3564575E-04;  9.9929762E+00;  4.0496263E-01; -7.4700534E-01;3; -2.1341974E-02;  0.0000000E+00;  1.1350538E-02;  0.0000000E+00;  0.0000000E+00;  0.0000000E+00;0;  1.0898711E-02;  9.7481781E+01;  0.0000000E+00; -4.6955659E-03;  1.0000000E+02;  0.0000000E+00;  9.9943184E+01;  1.0756986E-02;  0.0000000E+00;  1.4172489E-04;  0.0000000E+00;
  2.0049558E+00;  9.9999998E-03;  1.7826925E-09;280;  5.2274577E-03;  0.0000000E+00; -9.2292236E-09;  9.9912624E+00;  4.0739587E-01; -9.1796160E-01;3;  5.6289171E-04;  0.0000000E+00; -2.5815413E-07;  0.0000000E+00;  0.0000000E+00;  0.0000000E+00;0;  1.6053198E-02;  9.6370987E+01;  0.0000000E+00;  1.4117098E-14;  1.0000000E+02;  0.0000000E+00;  9.9857780E+01;  1.5671877E-02;  0.0000000E+00;  3.8132013E-04;  0.0000000E+00;
  2.0051808E+00;  9.9999998E-03;  1.9983181E-01;281;  5.4472494E-03;  0.0000000E+00; -1.5940153E-04;  9.9913559E+00;  4.0733448E-01; -9.0811300E-01;3;  4.2589559E-04;  0.0000000E+00;  6.6090673E-05;  0.0000000E+00;  0.0000000E+00;  0.0000000E+00;0;  1.5886525E-02;  9.6401833E+01;  0.0000000E+00; -3.9838680E-05;  1.0000000E+02;  0.0000000E+00;  9.9857750E+01;  1.5501939E-02;  0.0000000E+00;  3.8458515E-04;  0.0000000E+00;
  2.0063393E+00;  9.9999998E-03;  3.9967576E-01;282;  6.5522888E-03;  0.0000000E+00; -3.0780287E-04;  9.9916401E+00;  4.0713996E-01; -8.7822092E-01;3;  2.6659720E-04;  0.0000000E+00;  5.0305104E-04;  0.0000000E+00;  0.0000000E+00;  0.0000000E+00;0;  1.5385658E-02;  9.6486015E+01;  0.0000000E+00; -2.6022608E-04;  1.0000000E+02;  0.0000000E+00;  9.9870918E+01;  1.5042068E-02;  0.0000000E+00;  3.4358946E-04;  0.0000000E+00;
  2.0090311E+00;  9.9999998E-03;  5.9985685E-01;283;  9.7016506E-03;  0.0000000E+00; -1.4719463E-04;  9.9919891E+00;  4.0687373E-01; -8.4133887E-01;3;  2.3492149E-03;  0.0000000E+00;  2.0129641E-03;  0.0000000E+00;  0.0000000E+00;  0.0000000E+00;0;  1.4749615E-02;  9.6601143E+01;  0.0000000E+00; -1.6787997E-03;  1.0000000E+02;  0.0000000E+00;  9.9891151E+01;  1.4434079E-02;  0.0000000E+00;  3.1553701E-04;  0.0000000E+00;
  2.0112622E+00;  9.9999998E-03;  8.0025971E-01;284;  1.0415518E-02;  0.0000000E+00;  9.7163538E-05;  9.9923878E+00;  4.0663031E-01; -7.9930866E-01;3; -1.6237692E-03;  0.0000000E+00;  3.6564837E-03;  0.0000000E+00;  0.0000000E+00;  0.0000000E+00;0;  1.4048552E-02;  9.6722771E+01;  0.0000000E+00; -6.9689080E-03;  1.0000000E+02;  0.0000000E+00;  9.9890961E+01;  1.3743133E-02;  0.0000000E+00;  3.0541857E-04;  0.0000000E+00;
  2.0103638E+00;  9.9999998E-03;  1.0006025E+00;285;  8.3440961E-03;  0.0000000E+00;  3.1511777E-04;  9.9928598E+00;  4.0633127E-01; -7.4979621E-01;3; -4.7755153E-03;  0.0000000E+00;  4.3266141E-03;  0.0000000E+00;  0.0000000E+00;  0.0000000E+00;0;  1.3149743E-02;  9.6875259E+01;  0.0000000E+00; -4.8722439E-03;  1.0000000E+02;  0.0000000E+00;  9.9891327E+01;  1.2861043E-02;  0.0000000E+00;  2.8869958E-04;  0.0000000E+00;
  2.2129438E+00;  9.9999998E-03;  4.5719165E-10;291;  1.2921620E-02;  0.0000000E+00; -3.5226824E-09;  9.9911680E+00;  4.0900958E-01; -9.0656567E-01;3;  2.9888698E-03;  0.0000000E+00;  4.7586889E-07;  0.0000000E+00;  0.0000000E+00;  0.0000000E+00;0;  1.9115448E-02;  9.5733131E+01;  0.0000000E+00;  7.7106104E-15;  1.0000000E+02;  0.0000000E+00;  9.9728470E+01;  1.8284008E-02;  0.0000000E+00;  8.3144003E-04;  0.0000000E+00;
  2.2129483E+00;  9.9999998E-03;  1.9984850E-01;292;  1.2937595E-02;  0.0000000E+00; -1.8153548E-04;  9.9912653E+00;  4.0893474E-01; -8.9653158E-01;3;  3.2019028E-03;  0.0000000E+00; -7.0897979E-05;  0.0000000E+00;  0.0000000E+00;  0.0000000E+00;0;  1.8906267E-02;  9.5767899E+01;  0.0000000E+00;  3.9106690E-06;  1.0000000E+02;  0.0000000E+00;  9.9730316E+01;  1.8080560E-02;  0.0000000E+00;  8.2570757E-04;  0.0000000E+00;
  2.2130251E+00;  9.9999998E-03;  3.9972648E-01;293;  1.2993651E-02;  0.0000000E+00; -3.2925571E-04;  9.9915476E+00;  4.0869865E-01; -8.6758399E-01;3;  3.6437698E-03;  0.0000000E+00; -5.5601482E-05;  0.0000000E+00;  0.0000000E+00;  0.0000000E+00;0;  1.8266233E-02;  9.5863350E+01;  0.0000000E+00; -7.5956195E-05;  1.0000000E+02;  0.0000000E+00;  9.9753250E+01;  1.7526310E-02;  0.0000000E+00;  7.3992187E-04;  0.0000000E+00;
  2.2134652E+00;  9.9999998E-03;  6.0008800E-01;294;  1.3187587E-02;  0.0000000E+00; -2.0307190E-05;  9.9919310E+00;  4.0837061E-01; -8.2819396E-01;3;  3.8310878E-03;  0.0000000E+00;  1.7607462E-04;  0.0000000E+00;  0.0000000E+00;  0.0000000E+00;0;  1.7452326E-02;  9.5996910E+01;  0.0000000E+00; -4.8676584E-04;  1.0000000E+02;  0.0000000E+00;  9.9780777E+01;  1.6766468E-02;  0.0000000E+00;  6.8585819E-04;  0.0000000E+00;
  2.2144332E+00;  9.9999998E-03;  8.0068207E-01;295;  1.3707028E-02;  0.0000000E+00;  3.3009512E-04;  9.9923143E+00;  4.0808126E-01; -7.8868836E-01;3;  3.2426997E-03;  0.0000000E+00;  8.4845372E-04;  0.0000000E+00;  0.0000000E+00;  0.0000000E+00;0;  1.6595099E-02;  9.6140442E+01;  0.0000000E+00; -1.7486847E-03;  1.0000000E+02;  0.0000000E+00;  9.9781456E+01;  1.5976164E-02;  0.0000000E+00;  6.1893405E-04;  0.0000000E+00;
  2.2157497E+00;  9.9999998E-03;  1.0011780E+00;296;  1.4051697E-02;  0.0000000E+00;  6.9415342E-04;  9.9926472E+00;  4.0781105E-01; -7.5441569E-01;3;  3.9168473E-04;  0.0000000E+00;  8.3502557E-04;  0.0000000E+00;  0.0000000E+00;  0.0000000E+00;0;  1.5898069E-02;  9.6272621E+01;  0.0000000E+00; -4.7337622E-03;  1.0000000E+02;  0.0000000E+00;  9.9783134E+01;  1.5267858E-02;  0.0000000E+00;  6.3021103E-04;  0.0000000E+00;
  2.4218261E+00;  9.9999998E-03; -1.2973987E-09;302;  2.1968737E-02;  0.0000000E+00; -1.4302349E-08;  9.9914970E+00;  4.1039053E-01; -8.4276313E-01;3;  8.1598032E-03;  0.0000000E+00;  5.6462397E-07;  0.0000000E+00;  0.0000000E+00;  0.0000000E+00;0;  2.1388663E-02;  9.5276031E+01;  0.0000000E+00;  8.3253737E-17;  1.0000000E+02;  0.0000000E+00;  9.9540405E+01;  1.9858958E-02;  0.0000000E+00;  1.5297055E-03;  0.0000000E+00;
  2.4213009E+00;  9.9999998E-03;  1.9994704E-01;303;  2.1227952E-02;  0.0000000E+00; -1.1556500E-04;  9.9915628E+00;  4.1032574E-01; -8.3628798E-01;3;  7.6221796E-03;  0.0000000E+00; -8.3855251E-05;  0.0000000E+00;  0.0000000E+00;  0.0000000E+00;0;  2.1217357E-02;  9.5302551E+01;  0.0000000E+00;  7.2541557E-06;  1.0000000E+02;  0.0000000E+00;  9.9545158E+01;  1.9702449E-02;  0.0000000E+00;  1.5149083E-03;  0.0000000E+00;
  2.4199264E+00;  9.9999998E-03;  3.9997604E-01;304;  1.9304452E-02;  0.0000000E+00; -1.4677118E-04;  9.9917612E+00;  4.1011488E-01; -8.1682378E-01;3;  6.3641132E-03;  0.0000000E+00; -1.4918808E-04;  0.0000000E+00;  0.0000000E+00;  0.0000000E+00;0;  2.0679690E-02;  9.5374969E+01;  0.0000000E+00;  2.5416202E-05;  1.0000000E+02;  0.0000000E+00;  9.9575890E+01;  1.9277649E-02;  0.0000000E+00;  1.4020409E-03;  0.0000000E+00;
  2.4181907E+00;  9.9999998E-03;  6.0071176E-01;305;  1.6803352E-02;  0.0000000E+00;  2.0403146E-04;  9.9920177E+00;  4.0988714E-01; -7.9166901E-01;3;  4.5411708E-03;  0.0000000E+00; -1.7000445E-03;  0.0000000E+00;  0.0000000E+00;  0.0000000E+00;0;  1.9924317E-02;  9.5476059E+01;  0.0000000E+00; -7.5951571E-06;  1.0000000E+02;  0.0000000E+00;  9.9587189E+01;  1.8695863E-02;  0.0000000E+00;  1.2284537E-03;  0.0000000E+00;
  2.4169347E+00;  9.9999998E-03;  8.0146122E-01;306;  1.4885219E-02;  0.0000000E+00;  8.1944378E-04;  9.9922771E+00;  4.0965742E-01; -7.6613343E-01;3;  3.0272331E-03;  0.0000000E+00;  1.6148719E-03;  0.0000000E+00;  0.0000000E+00;  0.0000000E+00;0;  1.9310774E-02;  9.5585602E+01;  0.0000000E+00; -8.6484462E-05;  1.0000000E+02;  0.0000000E+00;  9.9589752E+01;  1.8088816E-02;  0.0000000E+00;  1.2219590E-03;  0.0000000E+00;
  2.4162824E+00;  9.9999998E-03;  1.0021195E+00;307;  1.4034019E-02;  0.0000000E+00;  1.3433499E-03;  9.9924688E+00;  4.0944308E-01; -7.4718481E-01;3;  2.5644551E-03;  0.0000000E+00;  1.4929174E-04;  0.0000000E+00;  0.0000000E+00;  0.0000000E+00;0;  1.8815855E-02;  9.5686218E+01;  0.0000000E+00;  6.6749933E-05;  1.0000000E+02;  0.0000000E+00;  9.9593224E+01;  1.7553328E-02;  0.0000000E+00;  1.2625277E-03;  0.0000000E+00;
  2.6267087E+00;  9.9999998E-03; -2.2009385E-09;313;  2.5722273E-02;  0.0000000E+00; -2.1912454E-08;  9.9918308E+00;  4.1173714E-01; -7.7919966E-01;3;  8.9374967E-03;  0.0000000E+00;  5.7590898E-07;  0.0000000E+00;  0.0000000E+00;  0.0000000E+00;0;  2.3510933E-02;  9.4888641E+01;  0.0000000E+00;  4.8723516E-15;  1.0000000E+02;  0.0000000E+00;  9.9300949E+01;  2.1067787E-02;  0.0000000E+00;  2.4431455E-03;  0.0000000E+00;
  2.6260643E+00;  9.9999998E-03;  2.0008095E-01;314;  2.4798999E-02;  0.0000000E+00; -4.7997593E-05;  9.9918556E+00;  4.1170168E-01; -7.7690083E-01;3;  8.2173562E-03;  0.0000000E+00; -4.4504333E-05;  0.0000000E+00;  0.0000000E+00;  0.0000000E+00;0;  2.3431331E-02;  9.4896378E+01;  0.0000000E+00;  2.1016060E-06;  1.0000000E+02;  0.0000000E+00;  9.9310364E+01;  2.1021208E-02;  0.0000000E+00;  2.4101229E-03;  0.0000000E+00;
  2.6243951E+00;  9.9999998E-03;  4.0070692E-01;315;  2.2443227E-02;  0.0000000E+00;  6.2894297E-04;  9.9918861E+00;  4.1162226E-01; -7.7423078E-01;3;  6.4190393E-03;  0.0000000E+00;  1.6989735E-03;  0.0000000E+00;  0.0000000E+00;  0.0000000E+00;0;  2.3339456E-02;  9.4918694E+01;  0.0000000E+00;  1.4333791E-05;  1.0000000E+02;  0.0000000E+00;  9.9325211E+01;  2.0891644E-02;  0.0000000E+00;  2.4478112E-03;  0.0000000E+00;
  2.6223912E+00;  9.9999998E-03;  6.0173380E-01;316;  1.9655736E-02;  0.0000000E+00;  1.1891950E-03;  9.9919233E+00;  4.1157916E-01; -7.7092272E-01;3;  4.3012244E-03;  0.0000000E+00; -1.3096947E-03;  0.0000000E+00;  0.0000000E+00;  0.0000000E+00;0;  2.3149548E-02;  9.4951019E+01;  0.0000000E+00;  2.8344204E-05;  1.0000000E+02;  0.0000000E+00;  9.9313995E+01;  2.0709969E-02;  0.0000000E+00;  2.4395783E-03;  0.0000000E+00;
  2.6208107E+00;  9.9999998E-03;  8.0261582E-01;317;  1.7502233E-02;  0.0000000E+00;  1.7452181E-03;  9.9919748E+00;  4.1150931E-01; -7.6624590E-01;3;  2.8492543E-03;  0.0000000E+00; -4.1845138E-03;  0.0000000E+00;  0.0000000E+00;  0.0000000E+00;0;  2.2875540E-02;  9.4986839E+01;  0.0000000E+00; -1.7853455E-06;  1.0000000E+02;  0.0000000E+00;  9.9311447E+01;  2.0519421E-02;  0.0000000E+00;  2.3561190E-03;  0.0000000E+00;
  2.6193485E+00;  9.9999998E-03;  1.0034429E+00;318;  1.5852015E-02;  0.0000000E+00;  2.3425804E-03;  9.9920769E+00;  4.1143388E-01; -7.5671184E-01;3;  2.0203984E-03;  0.0000000E+00;  3.9188689E-04;  0.0000000E+00;  0.0000000E+00;  0.0000000E+00;0;  2.2663919E-02;  9.5019890E+01;  0.0000000E+00;  6.9499649E-05;  1.0000000E+02;  0.0000000E+00;  9.9315285E+01;  2.0355875E-02;  0.0000000E+00;  2.3080453E-03;  0.0000000E+00;
  2.8296657E+00;  9.9999998E-03; -2.1789757E-09;324;  2.7013306E-02;  0.0000000E+00; -2.3811808E-08;  9.9918861E+00;  4.1337484E-01; -7.5026792E-01;3;  7.1219597E-03;  0.0000000E+00;  5.0809257E-07;  0.0000000E+00;  0.0000000E+00;  0.0000000E+00;0;  2.6369318E-02;  9.4400871E+01;  0.0000000E+00;  1.2885628E-14;  1.0000000E+02;  0.0000000E+00;  9.9025902E+01;  2.2855403E-02;  0.0000000E+00;  3.5139159E-03;  0.0000000E+00;
  2.8292115E+00;  9.9999998E-03;  2.0083971E-01;325;  2.6295988E-02;  0.0000000E+00; -3.2336159E-06;  9.9918852E+00;  4.1339937E-01; -7.5036556E-01;3;  6.5099872E-03;  0.0000000E+00; -3.6712011E-04;  0.0000000E+00;  0.0000000E+00;  0.0000000E+00;0;  2.6364792E-02;  9.4389671E+01;  0.0000000E+00;  9.5764117E-06;  1.0000000E+02;  0.0000000E+00;  9.9025742E+01;  2.2917610E-02;  0.0000000E+00;  3.4471822E-03;  0.0000000E+00;
  2.8281074E+00;  9.9999998E-03;  4.0184078E-01;326;  2.4615254E-02;  0.0000000E+00;  1.1350203E-03;  9.9918118E+00;  4.1347244E-01; -7.5730461E-01;3;  5.1898155E-03;  0.0000000E+00;  1.7091954E-03;  0.0000000E+00;  0.0000000E+00;  0.0000000E+00;0;  2.6592875E-02;  9.4360336E+01;  0.0000000E+00;  3.4079261E-05;  1.0000000E+02;  0.0000000E+00;  9.9020119E+01;  2.3084968E-02;  0.0000000E+00;  3.5079066E-03;  0.0000000E+00;
  2.8268948E+00;  9.9999998E-03;  6.0291106E-01;327;  2.2857137E-02;  0.0000000E+00;  2.1948016E-03;  9.9916821E+00;  4.1358364E-01; -7.6938355E-01;3;  4.0279473E-03;  0.0000000E+00;  1.5157177E-03;  0.0000000E+00;  0.0000000E+00;  0.0000000E+00;0;  2.7029522E-02;  9.4321274E+01;  0.0000000E+00;  3.6592719E-05;  1.0000000E+02;  0.0000000E+00;  9.9005379E+01;  2.3312891E-02;  0.0000000E+00;  3.7166311E-03;  0.0000000E+00;
  2.8259366E+00;  9.9999998E-03;  8.0395275E-01;328;  2.1556130E-02;  0.0000000E+00;  2.9665334E-03;  9.9915667E+00;  4.1369206E-01; -7.8017336E-01;3;  3.3532546E-03;  0.0000000E+00; -2.3131392E-05;  0.0000000E+00;  0.0000000E+00;  0.0000000E+00;0;  2.7375806E-02;  9.4280907E+01;  0.0000000E+00; -4.9483038E-05;  1.0000000E+02;  0.0000000E+00;  9.8994225E+01;  2.3555489E-02;  0.0000000E+00;  3.8203171E-03;  0.0000000E+00;
  2.8248937E+00;  9.9999998E-03;  1.0049969E+00;329;  2.0501444E-02;  0.0000000E+00;  3.6399241E-03;  9.9915257E+00;  4.1377991E-01; -7.8408104E-01;3;  3.0084054E-03;  0.0000000E+00;  1.2712847E-03;  0.0000000E+00;  0.0000000E+00;  0.0000000E+00;0;  2.7494865E-02;  9.4245651E+01;  0.0000000E+00; -1.0051946E-04;  1.0000000E+02;  0.0000000E+00;  9.8988075E+01;  2.3773413E-02;  0.0000000E+00;  3.7214521E-03;  0.0000000E+00;
  3.0333200E+00;  9.9999998E-03; -1.5736958E-09;335;  2.9417317E-02;  0.0000000E+00; -1.8798476E-08;  9.9916439E+00;  4.1545922E-01; -7.5762820E-01;3;  5.8959886E-03;  0.0000000E+00;  4.6907508E-07;  0.0000000E+00;  0.0000000E+00;  0.0000000E+00;0;  3.0270761E-02;  9.3723503E+01;  0.0000000E+00;  1.7416512E-14;  1.0000000E+02;  0.0000000E+00;  9.8738762E+01;  2.5606122E-02;  0.0000000E+00;  4.6646385E-03;  0.0000000E+00;
  3.0331783E+00;  9.9999998E-03;  2.0172094E-01;336;  2.9085763E-02;  0.0000000E+00;  9.6530956E-04;  9.9916029E+00;  4.1553408E-01; -7.6136482E-01;3;  5.5744890E-03;  0.0000000E+00; -4.8792321E-04;  0.0000000E+00;  0.0000000E+00;  0.0000000E+00;0;  3.0414550E-02;  9.3700630E+01;  0.0000000E+00;  2.1783606E-05;  1.0000000E+02;  0.0000000E+00;  9.8726692E+01;  2.5738243E-02;  0.0000000E+00;  4.6763071E-03;  0.0000000E+00;
  3.0328403E+00;  9.9999998E-03;  4.0285191E-01;337;  2.8320050E-02;  0.0000000E+00;  1.7285134E-03;  9.9915133E+00;  4.1569006E-01; -7.6948971E-01;3;  4.9299663E-03;  0.0000000E+00; -1.0721501E-04;  0.0000000E+00;  0.0000000E+00;  0.0000000E+00;0;  3.0732499E-02;  9.3638771E+01;  0.0000000E+00;  7.0667091E-05;  1.0000000E+02;  0.0000000E+00;  9.8714813E+01;  2.6093645E-02;  0.0000000E+00;  4.6388549E-03;  0.0000000E+00;
  3.0325055E+00;  9.9999998E-03;  6.0403019E-01;338;  2.7582938E-02;  0.0000000E+00;  3.1065305E-03;  9.9913082E+00;  4.1589996E-01; -7.8809971E-01;3;  4.5186612E-03;  0.0000000E+00;  2.8571093E-03;  0.0000000E+00;  0.0000000E+00;  0.0000000E+00;0;  3.1509671E-02;  9.3554482E+01;  0.0000000E+00;  8.2948114E-05;  1.0000000E+02;  0.0000000E+00;  9.8700470E+01;  2.6580434E-02;  0.0000000E+00;  4.9292361E-03;  0.0000000E+00;
  3.0323868E+00;  9.9999998E-03;  8.0528510E-01;339;  2.7180348E-02;  0.0000000E+00;  4.0692342E-03;  9.9911203E+00;  4.1613579E-01; -8.0518496E-01;3;  4.4216583E-03;  0.0000000E+00;  1.5532405E-03;  0.0000000E+00;  0.0000000E+00;  0.0000000E+00;0;  3.2203231E-02;  9.3464821E+01;  0.0000000E+00; -8.7011686E-06;  1.0000000E+02;  0.0000000E+00;  9.8679993E+01;  2.7100718E-02;  0.0000000E+00;  5.1025120E-03;  0.0000000E+00;
  3.0321157E+00;  9.9999998E-03;  1.0065696E+00;340;  2.6882121E-02;  0.0000000E+00;  4.8902258E-03;  9.9910173E+00;  4.1634297E-01; -8.1449664E-01;3;  4.4935471E-03;  0.0000000E+00;  3.4902247E-03;  0.0000000E+00;  0.0000000E+00;  0.0000000E+00;0;  3.2559324E-02;  9.3383972E+01;  0.0000000E+00; -1.2900018E-04;  1.0000000E+02;  0.0000000E+00;  9.8665268E+01;  2.7570169E-02;  0.0000000E+00;  4.9891532E-03;  0.0000000E+00;
  3.2391231E+00;  9.9999998E-03; -1.1235284E-09;346;  3.4301315E-02;  0.0000000E+00; -1.1644783E-08;  9.9912663E+00;  4.1789314E-01; -7.8362536E-01;3;  6.4003482E-03;  0.0000000E+00;  3.6131186E-07;  0.0000000E+00;  0.0000000E+00;  0.0000000E+00;0;  3.4828424E-02;  9.2887375E+01;  0.0000000E+00;  8.7407230E-16;  1.0000000E+02;  0.0000000E+00;  9.8462288E+01;  2.9035456E-02;  0.0000000E+00;  5.7929661E-03;  0.0000000E+00;
  3.2392499E+00;  9.9999998E-03;  2.0213571E-01;347;  3.4276605E-02;  0.0000000E+00;  1.6371091E-03;  9.9912176E+00;  4.1797549E-01; -7.8795373E-01;3;  6.2943459E-03;  0.0000000E+00; -1.5774881E-04;  0.0000000E+00;  0.0000000E+00;  0.0000000E+00;0;  3.5020582E-02;  9.2862427E+01;  0.0000000E+00;  4.0556301E-05;  1.0000000E+02;  0.0000000E+00;  9.8449226E+01;  2.9181324E-02;  0.0000000E+00;  5.8392575E-03;  0.0000000E+00;
  3.2395415E+00;  9.9999998E-03;  4.0362254E-01;348;  3.4182943E-02;  0.0000000E+00;  2.5123723E-03;  9.9911203E+00;  4.1816112E-01; -7.9671615E-01;3;  6.0182870E-03;  0.0000000E+00; -1.5162556E-03;  0.0000000E+00;  0.0000000E+00;  0.0000000E+00;0;  3.5378784E-02;  9.2794601E+01;  0.0000000E+00;  1.4323722E-04;  1.0000000E+02;  0.0000000E+00;  9.8432152E+01;  2.9572507E-02;  0.0000000E+00;  5.8062756E-03;  0.0000000E+00;
  3.2399256E+00;  9.9999998E-03;  6.0498589E-01;349;  3.4140345E-02;  0.0000000E+00;  3.8920401E-03;  9.9909554E+00;  4.1838664E-01; -8.1146520E-01;3;  5.8331089E-03;  0.0000000E+00;  3.3497305E-03;  0.0000000E+00;  0.0000000E+00;  0.0000000E+00;0;  3.6119685E-02;  9.2701614E+01;  0.0000000E+00;  2.4223729E-04;  1.0000000E+02;  0.0000000E+00;  9.8421097E+01;  3.0106839E-02;  0.0000000E+00;  6.0128449E-03;  0.0000000E+00;
  3.2404730E+00;  9.9999998E-03;  8.0648130E-01;350;  3.4313969E-02;  0.0000000E+00;  5.0684251E-03;  9.9907560E+00;  4.1865197E-01; -8.2936436E-01;3;  5.8302116E-03;  0.0000000E+00;  2.2249282E-03;  0.0000000E+00;  0.0000000E+00;  0.0000000E+00;0;  3.6917340E-02;  9.2602211E+01;  0.0000000E+00;  2.5495968E-04;  1.0000000E+02;  0.0000000E+00;  9.8398071E+01;  3.0675715E-02;  0.0000000E+00;  6.2416266E-03;  0.0000000E+00;
  3.2408617E+00;  9.9999998E-03;  1.0080168E+00;351;  3.4534555E-02;  0.0000000E+00;  5.9868675E-03;  9.9906616E+00;  4.1889194E-01; -8.3780223E-01;3;  5.9487745E-03;  0.0000000E+00;  2.6535129E-03;  0.0000000E+00;  0.0000000E+00;  0.0000000E+00;0;  3.7211191E-02;  9.2512283E+01;  0.0000000E+00;  1.2321820E-04;  1.0000000E+02;  0.0000000E+00;  9.8379402E+01;  3.1189756E-02;  0.0000000E+00;  6.0214330E-03;  0.0000000E+00;
  3.4471545E+00;  9.9999998E-03; -2.0140050E-09;357;  4.1158751E-02;  0.0000000E+00; -4.6769357E-09;  9.9909229E+00;  4.2041710E-01; -8.1031734E-01;3;  8.1126569E-03;  0.0000000E+00;  2.5378407E-07;  0.0000000E+00;  0.0000000E+00;  0.0000000E+00;0;  3.9246470E-02;  9.2004623E+01;  0.0000000E+00; -3.9279904E-15;  1.0000000E+02;  0.0000000E+00;  9.8210640E+01;  3.2445252E-02;  0.0000000E+00;  6.8012169E-03;  0.0000000E+00;
  3.4474545E+00;  9.9999998E-03;  2.0228888E-01;358;  4.1317776E-02;  0.0000000E+00;  2.0482785E-03;  9.9908848E+00;  4.2048341E-01; -8.1371880E-01;3;  8.1019942E-03;  0.0000000E+00;  2.9044844E-05;  0.0000000E+00;  0.0000000E+00;  0.0000000E+00;0;  3.9414532E-02;  9.1984573E+01;  0.0000000E+00;  5.4386848E-05;  1.0000000E+02;  0.0000000E+00;  9.8200760E+01;  3.2559894E-02;  0.0000000E+00;  6.8546403E-03;  0.0000000E+00;
  3.4481566E+00;  9.9999998E-03;  4.0412885E-01;359;  4.1628912E-02;  0.0000000E+00;  3.3090024E-03;  9.9908085E+00;  4.2064124E-01; -8.2052028E-01;3;  7.9480531E-03;  0.0000000E+00; -1.9976227E-03;  0.0000000E+00;  0.0000000E+00;  0.0000000E+00;0;  3.9750516E-02;  9.1930092E+01;  0.0000000E+00;  2.0818406E-04;  1.0000000E+02;  0.0000000E+00;  9.8183540E+01;  3.2865919E-02;  0.0000000E+00;  6.8845986E-03;  0.0000000E+00;
  3.4489849E+00;  9.9999998E-03;  6.0574758E-01;360;  4.1958522E-02;  0.0000000E+00;  4.4554803E-03;  9.9907274E+00;  4.2082211E-01; -8.2774568E-01;3;  7.6719089E-03;  0.0000000E+00;  2.9779624E-03;  0.0000000E+00;  0.0000000E+00;  0.0000000E+00;0;  4.0149022E-02;  9.1855934E+01;  0.0000000E+00;  4.1103296E-04;  1.0000000E+02;  0.0000000E+00;  9.8177223E+01;  3.3278376E-02;  0.0000000E+00;  6.8706446E-03;  0.0000000E+00;
  3.4499149E+00;  9.9999998E-03;  8.0749333E-01;361;  4.2381842E-02;  0.0000000E+00;  5.8266683E-03;  9.9905815E+00;  4.2103460E-01; -8.4076899E-01;3;  7.4129696E-03;  0.0000000E+00;  2.3940627E-03;  0.0000000E+00;  0.0000000E+00;  0.0000000E+00;0;  4.0790465E-02;  9.1777748E+01;  0.0000000E+00;  5.3370604E-04;  1.0000000E+02;  0.0000000E+00;  9.8158394E+01;  3.3710483E-02;  0.0000000E+00;  7.0799808E-03;  0.0000000E+00;
  3.4506695E+00;  9.9999998E-03;  1.0092734E+00;362;  4.2800289E-02;  0.0000000E+00;  6.8904702E-03;  9.9905214E+00;  4.2122760E-01; -8.4607965E-01;3;  7.2648632E-03;  0.0000000E+00;  6.6551601E-04;  0.0000000E+00;  0.0000000E+00;  0.0000000E+00;0;  4.0912110E-02;  9.1708176E+01;  0.0000000E+00;  3.4735358E-04;  1.0000000E+02;  0.0000000E+00;  9.8141869E+01;  3.4094911E-02;  0.0000000E+00;  6.8171979E-03;  0.0000000E+00;
  3.6568706E+00;  9.9999998E-03; -1.4090150E-09;368;  4.9090311E-02;  0.0000000E+00;  2.7582669E-09;  9.9907150E+00;  4.2278433E-01; -8.2697988E-01;3;  1.0453960E-02;  0.0000000E+00;  1.6431645E-07;  0.0000000E+00;  0.0000000E+00;  0.0000000E+00;0;  4.2871412E-02;  9.1180260E+01;  0.0000000E+00; -6.0393521E-15;  1.0000000E+02;  0.0000000E+00;  9.7987450E+01;  3.5242379E-02;  0.0000000E+00;  7.6290322E-03;  0.0000000E+00;
  3.6572604E+00;  9.9999998E-03;  2.0209812E-01;369;  4.9344875E-02;  0.0000000E+00;  2.0555535E-03;  9.9906950E+00;  4.2281714E-01; -8.2872945E-01;3;  1.0469832E-02;  0.0000000E+00;  4.7436897E-05;  0.0000000E+00;  0.0000000E+00;  0.0000000E+00;0;  4.2960726E-02;  9.1165855E+01;  0.0000000E+00;  4.3803091E-05;  1.0000000E+02;  0.0000000E+00;  9.7987350E+01;  3.5310347E-02;  0.0000000E+00;  7.6503786E-03;  0.0000000E+00;
  3.6581292E+00;  9.9999998E-03;  4.0436086E-01;370;  4.9834214E-02;  0.0000000E+00;  3.8293446E-03;  9.9906368E+00;  4.2293069E-01; -8.3392680E-01;3;  1.0294517E-02;  0.0000000E+00; -1.3087292E-03;  0.0000000E+00;  0.0000000E+00;  0.0000000E+00;0;  4.3221038E-02;  9.1128403E+01;  0.0000000E+00;  1.8532290E-04;  1.0000000E+02;  0.0000000E+00;  9.7974083E+01;  3.5486951E-02;  0.0000000E+00;  7.7340873E-03;  0.0000000E+00;
  3.6590819E+00;  9.9999998E-03;  6.0633624E-01;371;  5.0276451E-02;  0.0000000E+00;  4.7556888E-03;  9.9906521E+00;  4.2305541E-01; -8.3254099E-01;3;  9.8136803E-03;  0.0000000E+00;  2.2482746E-03;  0.0000000E+00;  0.0000000E+00;  0.0000000E+00;0;  4.3178730E-02;  9.1079819E+01;  0.0000000E+00;  4.0313255E-04;  1.0000000E+02;  0.0000000E+00;  9.7969170E+01;  3.5714459E-02;  0.0000000E+00;  7.4642724E-03;  0.0000000E+00;
  3.6600931E+00;  9.9999998E-03;  8.0834305E-01;372;  5.0720461E-02;  0.0000000E+00;  6.3336352E-03;  9.9905672E+00;  4.2319280E-01; -8.4012616E-01;3;  9.2195878E-03;  0.0000000E+00;  2.0035615E-03;  0.0000000E+00;  0.0000000E+00;  0.0000000E+00;0;  4.3564819E-02;  9.1030838E+01;  0.0000000E+00;  5.4992409E-04;  1.0000000E+02;  0.0000000E+00;  9.7956955E+01;  3.5942238E-02;  0.0000000E+00;  7.6225796E-03;  0.0000000E+00;
  3.6609213E+00;  9.9999998E-03;  1.0103556E+00;373;  5.1106326E-02;  0.0000000E+00;  7.5769885E-03;  9.9905443E+00;  4.2331561E-01; -8.4213859E-01;3;  8.7157246E-03;  0.0000000E+00; -1.5622509E-03;  0.0000000E+00;  0.0000000E+00;  0.0000000E+00;0;  4.3508131E-02;  9.0988579E+01;  0.0000000E+00;  3.2935108E-04;  1.0000000E+02;  0.0000000E+00;  9.7944977E+01;  3.6136296E-02;  0.0000000E+00;  7.3718363E-03;  0.0000000E+00;
  3.8677092E+00;  9.9999998E-03; -1.1536739E-10;379;  5.7514161E-02;  0.0000000E+00;  9.3883443E-09;  9.9905901E+00;  4.2493811E-01; -8.3722311E-01;3;  1.3140036E-02;  0.0000000E+00;  8.8720469E-08;  0.0000000E+00;  0.0000000E+00;  0.0000000E+00;0;  4.5591902E-02;  9.0439926E+01;  0.0000000E+00; -3.2883515E-15;  1.0000000E+02;  0.0000000E+00;  9.7788589E+01;  3.7324380E-02;  0.0000000E+00;  8.2675219E-03;  0.0000000E+00;
  3.8680813E+00;  9.9999998E-03;  2.0163588E-01;380;  5.7743959E-02;  0.0000000E+00;  1.7719970E-03;  9.9905910E+00;  4.2492911E-01; -8.3716905E-01;3;  1.3098573E-02;  0.0000000E+00;  1.4456378E-04;  0.0000000E+00;  0.0000000E+00;  0.0000000E+00;0;  4.5581784E-02;  9.0429199E+01;  0.0000000E+00;  2.0520527E-05;  1.0000000E+02;  0.0000000E+00;  9.7804298E+01;  3.7350405E-02;  0.0000000E+00;  8.2313791E-03;  0.0000000E+00;
  3.8688154E+00;  9.9999998E-03;  4.0445727E-01;381;  5.8143288E-02;  0.0000000E+00;  3.9106715E-03;  9.9905634E+00;  4.2501342E-01; -8.3960670E-01;3;  1.2793126E-02;  0.0000000E+00;  2.5322457E-04;  0.0000000E+00;  0.0000000E+00;  0.0000000E+00;0;  4.5701332E-02;  9.0401627E+01;  0.0000000E+00;  1.0351896E-04;  1.0000000E+02;  0.0000000E+00;  9.7794922E+01;  3.7413467E-02;  0.0000000E+00;  8.2878638E-03;  0.0000000E+00;
  3.8695691E+00;  9.9999998E-03;  6.0685068E-01;382;  5.8467373E-02;  0.0000000E+00;  4.9399622E-03;  9.9906292E+00;  4.2511389E-01; -8.3377123E-01;3;  1.2135046E-02;  0.0000000E+00;  1.3869832E-03;  0.0000000E+00;  0.0000000E+00;  0.0000000E+00;0;  4.5390245E-02;  9.0367737E+01;  0.0000000E+00;  2.5851911E-04;  1.0000000E+02;  0.0000000E+00;  9.7786629E+01;  3.7485212E-02;  0.0000000E+00;  7.9050334E-03;  0.0000000E+00;
  3.8703597E+00;  9.9999998E-03;  8.0910754E-01;383;  5.8769789E-02;  0.0000000E+00;  6.6998065E-03;  9.9905939E+00;  4.2520800E-01; -8.3689809E-01;3;  1.1362880E-02;  0.0000000E+00;  1.3202626E-03;  0.0000000E+00;  0.0000000E+00;  0.0000000E+00;0;  4.5565553E-02;  9.0334778E+01;  0.0000000E+00;  3.8604232E-04;  1.0000000E+02;  0.0000000E+00;  9.7778069E+01;  3.7548095E-02;  0.0000000E+00;  8.0174590E-03;  0.0000000E+00;
  3.8710234E+00;  9.9999998E-03;  1.0113313E+00;384;  5.9003480E-02;  0.0000000E+00;  8.1070168E-03;  9.9905882E+00;  4.2530027E-01; -8.3737373E-01;3;  1.0662111E-02;  0.0000000E+00; -3.6089865E-03;  0.0000000E+00;  0.0000000E+00;  0.0000000E+00;0;  4.5393772E-02;  9.0304825E+01;  0.0000000E+00;  2.7002196E-04;  1.0000000E+02;  0.0000000E+00;  9.7768181E+01;  3.7599236E-02;  0.0000000E+00;  7.7945371E-03;  0.0000000E+00;
  4.0792313E+00;  9.9999998E-03;  1.1583431E-09;390;  6.6199876E-02;  0.0000000E+00;  1.3420499E-08;  9.9904442E+00;  4.2694634E-01; -8.4984046E-01;3;  1.6061671E-02;  0.0000000E+00;  2.2770305E-08;  0.0000000E+00;  0.0000000E+00;  0.0000000E+00;0;  4.7672343E-02;  8.9752640E+01;  0.0000000E+00;  1.0203441E-15;  1.0000000E+02;  0.0000000E+00;  9.7609528E+01;  3.8934074E-02;  0.0000000E+00;  8.7382691E-03;  0.0000000E+00;
  4.0794358E+00;  9.9999998E-03;  2.0135617E-01;391;  6.6210285E-02;  0.0000000E+00;  1.6554863E-03;  9.9904566E+00;  4.2691174E-01; -8.4872705E-01;3;  1.5785193E-02;  0.0000000E+00;  5.4520002E-04;  0.0000000E+00;  0.0000000E+00;  0.0000000E+00;0;  4.7606371E-02;  8.9741211E+01;  0.0000000E+00;  1.2138614E-05;  1.0000000E+02;  0.0000000E+00;  9.7638054E+01;  3.8936805E-02;  0.0000000E+00;  8.6695654E-03;  0.0000000E+00;
  4.0797167E+00;  9.9999998E-03;  4.0471688E-01;392;  6.6219792E-02;  0.0000000E+00;  3.7958412E-03;  9.9904633E+00;  4.2700264E-01; -8.4814364E-01;3;  1.5262916E-02;  0.0000000E+00;  1.7174241E-03;  0.0000000E+00;  0.0000000E+00;  0.0000000E+00;0;  4.7572628E-02;  8.9711746E+01;  0.0000000E+00;  6.3359541E-05;  1.0000000E+02;  0.0000000E+00;  9.7628365E+01;  3.8941506E-02;  0.0000000E+00;  8.6311204E-03;  0.0000000E+00;
  4.0799398E+00;  9.9999998E-03;  6.0743147E-01;393;  6.6156685E-02;  0.0000000E+00;  5.1934291E-03;  9.9905214E+00;  4.2712760E-01; -8.4294856E-01;3;  1.4550886E-02;  0.0000000E+00;  1.1277918E-03;  0.0000000E+00;  0.0000000E+00;  0.0000000E+00;0;  4.7263134E-02;  8.9673294E+01;  0.0000000E+00;  1.6088944E-04;  1.0000000E+02;  0.0000000E+00;  9.7614540E+01;  3.8940962E-02;  0.0000000E+00;  8.3221728E-03;  0.0000000E+00;
  4.0802255E+00;  9.9999998E-03;  8.0987418E-01;394;  6.6126764E-02;  0.0000000E+00;  7.0372014E-03;  9.9904995E+00;  4.2724332E-01; -8.4490955E-01;3;  1.3817865E-02;  0.0000000E+00;  6.1295612E-04;  0.0000000E+00;  0.0000000E+00;  0.0000000E+00;0;  4.7336850E-02;  8.9633415E+01;  0.0000000E+00;  2.3621853E-04;  1.0000000E+02;  0.0000000E+00;  9.7604233E+01;  3.8936105E-02;  0.0000000E+00;  8.4007448E-03;  0.0000000E+00;
  4.0805082E+00;  9.9999998E-03;  1.0122629E+00;395;  6.6082478E-02;  0.0000000E+00;  8.5623404E-03;  9.9904957E+00;  4.2736775E-01; -8.4528029E-01;3;  1.3161956E-02;  0.0000000E+00; -5.2373610E-03;  0.0000000E+00;  0.0000000E+00;  0.0000000E+00;0;  4.7160618E-02;  8.9592758E+01;  0.0000000E+00;  1.9154223E-04;  1.0000000E+02;  0.0000000E+00;  9.7591484E+01;  3.8941797E-02;  0.0000000E+00;  8.2188221E-03;  0.0000000E+00;
  4.2909112E+00;  9.9999998E-03;  1.3653060E-09;401;  7.4782141E-02;  0.0000000E+00;  1.3993638E-08;  9.9902096E+00;  4.2880744E-01; -8.7056035E-01;3;  1.8836895E-02;  0.0000000E+00; -3.1061116E-08;  0.0000000E+00;  0.0000000E+00;  0.0000000E+00;0;  4.9264096E-02;  8.9110794E+01;  0.0000000E+00;  4.5603119E-15;  1.0000000E+02;  0.0000000E+00;  9.7456665E+01;  4.0222924E-02;  0.0000000E+00;  9.0411725E-03;  0.0000000E+00;
  4.2907424E+00;  9.9999998E-03;  2.0182283E-01;402;  7.4404553E-02;  0.0000000E+00;  2.0956299E-03;  9.9902153E+00;  4.2878690E-01; -8.7003052E-01;3;  1.8277558E-02;  0.0000000E+00;  1.1518862E-03;  0.0000000E+00;  0.0000000E+00;  0.0000000E+00;0;  4.9230736E-02;  8.9095963E+01;  0.0000000E+00;  2.2657960E-05;  1.0000000E+02;  0.0000000E+00;  9.7482178E+01;  4.0221855E-02;  0.0000000E+00;  9.0088798E-03;  0.0000000E+00;
  4.2905273E+00;  9.9999998E-03;  4.0536559E-01;403;  7.3941484E-02;  0.0000000E+00;  3.8452861E-03;  9.9902401E+00;  4.2891878E-01; -8.6780459E-01;3;  1.7579550E-02;  0.0000000E+00;  2.3404413E-03;  0.0000000E+00;  0.0000000E+00;  0.0000000E+00;0;  4.9106173E-02;  8.9054092E+01;  0.0000000E+00;  4.5682740E-05;  1.0000000E+02;  0.0000000E+00;  9.7468506E+01;  4.0228579E-02;  0.0000000E+00;  8.8775922E-03;  0.0000000E+00;
  4.2901597E+00;  9.9999998E-03;  6.0814178E-01;404;  7.3398933E-02;  0.0000000E+00;  5.5690776E-03;  9.9902639E+00;  4.2910075E-01; -8.6568481E-01;3;  1.6943175E-02;  0.0000000E+00;  1.8566893E-03;  0.0000000E+00;  0.0000000E+00;  0.0000000E+00;0;  4.8984960E-02;  8.8995361E+01;  0.0000000E+00;  2.3171599E-05;  1.0000000E+02;  0.0000000E+00;  9.7450439E+01;  4.0244292E-02;  0.0000000E+00;  8.7406663E-03;  0.0000000E+00;
  4.2898321E+00;  9.9999998E-03;  8.1064880E-01;405;  7.2932273E-02;  0.0000000E+00;  7.3914565E-03;  9.9902334E+00;  4.2929170E-01; -8.6844093E-01;3;  1.6405603E-02;  0.0000000E+00;  6.7891367E-04;  0.0000000E+00;  0.0000000E+00;  0.0000000E+00;0;  4.9095090E-02;  8.8930649E+01;  0.0000000E+00; -8.7457141E-05;  1.0000000E+02;  0.0000000E+00;  9.7433937E+01;  4.0266685E-02;  0.0000000E+00;  8.8284053E-03;  0.0000000E+00;
  4.2896972E+00;  9.9999998E-03;  1.0131277E+00;406;  7.2542302E-02;  0.0000000E+00;  8.9710094E-03;  9.9902105E+00;  4.2948931E-01; -8.7045503E-01;3;  1.5937967E-02;  0.0000000E+00; -5.8705569E-03;  0.0000000E+00;  0.0000000E+00;  0.0000000E+00;0;  4.8998944E-02;  8.8865913E+01;  0.0000000E+00; -4.0727746E-04;  1.0000000E+02;  0.0000000E+00;  9.7415512E+01;  4.0299844E-02;  0.0000000E+00;  8.6990986E-03;  0.0000000E+00;
  4.5019560E+00;  9.9999998E-03; -1.9452666E-09;412;  8.2578823E-02;  0.0000000E+00;  9.0281276E-09;  9.9899244E+00;  4.3025506E-01; -8.9582068E-01;3;  2.0873882E-02;  0.0000000E+00; -8.7505100E-08;  0.0000000E+00;  0.0000000E+00;  0.0000000E+00;0;  5.0007064E-02;  8.8600365E+01;  0.0000000E+00;  7.5461022E-15;  1.0000000E+02;  0.0000000E+00;  9.7353661E+01;  4.0888090E-02;  0.0000000E+00;  9.1189733E-03;  0.0000000E+00;
  4.5017791E+00;  9.9999998E-03;  2.0321748E-01;413;  8.2203083E-02;  0.0000000E+00;  2.9927054E-03;  9.9899082E+00;  4.3030128E-01; -8.9725167E-01;3;  2.0431863E-02;  0.0000000E+00;  1.5297970E-03;  0.0000000E+00;  0.0000000E+00;  0.0000000E+00;0;  5.0093628E-02;  8.8581070E+01;  0.0000000E+00; -5.3459818E-05;  1.0000000E+02;  0.0000000E+00;  9.7353699E+01;  4.0903121E-02;  0.0000000E+00;  9.1905082E-03;  0.0000000E+00;
  4.5014520E+00;  9.9999998E-03;  4.0631679E-01;414;  8.1639841E-02;  0.0000000E+00;  4.2246752E-03;  9.9899244E+00;  4.3047553E-01; -8.9582086E-01;3;  1.9835562E-02;  0.0000000E+00;  1.5746935E-03;  0.0000000E+00;  0.0000000E+00;  0.0000000E+00;0;  5.0012469E-02;  8.8526299E+01;  0.0000000E+00; -2.3886839E-04;  1.0000000E+02;  0.0000000E+00;  9.7335670E+01;  4.0951472E-02;  0.0000000E+00;  9.0609957E-03;  0.0000000E+00;
  4.5011053E+00;  9.9999998E-03;  6.0884029E-01;415;  8.1062511E-02;  0.0000000E+00;  5.8671329E-03;  9.9899197E+00;  4.3070731E-01; -8.9624494E-01;3;  1.9363109E-02;  0.0000000E+00;  3.2370258E-03;  0.0000000E+00;  0.0000000E+00;  0.0000000E+00;0;  5.0036684E-02;  8.8446121E+01;  0.0000000E+00; -2.8144513E-04;  1.0000000E+02;  0.0000000E+00;  9.7318932E+01;  4.1031025E-02;  0.0000000E+00;  9.0056583E-03;  0.0000000E+00;
  4.5009661E+00;  9.9999998E-03;  8.1128222E-01;416;  8.0636375E-02;  0.0000000E+00;  7.6480550E-03;  9.9898586E+00;  4.3097493E-01; -9.0165037E-01;3;  1.9070689E-02;  0.0000000E+00;  1.6791965E-03;  0.0000000E+00;  0.0000000E+00;  0.0000000E+00;0;  5.0300062E-02;  8.8356125E+01;  0.0000000E+00; -2.0244841E-04;  1.0000000E+02;  0.0000000E+00;  9.7296524E+01;  4.1125074E-02;  0.0000000E+00;  9.1749858E-03;  0.0000000E+00;
  4.5011425E+00;  9.9999998E-03;  1.0137700E+00;417;  8.0320358E-02;  0.0000000E+00;  9.2499051E-03;  9.9898119E+00;  4.3122315E-01; -9.0583682E-01;3;  1.8864214E-02;  0.0000000E+00; -5.1667271E-03;  0.0000000E+00;  0.0000000E+00;  0.0000000E+00;0;  5.0329480E-02;  8.8274231E+01;  0.0000000E+00; -1.0358720E-03;  1.0000000E+02;  0.0000000E+00;  9.7273949E+01;  4.1196045E-02;  0.0000000E+00;  9.1334367E-03;  0.0000000E+00;
  4.7123523E+00;  9.9999998E-03; -7.2125017E-09;423;  8.9840524E-02;  0.0000000E+00; -9.0360608E-10;  9.9897079E+00;  4.3077317E-01; -9.1502571E-01;3;  2.2392893E-02;  0.0000000E+00; -1.2235068E-07;  0.0000000E+00;  0.0000000E+00;  0.0000000E+00;0;  4.9113348E-02;  8.8402252E+01;  0.0000000E+00;  8.4536675E-15;  1.0000000E+02;  0.0000000E+00;  9.7333565E+01;  4.0223327E-02;  0.0000000E+00;  8.8900225E-03;  0.0000000E+00;
  4.7127557E+00;  9.9999998E-03;  2.0486809E-01;424;  9.0042166E-02;  0.0000000E+00;  3.4877020E-03;  9.9896650E+00;  4.3090868E-01; -9.1884124E-01;3;  2.2431890E-02;  0.0000000E+00;  1.1314049E-03;  0.0000000E+00;  0.0000000E+00;  0.0000000E+00;0;  4.9307920E-02;  8.8381149E+01;  0.0000000E+00; -2.2585801E-04;  1.0000000E+02;  0.0000000E+00;  9.7294800E+01;  4.0260587E-02;  0.0000000E+00;  9.0473313E-03;  0.0000000E+00;
  4.7138190E+00;  9.9999998E-03;  4.0698022E-01;425;  9.0477750E-02;  0.0000000E+00;  4.4281315E-03;  9.9896555E+00;  4.3107852E-01; -9.1968900E-01;3;  2.2255847E-02;  0.0000000E+00;  1.2729295E-03;  0.0000000E+00;  0.0000000E+00;  0.0000000E+00;0;  4.9334079E-02;  8.8322556E+01;  0.0000000E+00; -5.3904729E-04;  1.0000000E+02;  0.0000000E+00;  9.7282616E+01;  4.0350437E-02;  0.0000000E+00;  8.9836409E-03;  0.0000000E+00;
  4.7151957E+00;  9.9999998E-03;  6.0917675E-01;426;  9.1028996E-02;  0.0000000E+00;  5.8339168E-03;  9.9896364E+00;  4.3131834E-01; -9.2138457E-01;3;  2.2071948E-02;  0.0000000E+00;  4.4243857E-03;  0.0000000E+00;  0.0000000E+00;  0.0000000E+00;0;  4.9413051E-02;  8.8236847E+01;  0.0000000E+00; -4.2759575E-04;  1.0000000E+02;  0.0000000E+00;  9.7268639E+01;  4.0473904E-02;  0.0000000E+00;  8.9391461E-03;  0.0000000E+00;
  4.7174191E+00;  9.9999998E-03;  8.1150591E-01;427;  9.2110559E-02;  0.0000000E+00;  7.5928648E-03;  9.9895411E+00;  4.3161902E-01; -9.2986321E-01;3;  2.2149976E-02;  0.0000000E+00;  2.8510019E-03;  0.0000000E+00;  0.0000000E+00;  0.0000000E+00;0;  4.9826622E-02;  8.8135323E+01;  0.0000000E+00; -4.8291674E-04;  1.0000000E+02;  0.0000000E+00;  9.7243660E+01;  4.0620245E-02;  0.0000000E+00;  9.2063760E-03;  0.0000000E+00;
  4.7195573E+00;  9.9999998E-03;  1.0139556E+00;428;  9.3070745E-02;  0.0000000E+00;  9.2687448E-03;  9.9894514E+00;  4.3188778E-01; -9.3786490E-01;3;  2.2341326E-02;  0.0000000E+00; -2.6175235E-03;  0.0000000E+00;  0.0000000E+00;  0.0000000E+00;0;  5.0086565E-02;  8.8044777E+01;  0.0000000E+00;  9.7988569E-04;  1.0000000E+02;  0.0000000E+00;  9.7220352E+01;  4.0721569E-02;  0.0000000E+00;  9.3649980E-03;  0.0000000E+00;
  4.9248304E+00;  9.9999998E-03; -1.3673354E-08;434;  9.8847471E-02;  0.0000000E+00; -1.3905560E-08;  9.9896927E+00;  4.2986387E-01; -9.1638970E-01;3;  2.4021273E-02;  0.0000000E+00; -1.4579564E-07;  0.0000000E+00;  0.0000000E+00;  0.0000000E+00;0;  4.5875944E-02;  8.8699593E+01;  0.0000000E+00;  5.3110342E-15;  1.0000000E+02;  0.0000000E+00;  9.7417320E+01;  3.7554484E-02;  0.0000000E+00;  8.3214603E-03;  0.0000000E+00;
  4.9263754E+00;  9.9999998E-03;  2.0498337E-01;435;  1.0026938E-01;  0.0000000E+00;  2.5763635E-03;  9.9896536E+00;  4.3001997E-01; -9.1983408E-01;3;  2.4821499E-02;  0.0000000E+00;  1.1437892E-03;  0.0000000E+00;  0.0000000E+00;  0.0000000E+00;0;  4.6018835E-02;  8.8681480E+01;  0.0000000E+00;  3.5442619E-04;  1.0000000E+02;  0.0000000E+00;  9.7366058E+01;  3.7599903E-02;  0.0000000E+00;  8.4189326E-03;  0.0000000E+00;
  4.9298706E+00;  9.9999998E-03;  4.0668669E-01;436;  1.0225080E-01;  0.0000000E+00;  4.3889512E-03;  9.9895649E+00;  4.3016568E-01; -9.2772967E-01;3;  2.5059685E-02;  0.0000000E+00;  3.1361838E-03;  0.0000000E+00;  0.0000000E+00;  0.0000000E+00;0;  4.6345256E-02;  8.8625237E+01;  0.0000000E+00; -1.9121855E-04;  1.0000000E+02;  0.0000000E+00;  9.7360245E+01;  3.7718136E-02;  0.0000000E+00;  8.6271185E-03;  0.0000000E+00;
  4.9345088E+00;  9.9999998E-03;  6.0884452E-01;437;  1.0445907E-01;  0.0000000E+00;  5.4432359E-03;  9.9895258E+00;  4.3044987E-01; -9.3122697E-01;3;  2.4516590E-02;  0.0000000E+00;  5.3319233E-03;  0.0000000E+00;  0.0000000E+00;  0.0000000E+00;0;  4.6443339E-02;  8.8526962E+01;  0.0000000E+00; -5.7214582E-03;  1.0000000E+02;  0.0000000E+00;  9.7339104E+01;  3.7904173E-02;  0.0000000E+00;  8.5391663E-03;  0.0000000E+00;
  4.9419169E+00;  9.9999998E-03;  8.1117672E-01;438;  1.0889141E-01;  0.0000000E+00;  7.1054175E-03;  9.9893398E+00;  4.3095818E-01; -9.4776016E-01;3;  2.4339814E-02;  0.0000000E+00;  5.0108163E-03;  0.0000000E+00;  0.0000000E+00;  0.0000000E+00;0;  4.7111236E-02;  8.8352951E+01;  0.0000000E+00; -1.3130125E-02;  1.0000000E+02;  0.0000000E+00;  9.7297668E+01;  3.8314231E-02;  0.0000000E+00;  8.7970058E-03;  0.0000000E+00;
  4.9461350E+00;  9.9999998E-03;  1.0136312E+00;439;  1.0908982E-01;  0.0000000E+00;  8.9553325E-03;  9.9891443E+00;  4.3148443E-01; -9.6514130E-01;3;  2.1658901E-02;  0.0000000E+00;  8.0677017E-04;  0.0000000E+00;  0.0000000E+00;  0.0000000E+00;0;  4.7853272E-02;  8.8174774E+01;  0.0000000E+00;  2.3827935E-02;  1.0000000E+02;  0.0000000E+00;  9.7253830E+01;  3.8536854E-02;  0.0000000E+00;  9.3164193E-03;  0.0000000E+00;
  5.1428914E+00;  9.9999998E-03; -1.2697400E-08;445;  1.1199444E-01;  0.0000000E+00; -2.2875181E-08;  9.9898529E+00;  4.2751482E-01; -9.0212888E-01;3;  2.5791243E-02;  0.0000000E+00; -1.7118873E-07;  0.0000000E+00;  0.0000000E+00;  0.0000000E+00;0;  4.0452018E-02;  8.9510727E+01;  0.0000000E+00; -1.5915478E-15;  1.0000000E+02;  0.0000000E+00;  9.7601395E+01;  3.2988511E-02;  0.0000000E+00;  7.4635092E-03;  0.0000000E+00;
  5.1464167E+00;  9.9999998E-03;  2.0369275E-01;446;  1.1573991E-01;  0.0000000E+00;  9.2971529E-04;  9.9897823E+00;  4.2772201E-01; -9.0838182E-01;3;  2.7432524E-02;  0.0000000E+00;  2.0323335E-03;  0.0000000E+00;  0.0000000E+00;  0.0000000E+00;0;  4.0658433E-02;  8.9454948E+01;  0.0000000E+00;  4.4879201E-04;  1.0000000E+02;  0.0000000E+00;  9.7566864E+01;  3.3271719E-02;  0.0000000E+00;  7.3867142E-03;  0.0000000E+00;
  5.1506948E+00;  9.9999998E-03;  4.0583286E-01;447;  1.1678052E-01;  0.0000000E+00;  3.5360812E-03;  9.9895649E+00;  4.2806447E-01; -9.2772365E-01;3;  2.6730869E-02;  0.0000000E+00;  4.0285327E-03;  0.0000000E+00;  0.0000000E+00;  0.0000000E+00;0;  4.1431863E-02;  8.9333267E+01;  0.0000000E+00; -6.1016567E-03;  1.0000000E+02;  0.0000000E+00;  9.7539505E+01;  3.3653438E-02;  0.0000000E+00;  7.7784234E-03;  0.0000000E+00;
  5.1522021E+00;  9.9999998E-03;  6.0796857E-01;448;  1.1281946E-01;  0.0000000E+00;  4.7302670E-03;  9.9895773E+00;  4.2839968E-01; -9.2661077E-01;3;  2.2601372E-02;  0.0000000E+00;  6.0094995E-03;  0.0000000E+00;  0.0000000E+00;  0.0000000E+00;0;  4.1342881E-02;  8.9220459E+01;  0.0000000E+00; -1.9042004E-02;  1.0000000E+02;  0.0000000E+00;  9.7510590E+01;  3.3512745E-02;  0.0000000E+00;  7.8301355E-03;  0.0000000E+00;
  5.1520405E+00;  9.9999998E-03;  8.1017703E-01;449;  1.1322274E-01;  0.0000000E+00;  6.3715964E-03;  9.9894409E+00;  4.2859447E-01; -9.3874586E-01;3;  2.8945101E-02;  0.0000000E+00;  1.0037901E-02;  0.0000000E+00;  0.0000000E+00;  0.0000000E+00;0;  4.2052850E-02;  8.9152679E+01;  0.0000000E+00; -1.1761207E-02;  1.0000000E+02;  0.0000000E+00;  9.7493729E+01;  3.3920731E-02;  0.0000000E+00;  8.1321187E-03;  0.0000000E+00;
  5.1506882E+00;  9.9999998E-03;  1.0125172E+00;450;  1.0899662E-01;  0.0000000E+00;  8.0999983E-03;  9.9895153E+00;  4.2871085E-01; -9.3212193E-01;3;  2.2425378E-02;  0.0000000E+00;  4.1609849E-03;  0.0000000E+00;  0.0000000E+00;  0.0000000E+00;0;  4.1717961E-02;  8.9118126E+01;  0.0000000E+00;  4.2288799E-02;  1.0000000E+02;  0.0000000E+00;  9.7480255E+01;  3.3219233E-02;  0.0000000E+00;  8.4987283E-03;  0.0000000E+00;
  5.3611546E+00;  9.9999998E-03; -3.4677370E-09;456;  1.1950394E-01;  0.0000000E+00; -2.8975363E-08;  9.9899311E+00;  4.2467186E-01; -8.9518446E-01;3;  2.0246388E-02;  0.0000000E+00; -1.9744039E-07;  0.0000000E+00;  0.0000000E+00;  0.0000000E+00;0;  3.4172870E-02;  9.0475647E+01;  0.0000000E+00; -1.0914033E-14;  1.0000000E+02;  0.0000000E+00;  9.7860092E+01;  2.7720999E-02;  0.0000000E+00;  6.4518694E-03;  0.0000000E+00;
  5.3611102E+00;  9.9999998E-03;  2.0290434E-01;457;  1.2019300E-01;  0.0000000E+00;  1.3980326E-03;  9.9898052E+00;  4.2481464E-01; -9.0636563E-01;3;  2.1176543E-02;  0.0000000E+00; -6.8239775E-04;  0.0000000E+00;  0.0000000E+00;  0.0000000E+00;0;  3.4605294E-02;  9.0448479E+01;  0.0000000E+00;  1.5107160E-04;  1.0000000E+02;  0.0000000E+00;  9.7821304E+01;  2.8042069E-02;  0.0000000E+00;  6.5632248E-03;  0.0000000E+00;
  5.3616838E+00;  9.9999998E-03;  4.0459442E-01;458;  1.1988924E-01;  0.0000000E+00;  2.9181852E-03;  9.9895926E+00;  4.2509168E-01; -9.2528361E-01;3;  1.9762093E-02;  0.0000000E+00;  5.0345301E-03;  0.0000000E+00;  0.0000000E+00;  0.0000000E+00;0;  3.5355426E-02;  9.0345825E+01;  0.0000000E+00; -5.0113797E-03;  1.0000000E+02;  0.0000000E+00;  9.7801224E+01;  2.8442739E-02;  0.0000000E+00;  6.9126883E-03;  0.0000000E+00;
  5.3608842E+00;  9.9999998E-03;  6.0663277E-01;459;  1.1858737E-01;  0.0000000E+00;  3.6296777E-03;  9.9895945E+00;  4.2523697E-01; -9.2512465E-01;3;  2.2545621E-02;  0.0000000E+00;  6.4466773E-03;  0.0000000E+00;  0.0000000E+00;  0.0000000E+00;0;  3.5359979E-02;  9.0303856E+01;  0.0000000E+00; -1.4304518E-02;  1.0000000E+02;  0.0000000E+00;  9.7779671E+01;  2.8659465E-02;  0.0000000E+00;  6.7005148E-03;  0.0000000E+00;
  5.3607612E+00;  9.9999998E-03;  8.0884641E-01;460;  1.1852402E-01;  0.0000000E+00;  5.5456948E-03;  9.9892673E+00;  4.2546919E-01; -9.5416391E-01;3;  2.3989132E-02;  0.0000000E+00;  8.8738967E-03;  0.0000000E+00;  0.0000000E+00;  0.0000000E+00;0;  3.6664616E-02;  9.0216713E+01;  0.0000000E+00;  2.1227254E-03;  1.0000000E+02;  0.0000000E+00;  9.7760834E+01;  2.9292583E-02;  0.0000000E+00;  7.3720342E-03;  0.0000000E+00;
  5.3534040E+00;  9.9999998E-03;  1.0107023E+00;461;  1.1296435E-01;  0.0000000E+00;  6.9046468E-03;  9.9899883E+00;  4.2390788E-01; -8.9009738E-01;3;  2.7383981E-02;  0.0000000E+00;  8.4796874E-03;  0.0000000E+00;  0.0000000E+00;  0.0000000E+00;0;  3.4528892E-02;  9.0782516E+01;  0.0000000E+00;  1.8697856E-02;  1.0000000E+02;  0.0000000E+00;  9.7882057E+01;  2.7301412E-02;  0.0000000E+00;  7.2274813E-03;  0.0000000E+00;
  5.5654006E+00;  9.9999998E-03;  1.8022016E-08;467;  1.2139453E-01;  0.0000000E+00;  2.1003734E-08;  9.9898949E+00;  4.2080060E-01; -8.9841592E-01;3;  2.1755632E-02;  0.0000000E+00; -3.4365803E-07;  0.0000000E+00;  0.0000000E+00;  0.0000000E+00;0;  2.7691739E-02;  9.1874802E+01;  0.0000000E+00; -2.4655391E-14;  1.0000000E+02;  0.0000000E+00;  9.8150810E+01;  2.2243490E-02;  0.0000000E+00;  5.4482478E-03;  0.0000000E+00;
  5.5644598E+00;  9.9999998E-03;  2.0066017E-01;468;  1.2034702E-01;  0.0000000E+00; -2.2289919E-06;  9.9900932E+00;  4.2056409E-01; -8.8076979E-01;3;  2.1284210E-02;  0.0000000E+00;  2.5030179E-04;  0.0000000E+00;  0.0000000E+00;  0.0000000E+00;0;  2.7186608E-02;  9.1948273E+01;  0.0000000E+00;  7.3677856E-03;  1.0000000E+02;  0.0000000E+00;  9.8186180E+01;  2.1875415E-02;  0.0000000E+00;  5.3111934E-03;  0.0000000E+00;
  5.5650563E+00;  9.9999998E-03;  4.0288153E-01;469;  1.2062471E-01;  0.0000000E+00;  1.1440195E-03;  9.9899216E+00;  4.2079610E-01; -8.9603132E-01;3;  2.0912370E-02;  0.0000000E+00;  4.4268789E-03;  0.0000000E+00;  0.0000000E+00;  0.0000000E+00;0;  2.7646940E-02;  9.1864128E+01;  0.0000000E+00;  1.0378517E-02;  1.0000000E+02;  0.0000000E+00;  9.8164627E+01;  2.2346228E-02;  0.0000000E+00;  5.3007114E-03;  0.0000000E+00;
  5.5659690E+00;  9.9999998E-03;  6.0506421E-01;470;  1.2063270E-01;  0.0000000E+00;  2.4689829E-03;  9.9897003E+00;  4.2119667E-01; -9.1569114E-01;3;  1.4497534E-02;  0.0000000E+00;  8.4946649E-03;  0.0000000E+00;  0.0000000E+00;  0.0000000E+00;0;  2.8173432E-02;  9.1718773E+01;  0.0000000E+00; -9.6112757E-04;  1.0000000E+02;  0.0000000E+00;  9.8128983E+01;  2.2828680E-02;  0.0000000E+00;  5.3447532E-03;  0.0000000E+00;
  5.5655813E+00;  9.9999998E-03;  8.0718827E-01;471;  1.1853015E-01;  0.0000000E+00;  4.1618543E-03;  9.9900255E+00;  4.2137063E-01; -8.8675785E-01;3;  1.5771452E-02;  0.0000000E+00;  1.5345673E-02;  0.0000000E+00;  0.0000000E+00;  0.0000000E+00;0;  2.7559679E-02;  9.1662262E+01;  0.0000000E+00;  3.0210041E-02;  1.0000000E+02;  0.0000000E+00;  9.8115349E+01;  2.1798268E-02;  0.0000000E+00;  5.7614110E-03;  0.0000000E+00;
  5.5597157E+00;  9.9999998E-03;  1.0087222E+00;472;  1.1711955E-01;  0.0000000E+00;  6.3617639E-03;  9.9897375E+00;  4.1929132E-01; -9.1240567E-01;3;  1.2648776E-02;  0.0000000E+00;  1.7914105E-02;  0.0000000E+00;  0.0000000E+00;  0.0000000E+00;0;  2.8852964E-02;  9.2404938E+01;  0.0000000E+00;  1.2699123E-02;  1.0000000E+02;  0.0000000E+00;  9.8287971E+01;  2.1674842E-02;  0.0000000E+00;  7.1781217E-03;  0.0000000E+00;
  5.7699699E+00;  9.9999998E-03;  5.7820959E-10;477;  1.2409765E-01;  0.0000000E+00;  1.4833285E-08;  9.9886770E+00;  4.1698766E-01; -1.0066769E+00;3;  7.7083586E-03;  0.0000000E+00; -2.1606684E-07;  0.0000000E+00;  0.0000000E+00;  0.0000000E+00;0;  2.2530705E-02;  9.3252579E+01;  0.0000000E+00; -1.1392260E-14;  1.0000000E+02;  0.0000000E+00;  9.8453964E+01;  1.8057816E-02;  0.0000000E+00;  4.4728885E-03;  0.0000000E+00;
  5.7690563E+00;  9.9999998E-03;  2.0005777E-01;478;  1.2306560E-01;  0.0000000E+00; -2.0240620E-04;  9.9892416E+00;  4.1653138E-01; -9.5649409E-01;3;  1.3578409E-02;  0.0000000E+00; -4.4553960E-04;  0.0000000E+00;  0.0000000E+00;  0.0000000E+00;0;  2.1522162E-02;  9.3412506E+01;  0.0000000E+00;  5.9830821E-03;  1.0000000E+02;  0.0000000E+00;  9.8511742E+01;  1.7230837E-02;  0.0000000E+00;  4.2913263E-03;  0.0000000E+00;
  5.7671118E+00;  9.9999998E-03;  4.0097541E-01;479;  1.2054339E-01;  0.0000000E+00;  1.0882608E-04;  9.9906511E+00;  4.1550496E-01; -8.3116955E-01;3;  2.0833831E-02;  0.0000000E+00;  2.0236149E-03;  0.0000000E+00;  0.0000000E+00;  0.0000000E+00;0;  1.8883243E-02;  9.3791862E+01;  0.0000000E+00;  9.9075111E-03;  1.0000000E+02;  0.0000000E+00;  9.8626335E+01;  1.5018612E-02;  0.0000000E+00;  3.8646301E-03;  0.0000000E+00;
  5.7680755E+00;  9.9999998E-03;  6.0318583E-01;480;  1.2043659E-01;  0.0000000E+00;  1.4039784E-03;  9.9906340E+00;  4.1596788E-01; -8.3270627E-01;3;  1.5221173E-02;  0.0000000E+00;  1.5136816E-02;  0.0000000E+00;  0.0000000E+00;  0.0000000E+00;0;  1.9035090E-02;  9.3612419E+01;  0.0000000E+00; -5.3967573E-03;  1.0000000E+02;  0.0000000E+00;  9.8595100E+01;  1.5155969E-02;  0.0000000E+00;  3.8791213E-03;  0.0000000E+00;
  5.7667022E+00;  9.9999998E-03;  8.0495834E-01;481;  1.2154446E-01;  0.0000000E+00;  3.5549549E-03;  9.9891033E+00;  4.1541135E-01; -9.6878809E-01;3; -2.3686104E-03;  0.0000000E+00;  3.5496719E-02;  0.0000000E+00;  0.0000000E+00;  0.0000000E+00;0;  2.2549957E-02;  9.3785103E+01;  0.0000000E+00; -6.1692493E-03;  1.0000000E+02;  0.0000000E+00;  9.8646851E+01;  1.7360108E-02;  0.0000000E+00;  5.1898495E-03;  0.0000000E+00;
  5.9698968E+00;  9.9999998E-03;  4.0000755E-01;487;  1.2267337E-01;  0.0000000E+00; -7.6871613E-05;  9.9887609E+00;  4.1090354E-01; -9.9920493E-01;3;  1.2572216E-02;  0.0000000E+00;  1.5417812E-04;  0.0000000E+00;  0.0000000E+00;  0.0000000E+00;0;  1.3666546E-02;  9.5496223E+01;  0.0000000E+00; -3.4726053E-02;  1.0000000E+02;  0.0000000E+00;  9.9010834E+01;  1.0712522E-02;  0.0000000E+00;  2.9540244E-03;  0.0000000E+00;
  5.9705415E+00;  9.9999998E-03;  6.0191292E-01;488;  1.2396014E-01;  0.0000000E+00;  1.6513194E-03;  9.9860973E+00;  4.1146824E-01; -1.2360233E+00;3;  9.7105764E-03;  0.0000000E+00;  1.3189092E-02;  0.0000000E+00;  0.0000000E+00;  0.0000000E+00;0;  1.7266534E-02;  9.5224419E+01;  0.0000000E+00; -4.2614888E-02;  1.0000000E+02;  0.0000000E+00;  9.8968697E+01;  1.3325317E-02;  0.0000000E+00;  3.9412170E-03;  0.0000000E+00;
  5.9720092E+00;  9.9999998E-03;  1.9962411E-01;486;  1.2435263E-01;  0.0000000E+00; -3.8688199E-04;  9.9866276E+00;  4.1241124E-01; -1.1888610E+00;3;  8.5407961E-03;  0.0000000E+00; -4.3495558E-05;  0.0000000E+00;  0.0000000E+00;  0.0000000E+00;0;  1.6059633E-02;  9.4932106E+01;  0.0000000E+00; -5.1879436E-03;  1.0000000E+02;  0.0000000E+00;  9.8831459E+01;  1.2723771E-02;  0.0000000E+00;  3.3358631E-03;  0.0000000E+00;
  5.9726758E+00;  9.9999998E-03;  5.8141212E-09;485;  1.2510511E-01;  0.0000000E+00; -3.6665539E-09;  9.9854431E+00;  4.1292679E-01; -1.2941548E+00;3;  5.5001015E-03;  0.0000000E+00; -4.2375177E-07;  0.0000000E+00;  0.0000000E+00;  0.0000000E+00;0;  1.7242324E-02;  9.4753784E+01;  0.0000000E+00;  1.7319979E-14;  1.0000000E+02;  0.0000000E+00;  9.8747093E+01;  1.3649916E-02;  0.0000000E+00;  3.5924083E-03;  0.0000000E+00;
  6.1735406E+00;  9.9999998E-03;  9.3532906E-09;491;  1.2543541E-01;  0.0000000E+00; -1.2857521E-08;  9.9695616E+00;  4.0808061E-01; -2.7061090E+00;3;  3.8559204E-03;  0.0000000E+00; -5.5506825E-07;  0.0000000E+00;  0.0000000E+00;  0.0000000E+00;0;  1.2159916E-02;  9.6452415E+01;  0.0000000E+00;  9.5911701E-15;  1.0000000E+02;  0.0000000E+00;  9.9014580E+01;  9.3265856E-03;  0.0000000E+00;  2.8333305E-03;  0.0000000E+00;
  6.1722889E+00;  9.9999998E-03;  1.9872940E-01;492;  1.2433501E-01;  0.0000000E+00; -7.8529149E-04;  9.9750738E+00;  4.0715986E-01; -2.2160451E+00;3;  8.1134234E-03;  0.0000000E+00; -3.5259500E-04;  0.0000000E+00;  0.0000000E+00;  0.0000000E+00;0;  1.0027979E-02;  9.6826370E+01;  0.0000000E+00; -3.9314557E-02;  1.0000000E+02;  0.0000000E+00;  9.9185913E+01;  7.6665999E-03;  0.0000000E+00;  2.3613789E-03;  0.0000000E+00;
  6.1715260E+00;  9.9999998E-03;  3.9975950E-01;493;  1.2416282E-01;  0.0000000E+00;  2.7441198E-04;  9.9736423E+00;  4.0665275E-01; -2.3433304E+00;3; -5.9614144E-04;  0.0000000E+00;  3.8277283E-03;  0.0000000E+00;  0.0000000E+00;  0.0000000E+00;0;  1.0672683E-02;  9.6958649E+01;  0.0000000E+00; -9.2513546E-02;  1.0000000E+02;  0.0000000E+00;  9.9268692E+01;  7.9835970E-03;  0.0000000E+00;  2.6890854E-03;  0.0000000E+00;
