TimeStep;Np;Nbound;Nfixed;Nmoving;Nfloat;Nfluid
0.50166;494;165;165;0;0;329

Pos.x;Pos.y;Pos.z;Idp;Vel.x;Vel.y;Vel.z;Rhop;Mass;Press;Type;Acec.x;Acec.y;Acec.z;AceVisc.x;AceVisc.y;AceVisc.z;CellOffSpring;GradVel;Qfxx;Qfxy;Qfxz;Qfyy;Qfyz;Qfzz;StrainDot.x;StrainDot.y;StrainDot.z;VonMises3D;
 -1.0000000E+00;  9.9999998E-03; -2.0000000E+00;0;  0.0000000E+00;  0.0000000E+00;  0.0000000E+00;  1.0000000E+01;  4.0000001E-01;  0.0000000E+00;0;  0.0000000E+00;  0.0000000E+00;  0.0000000E+00;  0.0000000E+00;  0.0000000E+00;  0.0000000E+00;0; -2.0829436E-06;  1.0000000E+02;  0.0000000E+00;  0.0000000E+00;  1.0000000E+02;  0.0000000E+00;  1.0000000E+02; -1.8290675E-06;  0.0000000E+00; -2.5387612E-07;  0.0000000E+00;
 -8.0000001E-01;  9.9999998E-03; -2.0000000E+00;21;  0.0000000E+00;  0.0000000E+00;  0.0000000E+00;  1.0000000E+01;  4.0000001E-01;  0.0000000E+00;0;  0.0000000E+00;  0.0000000E+00;  0.0000000E+00;  0.0000000E+00;  0.0000000E+00;  0.0000000E+00;0; -6.0129469E-06;  1.0000000E+02;  0.0000000E+00;  0.0000000E+00;  1.0000000E+02;  0.0000000E+00;  1.0000000E+02; -5.3861213E-06;  0.0000000E+00; -6.2682574E-07;  0.0000000E+00;
 -6.0000002E-01;  9.9999998E-03; -2.0000000E+00;42;  0.0000000E+00;  0.0000000E+00;  0.0000000E+00;  1.0000000E+01;  4.0000001E-01;  0.0000000E+00;0;  0.0000000E+00;  0.0000000E+00;  0.0000000E+00;  0.0000000E+00;  0.0000000E+00;  0.0000000E+00;0; -1.0799006E-05;  1.0000000E+02;  0.0000000E+00;  0.0000000E+00;  1.0000000E+02;  0.0000000E+00;  1.0000000E+02; -9.6463546E-06;  0.0000000E+00; -1.1526514E-06;  0.0000000E+00;
 -4.0000001E-01;  9.9999998E-03; -2.0000000E+00;63;  0.0000000E+00;  0.0000000E+00;  0.0000000E+00;  1.0000092E+01;  4.0000001E-01;  9.8762298E-03;0;  0.0000000E+00;  0.0000000E+00;  0.0000000E+00;  0.0000000E+00;  0.0000000E+00;  0.0000000E+00;0; -1.4797838E-05;  1.0000000E+02;  0.0000000E+00;  0.0000000E+00;  1.0000000E+02;  0.0000000E+00;  1.0000000E+02; -1.2958113E-05;  0.0000000E+00; -1.8397250E-06;  0.0000000E+00;
 -2.0000000E-01;  9.9999998E-03; -2.0000000E+00;84;  0.0000000E+00;  0.0000000E+00;  0.0000000E+00;  1.0000140E+01;  4.0000001E-01;  1.5134939E-02;0;  0.0000000E+00;  0.0000000E+00;  0.0000000E+00;  0.0000000E+00;  0.0000000E+00;  0.0000000E+00;0; -1.7015878E-05;  1.0000000E+02;  0.0000000E+00;  0.0000000E+00;  1.0000000E+02;  0.0000000E+00;  1.0000000E+02; -1.4349572E-05;  0.0000000E+00; -2.6663065E-06;  0.0000000E+00;
  0.0000000E+00;  9.9999998E-03; -2.0000000E+00;105;  0.0000000E+00;  0.0000000E+00;  0.0000000E+00;  1.0000150E+01;  4.0000001E-01;  1.6160890E-02;0;  0.0000000E+00;  0.0000000E+00;  0.0000000E+00;  0.0000000E+00;  0.0000000E+00;  0.0000000E+00;0; -1.7128645E-05;  1.0000000E+02;  0.0000000E+00;  0.0000000E+00;  1.0000000E+02;  0.0000000E+00;  1.0000000E+02; -1.3580570E-05;  0.0000000E+00; -3.5480748E-06;  0.0000000E+00;
  2.0000000E-01;  9.9999998E-03; -2.0000000E+00;115;  0.0000000E+00;  0.0000000E+00;  0.0000000E+00;  1.0000134E+01;  4.0000001E-01;  1.4493204E-02;0;  0.0000000E+00;  0.0000000E+00;  0.0000000E+00;  0.0000000E+00;  0.0000000E+00;  0.0000000E+00;0; -1.4966365E-05;  1.0000000E+02;  0.0000000E+00;  0.0000000E+00;  1.0000000E+02;  0.0000000E+00;  1.0000000E+02; -1.0681039E-05;  0.0000000E+00; -4.2853258E-06;  0.0000000E+00;
  4.0000001E-01;  9.9999998E-03; -2.0000000E+00;125;  0.0000000E+00;  0.0000000E+00;  0.0000000E+00;  1.0000126E+01;  4.0000001E-01;  1.3594786E-02;0;  0.0000000E+00;  0.0000000E+00;  0.0000000E+00;  0.0000000E+00;  0.0000000E+00;  0.0000000E+00;0; -1.0241252E-05;  1.0000000E+02;  0.0000000E+00;  0.0000000E+00;  1.0000000E+02;  0.0000000E+00;  1.0000000E+02; -5.7161860E-06;  0.0000000E+00; -4.5250667E-06;  0.0000000E+00;
  6.0000002E-01;  9.9999998E-03; -2.0000000E+00;135;  0.0000000E+00;  0.0000000E+00;  0.0000000E+00;  1.0000116E+01;  4.0000001E-01;  1.2567511E-02;0;  0.0000000E+00;  0.0000000E+00;  0.0000000E+00;  0.0000000E+00;  0.0000000E+00;  0.0000000E+00;0; -1.9277950E-06;  1.0000000E+02;  0.0000000E+00;  0.0000000E+00;  1.0000000E+02;  0.0000000E+00;  1.0000000E+02;  1.7745424E-06;  0.0000000E+00; -3.7023374E-06;  0.0000000E+00;
  8.0000001E-01;  9.9999998E-03; -2.0000000E+00;145;  0.0000000E+00;  0.0000000E+00;  0.0000000E+00;  1.0000135E+01;  4.0000001E-01;  1.4616109E-02;0;  0.0000000E+00;  0.0000000E+00;  0.0000000E+00;  0.0000000E+00;  0.0000000E+00;  0.0000000E+00;0;  1.5224340E-05;  1.0000000E+02;  0.0000000E+00;  0.0000000E+00;  1.0000000E+02;  0.0000000E+00;  1.0000000E+02;  1.6031438E-05;  0.0000000E+00; -8.0709714E-07;  0.0000000E+00;
  1.0000000E+00;  9.9999998E-03; -2.0000000E+00;155;  0.0000000E+00;  0.0000000E+00;  0.0000000E+00;  1.0000190E+01;  4.0000001E-01;  2.0375609E-02;0;  0.0000000E+00;  0.0000000E+00;  0.0000000E+00;  0.0000000E+00;  0.0000000E+00;  0.0000000E+00;0;  5.2845538E-05;  1.0000000E+02;  0.0000000E+00;  0.0000000E+00;  1.0000000E+02;  0.0000000E+00;  1.0000000E+02;  4.6975034E-05;  0.0000000E+00;  5.8705036E-06;  0.0000000E+00;
 -1.0000000E+00;  9.9999998E-03; -1.8000000E+00;1;  0.0000000E+00;  0.0000000E+00;  0.0000000E+00;  1.0000000E+01;  4.0000001E-01;  0.0000000E+00;0;  0.0000000E+00;  0.0000000E+00;  0.0000000E+00;  0.0000000E+00;  0.0000000E+00;  0.0000000E+00;0; -6.0839047E-06;  1.0000000E+02;  0.0000000E+00;  0.0000000E+00;  1.0000000E+02;  0.0000000E+00;  1.0000000E+02; -5.4383845E-06;  0.0000000E+00; -6.4552000E-07;  0.0000000E+00;
 -1.0000000E+00;  9.9999998E-03; -1.6000000E+00;2;  0.0000000E+00;  0.0000000E+00;  0.0000000E+00;  1.0000038E+01;  4.0000001E-01;  4.1044196E-03;0;  0.0000000E+00;  0.0000000E+00;  0.0000000E+00;  0.0000000E+00;  0.0000000E+00;  0.0000000E+00;0; -1.3092204E-05;  1.0000000E+02;  0.0000000E+00;  0.0000000E+00;  1.0000000E+02;  0.0000000E+00;  1.0000000E+02; -1.2085186E-05;  0.0000000E+00; -1.0070171E-06;  0.0000000E+00;
 -1.0000000E+00;  9.9999998E-03; -1.4000000E+00;3;  0.0000000E+00;  0.0000000E+00;  0.0000000E+00;  1.0000200E+01;  4.0000001E-01;  2.1548202E-02;0;  0.0000000E+00;  0.0000000E+00;  0.0000000E+00;  0.0000000E+00;  0.0000000E+00;  0.0000000E+00;0; -2.4184777E-05;  1.0000000E+02;  0.0000000E+00;  0.0000000E+00;  1.0000000E+02;  0.0000000E+00;  1.0000000E+02; -2.3006955E-05;  0.0000000E+00; -1.1778238E-06;  0.0000000E+00;
 -1.0000000E+00;  9.9999998E-03; -1.2000000E+00;4;  0.0000000E+00;  0.0000000E+00;  0.0000000E+00;  1.0000241E+01;  4.0000001E-01;  2.5909148E-02;0;  0.0000000E+00;  0.0000000E+00;  0.0000000E+00;  0.0000000E+00;  0.0000000E+00;  0.0000000E+00;0; -3.9577881E-05;  1.0000000E+02;  0.0000000E+00;  0.0000000E+00;  1.0000000E+02;  0.0000000E+00;  1.0000000E+02; -3.8480892E-05;  0.0000000E+00; -1.0969890E-06;  0.0000000E+00;
 -1.0000000E+00;  9.9999998E-03; -1.0000000E+00;5;  0.0000000E+00;  0.0000000E+00;  0.0000000E+00;  1.0000373E+01;  4.0000001E-01;  4.0146355E-02;0;  0.0000000E+00;  0.0000000E+00;  0.0000000E+00;  0.0000000E+00;  0.0000000E+00;  0.0000000E+00;0; -5.7799618E-05;  1.0000000E+02;  0.0000000E+00;  0.0000000E+00;  1.0000000E+02;  0.0000000E+00;  1.0000000E+02; -5.7039095E-05;  0.0000000E+00; -7.6052311E-07;  0.0000000E+00;
 -1.0000000E+00;  9.9999998E-03; -8.0000001E-01;6;  0.0000000E+00;  0.0000000E+00;  0.0000000E+00;  1.0000485E+01;  4.0000001E-01;  5.2203085E-02;0;  0.0000000E+00;  0.0000000E+00;  0.0000000E+00;  0.0000000E+00;  0.0000000E+00;  0.0000000E+00;0; -7.6010692E-05;  1.0000000E+02;  0.0000000E+00;  0.0000000E+00;  1.0000000E+02;  0.0000000E+00;  1.0000000E+02; -7.5798882E-05;  0.0000000E+00; -2.1181086E-07;  0.0000000E+00;
 -1.0000000E+00;  9.9999998E-03; -6.0000002E-01;7;  0.0000000E+00;  0.0000000E+00;  0.0000000E+00;  1.0000590E+01;  4.0000001E-01;  6.3490242E-02;0;  0.0000000E+00;  0.0000000E+00;  0.0000000E+00;  0.0000000E+00;  0.0000000E+00;  0.0000000E+00;0; -9.1282789E-05;  1.0000000E+02;  0.0000000E+00;  0.0000000E+00;  1.0000000E+02;  0.0000000E+00;  1.0000000E+02; -9.1727663E-05;  0.0000000E+00;  4.4487524E-07;  0.0000000E+00;
 -1.0000000E+00;  9.9999998E-03; -4.0000001E-01;8;  0.0000000E+00;  0.0000000E+00;  0.0000000E+00;  1.0000669E+01;  4.0000001E-01;  7.2083868E-02;0;  0.0000000E+00;  0.0000000E+00;  0.0000000E+00;  0.0000000E+00;  0.0000000E+00;  0.0000000E+00;0; -1.0191578E-04;  1.0000000E+02;  0.0000000E+00;  0.0000000E+00;  1.0000000E+02;  0.0000000E+00;  1.0000000E+02; -1.0296343E-04;  0.0000000E+00;  1.0476538E-06;  0.0000000E+00;
 -1.0000000E+00;  9.9999998E-03; -2.0000000E-01;9;  0.0000000E+00;  0.0000000E+00;  0.0000000E+00;  1.0000699E+01;  4.0000001E-01;  7.5162187E-02;0;  0.0000000E+00;  0.0000000E+00;  0.0000000E+00;  0.0000000E+00;  0.0000000E+00;  0.0000000E+00;0; -1.0776791E-04;  1.0000000E+02;  0.0000000E+00;  0.0000000E+00;  1.0000000E+02;  0.0000000E+00;  1.0000000E+02; -1.0921682E-04;  0.0000000E+00;  1.4489059E-06;  0.0000000E+00;
 -8.0000001E-01;  9.9999998E-03; -1.8000000E+00;22;  0.0000000E+00;  0.0000000E+00;  0.0000000E+00;  1.0000087E+01;  4.0000001E-01;  9.3632033E-03;0;  0.0000000E+00;  0.0000000E+00;  0.0000000E+00;  0.0000000E+00;  0.0000000E+00;  0.0000000E+00;0; -1.5241352E-05;  1.0000000E+02;  0.0000000E+00;  0.0000000E+00;  1.0000000E+02;  0.0000000E+00;  1.0000000E+02; -1.3864942E-05;  0.0000000E+00; -1.3764105E-06;  0.0000000E+00;
 -8.0000001E-01;  9.9999998E-03; -1.6000000E+00;23;  0.0000000E+00;  0.0000000E+00;  0.0000000E+00;  1.0000203E+01;  4.0000001E-01;  2.1804720E-02;0;  0.0000000E+00;  0.0000000E+00;  0.0000000E+00;  0.0000000E+00;  0.0000000E+00;  0.0000000E+00;0; -3.0743613E-05;  1.0000000E+02;  0.0000000E+00;  0.0000000E+00;  1.0000000E+02;  0.0000000E+00;  1.0000000E+02; -2.8731722E-05;  0.0000000E+00; -2.0118928E-06;  0.0000000E+00;
 -8.0000001E-01;  9.9999998E-03; -1.4000000E+00;24;  0.0000000E+00;  0.0000000E+00;  0.0000000E+00;  1.0000351E+01;  4.0000001E-01;  3.7709337E-02;0;  0.0000000E+00;  0.0000000E+00;  0.0000000E+00;  0.0000000E+00;  0.0000000E+00;  0.0000000E+00;0; -5.4432519E-05;  1.0000000E+02;  0.0000000E+00;  0.0000000E+00;  1.0000000E+02;  0.0000000E+00;  1.0000000E+02; -5.2179257E-05;  0.0000000E+00; -2.2532627E-06;  0.0000000E+00;
 -8.0000001E-01;  9.9999998E-03; -1.2000000E+00;25;  0.0000000E+00;  0.0000000E+00;  0.0000000E+00;  1.0000555E+01;  4.0000001E-01;  5.9770584E-02;0;  0.0000000E+00;  0.0000000E+00;  0.0000000E+00;  0.0000000E+00;  0.0000000E+00;  0.0000000E+00;0; -8.6637694E-05;  1.0000000E+02;  0.0000000E+00;  0.0000000E+00;  1.0000000E+02;  0.0000000E+00;  1.0000000E+02; -8.4605919E-05;  0.0000000E+00; -2.0317732E-06;  0.0000000E+00;
 -8.0000001E-01;  9.9999998E-03; -1.0000000E+00;26;  0.0000000E+00;  0.0000000E+00;  0.0000000E+00;  1.0000805E+01;  4.0000001E-01;  8.6577564E-02;0;  0.0000000E+00;  0.0000000E+00;  0.0000000E+00;  0.0000000E+00;  0.0000000E+00;  0.0000000E+00;0; -1.2457970E-04;  1.0000000E+02;  0.0000000E+00;  0.0000000E+00;  1.0000000E+02;  0.0000000E+00;  1.0000000E+02; -1.2321431E-04;  0.0000000E+00; -1.3653982E-06;  0.0000000E+00;
 -8.0000001E-01;  9.9999998E-03; -8.0000001E-01;27;  0.0000000E+00;  0.0000000E+00;  0.0000000E+00;  1.0001058E+01;  4.0000001E-01;  1.1376933E-01;0;  0.0000000E+00;  0.0000000E+00;  0.0000000E+00;  0.0000000E+00;  0.0000000E+00;  0.0000000E+00;0; -1.6281311E-04;  1.0000000E+02;  0.0000000E+00;  0.0000000E+00;  1.0000000E+02;  0.0000000E+00;  1.0000000E+02; -1.6247686E-04;  0.0000000E+00; -3.3624718E-07;  0.0000000E+00;
 -8.0000001E-01;  9.9999998E-03; -6.0000002E-01;28;  0.0000000E+00;  0.0000000E+00;  0.0000000E+00;  1.0001268E+01;  4.0000001E-01;  1.3647190E-01;0;  0.0000000E+00;  0.0000000E+00;  0.0000000E+00;  0.0000000E+00;  0.0000000E+00;  0.0000000E+00;0; -1.9554146E-04;  1.0000000E+02;  0.0000000E+00;  0.0000000E+00;  1.0000000E+02;  0.0000000E+00;  1.0000000E+02; -1.9642213E-04;  0.0000000E+00;  8.8066037E-07;  0.0000000E+00;
 -8.0000001E-01;  9.9999998E-03; -4.0000001E-01;29;  0.0000000E+00;  0.0000000E+00;  0.0000000E+00;  1.0001425E+01;  4.0000001E-01;  1.5327436E-01;0;  0.0000000E+00;  0.0000000E+00;  0.0000000E+00;  0.0000000E+00;  0.0000000E+00;  0.0000000E+00;0; -2.1909938E-04;  1.0000000E+02;  0.0000000E+00;  0.0000000E+00;  1.0000000E+02;  0.0000000E+00;  1.0000000E+02; -2.2111737E-04;  0.0000000E+00;  2.0179814E-06;  0.0000000E+00;
 -8.0000001E-01;  9.9999998E-03; -2.0000000E-01;30;  0.0000000E+00;  0.0000000E+00;  0.0000000E+00;  1.0001521E+01;  4.0000001E-01;  1.6366366E-01;0;  0.0000000E+00;  0.0000000E+00;  0.0000000E+00;  0.0000000E+00;  0.0000000E+00;  0.0000000E+00;0; -2.3267054E-04;  1.0000000E+02;  0.0000000E+00;  0.0000000E+00;  1.0000000E+02;  0.0000000E+00;  1.0000000E+02; -2.3548800E-04;  0.0000000E+00;  2.8174534E-06;  0.0000000E+00;
 -6.0000002E-01;  9.9999998E-03; -1.8000000E+00;43;  0.0000000E+00;  0.0000000E+00;  0.0000000E+00;  1.0000201E+01;  4.0000001E-01;  2.1676440E-02;0;  0.0000000E+00;  0.0000000E+00;  0.0000000E+00;  0.0000000E+00;  0.0000000E+00;  0.0000000E+00;0; -2.5569010E-05;  1.0000000E+02;  0.0000000E+00;  0.0000000E+00;  1.0000000E+02;  0.0000000E+00;  1.0000000E+02; -2.3188535E-05;  0.0000000E+00; -2.3804753E-06;  0.0000000E+00;
 -6.0000002E-01;  9.9999998E-03; -1.6000000E+00;44;  0.0000000E+00;  0.0000000E+00;  0.0000000E+00;  1.0000324E+01;  4.0000001E-01;  3.4887522E-02;0;  0.0000000E+00;  0.0000000E+00;  0.0000000E+00;  0.0000000E+00;  0.0000000E+00;  0.0000000E+00;0; -5.0006274E-05;  1.0000000E+02;  0.0000000E+00;  0.0000000E+00;  1.0000000E+02;  0.0000000E+00;  1.0000000E+02; -4.6612582E-05;  0.0000000E+00; -3.3936913E-06;  0.0000000E+00;
 -6.0000002E-01;  9.9999998E-03; -1.4000000E+00;45;  0.0000000E+00;  0.0000000E+00;  0.0000000E+00;  1.0000571E+01;  4.0000001E-01;  6.1437953E-02;0;  0.0000000E+00;  0.0000000E+00;  0.0000000E+00;  0.0000000E+00;  0.0000000E+00;  0.0000000E+00;0; -8.6732020E-05;  1.0000000E+02;  0.0000000E+00;  0.0000000E+00;  1.0000000E+02;  0.0000000E+00;  1.0000000E+02; -8.3004183E-05;  0.0000000E+00; -3.7278344E-06;  0.0000000E+00;
 -6.0000002E-01;  9.9999998E-03; -1.2000000E+00;46;  0.0000000E+00;  0.0000000E+00;  0.0000000E+00;  1.0000901E+01;  4.0000001E-01;  9.6966796E-02;0;  0.0000000E+00;  0.0000000E+00;  0.0000000E+00;  0.0000000E+00;  0.0000000E+00;  0.0000000E+00;0; -1.3628628E-04;  1.0000000E+02;  0.0000000E+00;  0.0000000E+00;  1.0000000E+02;  0.0000000E+00;  1.0000000E+02; -1.3299716E-04;  0.0000000E+00; -3.2891314E-06;  0.0000000E+00;
 -6.0000002E-01;  9.9999998E-03; -1.0000000E+00;47;  0.0000000E+00;  0.0000000E+00;  0.0000000E+00;  1.0001276E+01;  4.0000001E-01;  1.3724136E-01;0;  0.0000000E+00;  0.0000000E+00;  0.0000000E+00;  0.0000000E+00;  0.0000000E+00;  0.0000000E+00;0; -1.9469783E-04;  1.0000000E+02;  0.0000000E+00;  0.0000000E+00;  1.0000000E+02;  0.0000000E+00;  1.0000000E+02; -1.9257162E-04;  0.0000000E+00; -2.1262024E-06;  0.0000000E+00;
 -6.0000002E-01;  9.9999998E-03; -8.0000001E-01;48;  0.0000000E+00;  0.0000000E+00;  0.0000000E+00;  1.0001671E+01;  4.0000001E-01;  1.7982467E-01;0;  0.0000000E+00;  0.0000000E+00;  0.0000000E+00;  0.0000000E+00;  0.0000000E+00;  0.0000000E+00;0; -2.5387527E-04;  1.0000000E+02;  0.0000000E+00;  0.0000000E+00;  1.0000000E+02;  0.0000000E+00;  1.0000000E+02; -2.5347184E-04;  0.0000000E+00; -4.0345108E-07;  0.0000000E+00;
 -6.0000002E-01;  9.9999998E-03; -6.0000002E-01;49;  0.0000000E+00;  0.0000000E+00;  0.0000000E+00;  1.0002007E+01;  4.0000001E-01;  2.1586655E-01;0;  0.0000000E+00;  0.0000000E+00;  0.0000000E+00;  0.0000000E+00;  0.0000000E+00;  0.0000000E+00;0; -3.0514994E-04;  1.0000000E+02;  0.0000000E+00;  0.0000000E+00;  1.0000000E+02;  0.0000000E+00;  1.0000000E+02; -3.0671552E-04;  0.0000000E+00;  1.5655795E-06;  0.0000000E+00;
 -6.0000002E-01;  9.9999998E-03; -4.0000001E-01;50;  0.0000000E+00;  0.0000000E+00;  0.0000000E+00;  1.0002256E+01;  4.0000001E-01;  2.4280177E-01;0;  0.0000000E+00;  0.0000000E+00;  0.0000000E+00;  0.0000000E+00;  0.0000000E+00;  0.0000000E+00;0; -3.4285869E-04;  1.0000000E+02;  0.0000000E+00;  0.0000000E+00;  1.0000000E+02;  0.0000000E+00;  1.0000000E+02; -3.4621908E-04;  0.0000000E+00;  3.3603994E-06;  0.0000000E+00;
 -6.0000002E-01;  9.9999998E-03; -2.0000000E-01;51;  0.0000000E+00;  0.0000000E+00;  0.0000000E+00;  1.0002405E+01;  4.0000001E-01;  2.5883463E-01;0;  0.0000000E+00;  0.0000000E+00;  0.0000000E+00;  0.0000000E+00;  0.0000000E+00;  0.0000000E+00;0; -3.6523043E-04;  1.0000000E+02;  0.0000000E+00;  0.0000000E+00;  1.0000000E+02;  0.0000000E+00;  1.0000000E+02; -3.6983262E-04;  0.0000000E+00;  4.6021869E-06;  0.0000000E+00;
 -4.0000001E-01;  9.9999998E-03; -1.8000000E+00;64;  0.0000000E+00;  0.0000000E+00;  0.0000000E+00;  1.0000228E+01;  4.0000001E-01;  2.4498180E-02;0;  0.0000000E+00;  0.0000000E+00;  0.0000000E+00;  0.0000000E+00;  0.0000000E+00;  0.0000000E+00;0; -3.3481887E-05;  1.0000000E+02;  0.0000000E+00;  0.0000000E+00;  1.0000000E+02;  0.0000000E+00;  1.0000000E+02; -2.9808371E-05;  0.0000000E+00; -3.6735155E-06;  0.0000000E+00;
 -4.0000001E-01;  9.9999998E-03; -1.6000000E+00;65;  0.0000000E+00;  0.0000000E+00;  0.0000000E+00;  1.0000455E+01;  4.0000001E-01;  4.8996359E-02;0;  0.0000000E+00;  0.0000000E+00;  0.0000000E+00;  0.0000000E+00;  0.0000000E+00;  0.0000000E+00;0; -6.4013315E-05;  1.0000000E+02;  0.0000000E+00;  0.0000000E+00;  1.0000000E+02;  0.0000000E+00;  1.0000000E+02; -5.8865531E-05;  0.0000000E+00; -5.1477869E-06;  0.0000000E+00;
 -4.0000001E-01;  9.9999998E-03; -1.4000000E+00;66;  0.0000000E+00;  0.0000000E+00;  0.0000000E+00;  1.0000750E+01;  4.0000001E-01;  8.0677249E-02;0;  0.0000000E+00;  0.0000000E+00;  0.0000000E+00;  0.0000000E+00;  0.0000000E+00;  0.0000000E+00;0; -1.0973711E-04;  1.0000000E+02;  0.0000000E+00;  0.0000000E+00;  1.0000000E+02;  0.0000000E+00;  1.0000000E+02; -1.0415439E-04;  0.0000000E+00; -5.5827186E-06;  0.0000000E+00;
 -4.0000001E-01;  9.9999998E-03; -1.2000000E+00;67;  0.0000000E+00;  0.0000000E+00;  0.0000000E+00;  1.0001161E+01;  4.0000001E-01;  1.2492789E-01;0;  0.0000000E+00;  0.0000000E+00;  0.0000000E+00;  0.0000000E+00;  0.0000000E+00;  0.0000000E+00;0; -1.7185530E-04;  1.0000000E+02;  0.0000000E+00;  0.0000000E+00;  1.0000000E+02;  0.0000000E+00;  1.0000000E+02; -1.6700671E-04;  0.0000000E+00; -4.8485881E-06;  0.0000000E+00;
 -4.0000001E-01;  9.9999998E-03; -1.0000000E+00;68;  0.0000000E+00;  0.0000000E+00;  0.0000000E+00;  1.0001646E+01;  4.0000001E-01;  1.7713082E-01;0;  0.0000000E+00;  0.0000000E+00;  0.0000000E+00;  0.0000000E+00;  0.0000000E+00;  0.0000000E+00;0; -2.4569713E-04;  1.0000000E+02;  0.0000000E+00;  0.0000000E+00;  1.0000000E+02;  0.0000000E+00;  1.0000000E+02; -2.4270307E-04;  0.0000000E+00; -2.9940627E-06;  0.0000000E+00;
 -4.0000001E-01;  9.9999998E-03; -8.0000001E-01;69;  0.0000000E+00;  0.0000000E+00;  0.0000000E+00;  1.0002139E+01;  4.0000001E-01;  2.3010331E-01;0;  0.0000000E+00;  0.0000000E+00;  0.0000000E+00;  0.0000000E+00;  0.0000000E+00;  0.0000000E+00;0; -3.2087311E-04;  1.0000000E+02;  0.0000000E+00;  0.0000000E+00;  1.0000000E+02;  0.0000000E+00;  1.0000000E+02; -3.2053940E-04;  0.0000000E+00; -3.3369179E-07;  0.0000000E+00;
 -4.0000001E-01;  9.9999998E-03; -6.0000002E-01;70;  0.0000000E+00;  0.0000000E+00;  0.0000000E+00;  1.0002577E+01;  4.0000001E-01;  2.7730399E-01;0;  0.0000000E+00;  0.0000000E+00;  0.0000000E+00;  0.0000000E+00;  0.0000000E+00;  0.0000000E+00;0; -3.8658644E-04;  1.0000000E+02;  0.0000000E+00;  0.0000000E+00;  1.0000000E+02;  0.0000000E+00;  1.0000000E+02; -3.8913952E-04;  0.0000000E+00;  2.5530778E-06;  0.0000000E+00;
 -4.0000001E-01;  9.9999998E-03; -4.0000001E-01;71;  0.0000000E+00;  0.0000000E+00;  0.0000000E+00;  1.0002896E+01;  4.0000001E-01;  3.1167841E-01;0;  0.0000000E+00;  0.0000000E+00;  0.0000000E+00;  0.0000000E+00;  0.0000000E+00;  0.0000000E+00;0; -4.3578036E-04;  1.0000000E+02;  0.0000000E+00;  0.0000000E+00;  1.0000000E+02;  0.0000000E+00;  1.0000000E+02; -4.4082050E-04;  0.0000000E+00;  5.0401377E-06;  0.0000000E+00;
 -4.0000001E-01;  9.9999998E-03; -2.0000000E-01;72;  0.0000000E+00;  0.0000000E+00;  0.0000000E+00;  1.0003098E+01;  4.0000001E-01;  3.3335480E-01;0;  0.0000000E+00;  0.0000000E+00;  0.0000000E+00;  0.0000000E+00;  0.0000000E+00;  0.0000000E+00;0; -4.6569368E-04;  1.0000000E+02;  0.0000000E+00;  0.0000000E+00;  1.0000000E+02;  0.0000000E+00;  1.0000000E+02; -4.7235470E-04;  0.0000000E+00;  6.6610178E-06;  0.0000000E+00;
 -2.0000000E-01;  9.9999998E-03; -1.8000000E+00;85;  0.0000000E+00;  0.0000000E+00;  0.0000000E+00;  1.0000273E+01;  4.0000001E-01;  2.9372042E-02;0;  0.0000000E+00;  0.0000000E+00;  0.0000000E+00;  0.0000000E+00;  0.0000000E+00;  0.0000000E+00;0; -3.7509177E-05;  1.0000000E+02;  0.0000000E+00;  0.0000000E+00;  1.0000000E+02;  0.0000000E+00;  1.0000000E+02; -3.2336211E-05;  0.0000000E+00; -5.1729653E-06;  0.0000000E+00;
 -2.0000000E-01;  9.9999998E-03; -1.6000000E+00;86;  0.0000000E+00;  0.0000000E+00;  0.0000000E+00;  1.0000508E+01;  4.0000001E-01;  5.4639697E-02;0;  0.0000000E+00;  0.0000000E+00;  0.0000000E+00;  0.0000000E+00;  0.0000000E+00;  0.0000000E+00;0; -7.0580572E-05;  1.0000000E+02;  0.0000000E+00;  0.0000000E+00;  1.0000000E+02;  0.0000000E+00;  1.0000000E+02; -6.3487503E-05;  0.0000000E+00; -7.0930710E-06;  0.0000000E+00;
 -2.0000000E-01;  9.9999998E-03; -1.4000000E+00;87;  0.0000000E+00;  0.0000000E+00;  0.0000000E+00;  1.0000853E+01;  4.0000001E-01;  9.1707468E-02;0;  0.0000000E+00;  0.0000000E+00;  0.0000000E+00;  0.0000000E+00;  0.0000000E+00;  0.0000000E+00;0; -1.2013397E-04;  1.0000000E+02;  0.0000000E+00;  0.0000000E+00;  1.0000000E+02;  0.0000000E+00;  1.0000000E+02; -1.1255347E-04;  0.0000000E+00; -7.5805033E-06;  0.0000000E+00;
 -2.0000000E-01;  9.9999998E-03; -1.2000000E+00;88;  0.0000000E+00;  0.0000000E+00;  0.0000000E+00;  1.0001317E+01;  4.0000001E-01;  1.4172973E-01;0;  0.0000000E+00;  0.0000000E+00;  0.0000000E+00;  0.0000000E+00;  0.0000000E+00;  0.0000000E+00;0; -1.8839764E-04;  1.0000000E+02;  0.0000000E+00;  0.0000000E+00;  1.0000000E+02;  0.0000000E+00;  1.0000000E+02; -1.8189254E-04;  0.0000000E+00; -6.5050936E-06;  0.0000000E+00;
 -2.0000000E-01;  9.9999998E-03; -1.0000000E+00;89;  0.0000000E+00;  0.0000000E+00;  0.0000000E+00;  1.0001867E+01;  4.0000001E-01;  2.0085859E-01;0;  0.0000000E+00;  0.0000000E+00;  0.0000000E+00;  0.0000000E+00;  0.0000000E+00;  0.0000000E+00;0; -2.7069499E-04;  1.0000000E+02;  0.0000000E+00;  0.0000000E+00;  1.0000000E+02;  0.0000000E+00;  1.0000000E+02; -2.6689479E-04;  0.0000000E+00; -3.8002136E-06;  0.0000000E+00;
 -2.0000000E-01;  9.9999998E-03; -8.0000001E-01;90;  0.0000000E+00;  0.0000000E+00;  0.0000000E+00;  1.0002421E+01;  4.0000001E-01;  2.6050052E-01;0;  0.0000000E+00;  0.0000000E+00;  0.0000000E+00;  0.0000000E+00;  0.0000000E+00;  0.0000000E+00;0; -3.5468230E-04;  1.0000000E+02;  0.0000000E+00;  0.0000000E+00;  1.0000000E+02;  0.0000000E+00;  1.0000000E+02; -3.5465538E-04;  0.0000000E+00; -2.6908623E-08;  0.0000000E+00;
 -2.0000000E-01;  9.9999998E-03; -6.0000002E-01;91;  0.0000000E+00;  0.0000000E+00;  0.0000000E+00;  1.0002914E+01;  4.0000001E-01;  3.1360108E-01;0;  0.0000000E+00;  0.0000000E+00;  0.0000000E+00;  0.0000000E+00;  0.0000000E+00;  0.0000000E+00;0; -4.2890545E-04;  1.0000000E+02;  0.0000000E+00;  0.0000000E+00;  1.0000000E+02;  0.0000000E+00;  1.0000000E+02; -4.3267972E-04;  0.0000000E+00;  3.7742643E-06;  0.0000000E+00;
 -2.0000000E-01;  9.9999998E-03; -4.0000001E-01;92;  0.0000000E+00;  0.0000000E+00;  0.0000000E+00;  1.0003281E+01;  4.0000001E-01;  3.5297757E-01;0;  0.0000000E+00;  0.0000000E+00;  0.0000000E+00;  0.0000000E+00;  0.0000000E+00;  0.0000000E+00;0; -4.8578778E-04;  1.0000000E+02;  0.0000000E+00;  0.0000000E+00;  1.0000000E+02;  0.0000000E+00;  1.0000000E+02; -4.9259560E-04;  0.0000000E+00;  6.8078089E-06;  0.0000000E+00;
 -2.0000000E-01;  9.9999998E-03; -2.0000000E-01;93;  0.0000000E+00;  0.0000000E+00;  0.0000000E+00;  1.0003518E+01;  4.0000001E-01;  3.7850174E-01;0;  0.0000000E+00;  0.0000000E+00;  0.0000000E+00;  0.0000000E+00;  0.0000000E+00;  0.0000000E+00;0; -5.2132912E-04;  1.0000000E+02;  0.0000000E+00;  0.0000000E+00;  1.0000000E+02;  0.0000000E+00;  1.0000000E+02; -5.2998436E-04;  0.0000000E+00;  8.6552354E-06;  0.0000000E+00;
  0.0000000E+00;  9.9999998E-03; -1.8000000E+00;106;  0.0000000E+00;  0.0000000E+00;  0.0000000E+00;  1.0000288E+01;  4.0000001E-01;  3.1039169E-02;0;  0.0000000E+00;  0.0000000E+00;  0.0000000E+00;  0.0000000E+00;  0.0000000E+00;  0.0000000E+00;0; -3.7397083E-05;  1.0000000E+02;  0.0000000E+00;  0.0000000E+00;  1.0000000E+02;  0.0000000E+00;  1.0000000E+02; -3.0776504E-05;  0.0000000E+00; -6.6205776E-06;  0.0000000E+00;
  0.0000000E+00;  9.9999998E-03; -1.6000000E+00;107;  0.0000000E+00;  0.0000000E+00;  0.0000000E+00;  1.0000543E+01;  4.0000001E-01;  5.8358770E-02;0;  0.0000000E+00;  0.0000000E+00;  0.0000000E+00;  0.0000000E+00;  0.0000000E+00;  0.0000000E+00;0; -6.9593043E-05;  1.0000000E+02;  0.0000000E+00;  0.0000000E+00;  1.0000000E+02;  0.0000000E+00;  1.0000000E+02; -6.0812439E-05;  0.0000000E+00; -8.7806011E-06;  0.0000000E+00;
  0.0000000E+00;  9.9999998E-03; -1.4000000E+00;108;  0.0000000E+00;  0.0000000E+00;  0.0000000E+00;  1.0000873E+01;  4.0000001E-01;  9.3887076E-02;0;  0.0000000E+00;  0.0000000E+00;  0.0000000E+00;  0.0000000E+00;  0.0000000E+00;  0.0000000E+00;0; -1.1755434E-04;  1.0000000E+02;  0.0000000E+00;  0.0000000E+00;  1.0000000E+02;  0.0000000E+00;  1.0000000E+02; -1.0843502E-04;  0.0000000E+00; -9.1193124E-06;  0.0000000E+00;
  0.0000000E+00;  9.9999998E-03; -1.2000000E+00;109;  0.0000000E+00;  0.0000000E+00;  0.0000000E+00;  1.0001351E+01;  4.0000001E-01;  1.4544801E-01;0;  0.0000000E+00;  0.0000000E+00;  0.0000000E+00;  0.0000000E+00;  0.0000000E+00;  0.0000000E+00;0; -1.8383762E-04;  1.0000000E+02;  0.0000000E+00;  0.0000000E+00;  1.0000000E+02;  0.0000000E+00;  1.0000000E+02; -1.7623210E-04;  0.0000000E+00; -7.6055212E-06;  0.0000000E+00;
  2.0000000E-01;  9.9999998E-03; -1.8000000E+00;116;  0.0000000E+00;  0.0000000E+00;  0.0000000E+00;  1.0000287E+01;  4.0000001E-01;  3.0910285E-02;0;  0.0000000E+00;  0.0000000E+00;  0.0000000E+00;  0.0000000E+00;  0.0000000E+00;  0.0000000E+00;0; -3.2752323E-05;  1.0000000E+02;  0.0000000E+00;  0.0000000E+00;  1.0000000E+02;  0.0000000E+00;  1.0000000E+02; -2.5164685E-05;  0.0000000E+00; -7.5876387E-06;  0.0000000E+00;
  2.0000000E-01;  9.9999998E-03; -1.6000000E+00;117;  0.0000000E+00;  0.0000000E+00;  0.0000000E+00;  1.0000538E+01;  4.0000001E-01;  5.7844557E-02;0;  0.0000000E+00;  0.0000000E+00;  0.0000000E+00;  0.0000000E+00;  0.0000000E+00;  0.0000000E+00;0; -6.0421658E-05;  1.0000000E+02;  0.0000000E+00;  0.0000000E+00;  1.0000000E+02;  0.0000000E+00;  1.0000000E+02; -5.0794410E-05;  0.0000000E+00; -9.6272488E-06;  0.0000000E+00;
  2.0000000E-01;  9.9999998E-03; -1.4000000E+00;118;  0.0000000E+00;  0.0000000E+00;  0.0000000E+00;  1.0000838E+01;  4.0000001E-01;  9.0165682E-02;0;  0.0000000E+00;  0.0000000E+00;  0.0000000E+00;  0.0000000E+00;  0.0000000E+00;  0.0000000E+00;0; -1.0113068E-04;  1.0000000E+02;  0.0000000E+00;  0.0000000E+00;  1.0000000E+02;  0.0000000E+00;  1.0000000E+02; -9.1605049E-05;  0.0000000E+00; -9.5256319E-06;  0.0000000E+00;
  2.0000000E-01;  9.9999998E-03; -1.2000000E+00;119;  0.0000000E+00;  0.0000000E+00;  0.0000000E+00;  1.0001253E+01;  4.0000001E-01;  1.3479963E-01;0;  0.0000000E+00;  0.0000000E+00;  0.0000000E+00;  0.0000000E+00;  0.0000000E+00;  0.0000000E+00;0; -1.5702413E-04;  1.0000000E+02;  0.0000000E+00;  0.0000000E+00;  1.0000000E+02;  0.0000000E+00;  1.0000000E+02; -1.4971411E-04;  0.0000000E+00; -7.3100246E-06;  0.0000000E+00;
  4.0000001E-01;  9.9999998E-03; -1.8000000E+00;126;  0.0000000E+00;  0.0000000E+00;  0.0000000E+00;  1.0000286E+01;  4.0000001E-01;  3.0780647E-02;0;  0.0000000E+00;  0.0000000E+00;  0.0000000E+00;  0.0000000E+00;  0.0000000E+00;  0.0000000E+00;0; -2.2463035E-05;  1.0000000E+02;  0.0000000E+00;  0.0000000E+00;  1.0000000E+02;  0.0000000E+00;  1.0000000E+02; -1.4975617E-05;  0.0000000E+00; -7.4874188E-06;  0.0000000E+00;
  4.0000001E-01;  9.9999998E-03; -1.6000000E+00;127;  0.0000000E+00;  0.0000000E+00;  0.0000000E+00;  1.0000467E+01;  4.0000001E-01;  5.0275058E-02;0;  0.0000000E+00;  0.0000000E+00;  0.0000000E+00;  0.0000000E+00;  0.0000000E+00;  0.0000000E+00;0; -4.0726249E-05;  1.0000000E+02;  0.0000000E+00;  0.0000000E+00;  1.0000000E+02;  0.0000000E+00;  1.0000000E+02; -3.1702461E-05;  0.0000000E+00; -9.0237882E-06;  0.0000000E+00;
  4.0000001E-01;  9.9999998E-03; -1.4000000E+00;128;  0.0000000E+00;  0.0000000E+00;  0.0000000E+00;  1.0000722E+01;  4.0000001E-01;  7.7721134E-02;0;  0.0000000E+00;  0.0000000E+00;  0.0000000E+00;  0.0000000E+00;  0.0000000E+00;  0.0000000E+00;0; -6.7683068E-05;  1.0000000E+02;  0.0000000E+00;  0.0000000E+00;  1.0000000E+02;  0.0000000E+00;  1.0000000E+02; -5.9248665E-05;  0.0000000E+00; -8.4344010E-06;  0.0000000E+00;
  4.0000001E-01;  9.9999998E-03; -1.2000000E+00;129;  0.0000000E+00;  0.0000000E+00;  0.0000000E+00;  1.0001042E+01;  4.0000001E-01;  1.1209285E-01;0;  0.0000000E+00;  0.0000000E+00;  0.0000000E+00;  0.0000000E+00;  0.0000000E+00;  0.0000000E+00;0; -1.0591290E-04;  1.0000000E+02;  0.0000000E+00;  0.0000000E+00;  1.0000000E+02;  0.0000000E+00;  1.0000000E+02; -1.0022319E-04;  0.0000000E+00; -5.6897152E-06;  0.0000000E+00;
  6.0000002E-01;  9.9999998E-03; -1.8000000E+00;136;  0.0000000E+00;  0.0000000E+00;  0.0000000E+00;  1.0000237E+01;  4.0000001E-01;  2.5391500E-02;0;  0.0000000E+00;  0.0000000E+00;  0.0000000E+00;  0.0000000E+00;  0.0000000E+00;  0.0000000E+00;0; -2.6564942E-06;  1.0000000E+02;  0.0000000E+00;  0.0000000E+00;  1.0000000E+02;  0.0000000E+00;  1.0000000E+02;  2.8213647E-06;  0.0000000E+00; -5.4778588E-06;  0.0000000E+00;
  6.0000002E-01;  9.9999998E-03; -1.6000000E+00;137;  0.0000000E+00;  0.0000000E+00;  0.0000000E+00;  1.0000371E+01;  4.0000001E-01;  3.9882611E-02;0;  0.0000000E+00;  0.0000000E+00;  0.0000000E+00;  0.0000000E+00;  0.0000000E+00;  0.0000000E+00;0; -3.0995436E-06;  1.0000000E+02;  0.0000000E+00;  0.0000000E+00;  1.0000000E+02;  0.0000000E+00;  1.0000000E+02;  2.9645887E-06;  0.0000000E+00; -6.0641323E-06;  0.0000000E+00;
  6.0000002E-01;  9.9999998E-03; -1.4000000E+00;138;  0.0000000E+00;  0.0000000E+00;  0.0000000E+00;  1.0000533E+01;  4.0000001E-01;  5.7323236E-02;0;  0.0000000E+00;  0.0000000E+00;  0.0000000E+00;  0.0000000E+00;  0.0000000E+00;  0.0000000E+00;0; -7.0428077E-06;  1.0000000E+02;  0.0000000E+00;  0.0000000E+00;  1.0000000E+02;  0.0000000E+00;  1.0000000E+02; -1.8856429E-06;  0.0000000E+00; -5.1571647E-06;  0.0000000E+00;
  6.0000002E-01;  9.9999998E-03; -1.2000000E+00;139;  0.0000000E+00;  0.0000000E+00;  0.0000000E+00;  1.0000764E+01;  4.0000001E-01;  8.2201779E-02;0;  0.0000000E+00;  0.0000000E+00;  0.0000000E+00;  0.0000000E+00;  0.0000000E+00;  0.0000000E+00;0; -1.9975367E-05;  1.0000000E+02;  0.0000000E+00;  0.0000000E+00;  1.0000000E+02;  0.0000000E+00;  1.0000000E+02; -1.7408536E-05;  0.0000000E+00; -2.5668312E-06;  0.0000000E+00;
  8.0000001E-01;  9.9999998E-03; -1.8000000E+00;146;  0.0000000E+00;  0.0000000E+00;  0.0000000E+00;  1.0000194E+01;  4.0000001E-01;  2.0770261E-02;0;  0.0000000E+00;  0.0000000E+00;  0.0000000E+00;  0.0000000E+00;  0.0000000E+00;  0.0000000E+00;0;  3.6225578E-05;  1.0000000E+02;  0.0000000E+00;  0.0000000E+00;  1.0000000E+02;  0.0000000E+00;  1.0000000E+02;  3.6598947E-05;  0.0000000E+00; -3.7336898E-07;  0.0000000E+00;
  8.0000001E-01;  9.9999998E-03; -1.6000000E+00;147;  0.0000000E+00;  0.0000000E+00;  0.0000000E+00;  1.0000271E+01;  4.0000001E-01;  2.9104007E-02;0;  0.0000000E+00;  0.0000000E+00;  0.0000000E+00;  0.0000000E+00;  0.0000000E+00;  0.0000000E+00;0;  6.6435990E-05;  1.0000000E+02;  0.0000000E+00;  0.0000000E+00;  1.0000000E+02;  0.0000000E+00;  1.0000000E+02;  6.5832653E-05;  0.0000000E+00;  6.0333349E-07;  0.0000000E+00;
  8.0000001E-01;  9.9999998E-03; -1.4000000E+00;148;  0.0000000E+00;  0.0000000E+00;  0.0000000E+00;  1.0000314E+01;  4.0000001E-01;  3.3719622E-02;0;  0.0000000E+00;  0.0000000E+00;  0.0000000E+00;  0.0000000E+00;  0.0000000E+00;  0.0000000E+00;0;  9.9511657E-05;  1.0000000E+02;  0.0000000E+00;  0.0000000E+00;  1.0000000E+02;  0.0000000E+00;  1.0000000E+02;  9.7481992E-05;  0.0000000E+00;  2.0296634E-06;  0.0000000E+00;
  8.0000001E-01;  9.9999998E-03; -1.2000000E+00;149;  0.0000000E+00;  0.0000000E+00;  0.0000000E+00;  1.0000393E+01;  4.0000001E-01;  4.2309791E-02;0;  0.0000000E+00;  0.0000000E+00;  0.0000000E+00;  0.0000000E+00;  0.0000000E+00;  0.0000000E+00;0;  1.2203383E-04;  1.0000000E+02;  0.0000000E+00;  0.0000000E+00;  1.0000000E+02;  0.0000000E+00;  1.0000000E+02;  1.1818582E-04;  0.0000000E+00;  3.8480166E-06;  0.0000000E+00;
  1.0000000E+00;  9.9999998E-03; -1.8000000E+00;156;  0.0000000E+00;  0.0000000E+00;  0.0000000E+00;  1.0000243E+01;  4.0000001E-01;  2.6142292E-02;0;  0.0000000E+00;  0.0000000E+00;  0.0000000E+00;  0.0000000E+00;  0.0000000E+00;  0.0000000E+00;0;  1.0537403E-04;  1.0000000E+02;  0.0000000E+00;  0.0000000E+00;  1.0000000E+02;  0.0000000E+00;  1.0000000E+02;  9.6603260E-05;  0.0000000E+00;  8.7707676E-06;  0.0000000E+00;
  1.0000000E+00;  9.9999998E-03; -1.6000000E+00;157;  0.0000000E+00;  0.0000000E+00;  0.0000000E+00;  1.0000223E+01;  4.0000001E-01;  2.3963768E-02;0;  0.0000000E+00;  0.0000000E+00;  0.0000000E+00;  0.0000000E+00;  0.0000000E+00;  0.0000000E+00;0;  1.8122398E-04;  1.0000000E+02;  0.0000000E+00;  0.0000000E+00;  1.0000000E+02;  0.0000000E+00;  1.0000000E+02;  1.6931909E-04;  0.0000000E+00;  1.1904895E-05;  0.0000000E+00;
  1.0000000E+00;  9.9999998E-03; -1.4000000E+00;158;  0.0000000E+00;  0.0000000E+00;  0.0000000E+00;  1.0000123E+01;  4.0000001E-01;  1.3199294E-02;0;  0.0000000E+00;  0.0000000E+00;  0.0000000E+00;  0.0000000E+00;  0.0000000E+00;  0.0000000E+00;0;  2.7295781E-04;  1.0000000E+02;  0.0000000E+00;  0.0000000E+00;  1.0000000E+02;  0.0000000E+00;  1.0000000E+02;  2.5791576E-04;  0.0000000E+00;  1.5042046E-05;  0.0000000E+00;
  1.0000000E+00;  9.9999998E-03; -1.2000000E+00;159;  0.0000000E+00;  0.0000000E+00;  0.0000000E+00;  1.0000000E+01;  4.0000001E-01;  0.0000000E+00;0;  0.0000000E+00;  0.0000000E+00;  0.0000000E+00;  0.0000000E+00;  0.0000000E+00;  0.0000000E+00;0;  3.5230411E-04;  1.0000000E+02;  0.0000000E+00;  0.0000000E+00;  1.0000000E+02;  0.0000000E+00;  1.0000000E+02;  3.3558803E-04;  0.0000000E+00;  1.6716069E-05;  0.0000000E+00;
 -1.0000000E+00;  9.9999998E-03;  0.0000000E+00;10;  0.0000000E+00;  0.0000000E+00;  0.0000000E+00;  1.0000712E+01;  4.0000001E-01;  7.6701343E-02;0;  0.0000000E+00;  0.0000000E+00;  0.0000000E+00;  0.0000000E+00;  0.0000000E+00;  0.0000000E+00;0; -1.0957014E-04;  1.0000000E+02;  0.0000000E+00;  0.0000000E+00;  1.0000000E+02;  0.0000000E+00;  1.0000000E+02; -1.1115868E-04;  0.0000000E+00;  1.5885382E-06;  0.0000000E+00;
 -1.0000000E+00;  9.9999998E-03;  2.0000000E-01;11;  0.0000000E+00;  0.0000000E+00;  0.0000000E+00;  1.0000699E+01;  4.0000001E-01;  7.5162187E-02;0;  0.0000000E+00;  0.0000000E+00;  0.0000000E+00;  0.0000000E+00;  0.0000000E+00;  0.0000000E+00;0; -1.0776789E-04;  1.0000000E+02;  0.0000000E+00;  0.0000000E+00;  1.0000000E+02;  0.0000000E+00;  1.0000000E+02; -1.0921679E-04;  0.0000000E+00;  1.4489053E-06;  0.0000000E+00;
 -1.0000000E+00;  9.9999998E-03;  4.0000001E-01;12;  0.0000000E+00;  0.0000000E+00;  0.0000000E+00;  1.0000669E+01;  4.0000001E-01;  7.2083868E-02;0;  0.0000000E+00;  0.0000000E+00;  0.0000000E+00;  0.0000000E+00;  0.0000000E+00;  0.0000000E+00;0; -1.0191578E-04;  1.0000000E+02;  0.0000000E+00;  0.0000000E+00;  1.0000000E+02;  0.0000000E+00;  1.0000000E+02; -1.0296343E-04;  0.0000000E+00;  1.0476530E-06;  0.0000000E+00;
 -1.0000000E+00;  9.9999998E-03;  6.0000002E-01;13;  0.0000000E+00;  0.0000000E+00;  0.0000000E+00;  1.0000590E+01;  4.0000001E-01;  6.3490242E-02;0;  0.0000000E+00;  0.0000000E+00;  0.0000000E+00;  0.0000000E+00;  0.0000000E+00;  0.0000000E+00;0; -9.1282760E-05;  1.0000000E+02;  0.0000000E+00;  0.0000000E+00;  1.0000000E+02;  0.0000000E+00;  1.0000000E+02; -9.1727634E-05;  0.0000000E+00;  4.4487467E-07;  0.0000000E+00;
 -1.0000000E+00;  9.9999998E-03;  8.0000001E-01;14;  0.0000000E+00;  0.0000000E+00;  0.0000000E+00;  1.0000485E+01;  4.0000001E-01;  5.2203085E-02;0;  0.0000000E+00;  0.0000000E+00;  0.0000000E+00;  0.0000000E+00;  0.0000000E+00;  0.0000000E+00;0; -7.6010714E-05;  1.0000000E+02;  0.0000000E+00;  0.0000000E+00;  1.0000000E+02;  0.0000000E+00;  1.0000000E+02; -7.5798904E-05;  0.0000000E+00; -2.1181150E-07;  0.0000000E+00;
 -1.0000000E+00;  9.9999998E-03;  1.0000000E+00;15;  0.0000000E+00;  0.0000000E+00;  0.0000000E+00;  1.0000373E+01;  4.0000001E-01;  4.0146355E-02;0;  0.0000000E+00;  0.0000000E+00;  0.0000000E+00;  0.0000000E+00;  0.0000000E+00;  0.0000000E+00;0; -5.7799625E-05;  1.0000000E+02;  0.0000000E+00;  0.0000000E+00;  1.0000000E+02;  0.0000000E+00;  1.0000000E+02; -5.7039102E-05;  0.0000000E+00; -7.6052385E-07;  0.0000000E+00;
 -1.0000000E+00;  9.9999998E-03;  1.2000000E+00;16;  0.0000000E+00;  0.0000000E+00;  0.0000000E+00;  1.0000241E+01;  4.0000001E-01;  2.5909148E-02;0;  0.0000000E+00;  0.0000000E+00;  0.0000000E+00;  0.0000000E+00;  0.0000000E+00;  0.0000000E+00;0; -3.9577892E-05;  1.0000000E+02;  0.0000000E+00;  0.0000000E+00;  1.0000000E+02;  0.0000000E+00;  1.0000000E+02; -3.8480903E-05;  0.0000000E+00; -1.0969893E-06;  0.0000000E+00;
 -1.0000000E+00;  9.9999998E-03;  1.4000000E+00;17;  0.0000000E+00;  0.0000000E+00;  0.0000000E+00;  1.0000200E+01;  4.0000001E-01;  2.1548202E-02;0;  0.0000000E+00;  0.0000000E+00;  0.0000000E+00;  0.0000000E+00;  0.0000000E+00;  0.0000000E+00;0; -2.4184774E-05;  1.0000000E+02;  0.0000000E+00;  0.0000000E+00;  1.0000000E+02;  0.0000000E+00;  1.0000000E+02; -2.3006949E-05;  0.0000000E+00; -1.1778238E-06;  0.0000000E+00;
 -8.0000001E-01;  9.9999998E-03;  0.0000000E+00;31;  0.0000000E+00;  0.0000000E+00;  0.0000000E+00;  1.0001548E+01;  4.0000001E-01;  1.6648544E-01;0;  0.0000000E+00;  0.0000000E+00;  0.0000000E+00;  0.0000000E+00;  0.0000000E+00;  0.0000000E+00;0; -2.3702174E-04;  1.0000000E+02;  0.0000000E+00;  0.0000000E+00;  1.0000000E+02;  0.0000000E+00;  1.0000000E+02; -2.4012913E-04;  0.0000000E+00;  3.1073903E-06;  0.0000000E+00;
 -8.0000001E-01;  9.9999998E-03;  2.0000000E-01;32;  0.0000000E+00;  0.0000000E+00;  0.0000000E+00;  1.0001521E+01;  4.0000001E-01;  1.6366366E-01;0;  0.0000000E+00;  0.0000000E+00;  0.0000000E+00;  0.0000000E+00;  0.0000000E+00;  0.0000000E+00;0; -2.3267046E-04;  1.0000000E+02;  0.0000000E+00;  0.0000000E+00;  1.0000000E+02;  0.0000000E+00;  1.0000000E+02; -2.3548791E-04;  0.0000000E+00;  2.8174509E-06;  0.0000000E+00;
 -8.0000001E-01;  9.9999998E-03;  4.0000001E-01;33;  0.0000000E+00;  0.0000000E+00;  0.0000000E+00;  1.0001425E+01;  4.0000001E-01;  1.5327436E-01;0;  0.0000000E+00;  0.0000000E+00;  0.0000000E+00;  0.0000000E+00;  0.0000000E+00;  0.0000000E+00;0; -2.1909943E-04;  1.0000000E+02;  0.0000000E+00;  0.0000000E+00;  1.0000000E+02;  0.0000000E+00;  1.0000000E+02; -2.2111741E-04;  0.0000000E+00;  2.0179805E-06;  0.0000000E+00;
 -8.0000001E-01;  9.9999998E-03;  6.0000002E-01;34;  0.0000000E+00;  0.0000000E+00;  0.0000000E+00;  1.0001268E+01;  4.0000001E-01;  1.3647190E-01;0;  0.0000000E+00;  0.0000000E+00;  0.0000000E+00;  0.0000000E+00;  0.0000000E+00;  0.0000000E+00;0; -1.9554143E-04;  1.0000000E+02;  0.0000000E+00;  0.0000000E+00;  1.0000000E+02;  0.0000000E+00;  1.0000000E+02; -1.9642209E-04;  0.0000000E+00;  8.8065866E-07;  0.0000000E+00;
 -8.0000001E-01;  9.9999998E-03;  8.0000001E-01;35;  0.0000000E+00;  0.0000000E+00;  0.0000000E+00;  1.0001058E+01;  4.0000001E-01;  1.1376933E-01;0;  0.0000000E+00;  0.0000000E+00;  0.0000000E+00;  0.0000000E+00;  0.0000000E+00;  0.0000000E+00;0; -1.6281307E-04;  1.0000000E+02;  0.0000000E+00;  0.0000000E+00;  1.0000000E+02;  0.0000000E+00;  1.0000000E+02; -1.6247682E-04;  0.0000000E+00; -3.3624877E-07;  0.0000000E+00;
 -8.0000001E-01;  9.9999998E-03;  1.0000000E+00;36;  0.0000000E+00;  0.0000000E+00;  0.0000000E+00;  1.0000805E+01;  4.0000001E-01;  8.6577564E-02;0;  0.0000000E+00;  0.0000000E+00;  0.0000000E+00;  0.0000000E+00;  0.0000000E+00;  0.0000000E+00;0; -1.2457973E-04;  1.0000000E+02;  0.0000000E+00;  0.0000000E+00;  1.0000000E+02;  0.0000000E+00;  1.0000000E+02; -1.2321433E-04;  0.0000000E+00; -1.3653994E-06;  0.0000000E+00;
 -8.0000001E-01;  9.9999998E-03;  1.2000000E+00;37;  0.0000000E+00;  0.0000000E+00;  0.0000000E+00;  1.0000555E+01;  4.0000001E-01;  5.9770584E-02;0;  0.0000000E+00;  0.0000000E+00;  0.0000000E+00;  0.0000000E+00;  0.0000000E+00;  0.0000000E+00;0; -8.6637694E-05;  1.0000000E+02;  0.0000000E+00;  0.0000000E+00;  1.0000000E+02;  0.0000000E+00;  1.0000000E+02; -8.4605919E-05;  0.0000000E+00; -2.0317741E-06;  0.0000000E+00;
 -8.0000001E-01;  9.9999998E-03;  1.4000000E+00;38;  0.0000000E+00;  0.0000000E+00;  0.0000000E+00;  1.0000351E+01;  4.0000001E-01;  3.7709337E-02;0;  0.0000000E+00;  0.0000000E+00;  0.0000000E+00;  0.0000000E+00;  0.0000000E+00;  0.0000000E+00;0; -5.4432519E-05;  1.0000000E+02;  0.0000000E+00;  0.0000000E+00;  1.0000000E+02;  0.0000000E+00;  1.0000000E+02; -5.2179257E-05;  0.0000000E+00; -2.2532633E-06;  0.0000000E+00;
 -6.0000002E-01;  9.9999998E-03;  0.0000000E+00;52;  0.0000000E+00;  0.0000000E+00;  0.0000000E+00;  1.0002452E+01;  4.0000001E-01;  2.6383689E-01;0;  0.0000000E+00;  0.0000000E+00;  0.0000000E+00;  0.0000000E+00;  0.0000000E+00;  0.0000000E+00;0; -3.7257027E-04;  1.0000000E+02;  0.0000000E+00;  0.0000000E+00;  1.0000000E+02;  0.0000000E+00;  1.0000000E+02; -3.7761519E-04;  0.0000000E+00;  5.0449239E-06;  0.0000000E+00;
 -6.0000002E-01;  9.9999998E-03;  2.0000000E-01;53;  0.0000000E+00;  0.0000000E+00;  0.0000000E+00;  1.0002405E+01;  4.0000001E-01;  2.5883463E-01;0;  0.0000000E+00;  0.0000000E+00;  0.0000000E+00;  0.0000000E+00;  0.0000000E+00;  0.0000000E+00;0; -3.6523049E-04;  1.0000000E+02;  0.0000000E+00;  0.0000000E+00;  1.0000000E+02;  0.0000000E+00;  1.0000000E+02; -3.6983268E-04;  0.0000000E+00;  4.6021842E-06;  0.0000000E+00;
 -6.0000002E-01;  9.9999998E-03;  4.0000001E-01;54;  0.0000000E+00;  0.0000000E+00;  0.0000000E+00;  1.0002256E+01;  4.0000001E-01;  2.4280177E-01;0;  0.0000000E+00;  0.0000000E+00;  0.0000000E+00;  0.0000000E+00;  0.0000000E+00;  0.0000000E+00;0; -3.4285878E-04;  1.0000000E+02;  0.0000000E+00;  0.0000000E+00;  1.0000000E+02;  0.0000000E+00;  1.0000000E+02; -3.4621917E-04;  0.0000000E+00;  3.3603969E-06;  0.0000000E+00;
 -6.0000002E-01;  9.9999998E-03;  6.0000002E-01;55;  0.0000000E+00;  0.0000000E+00;  0.0000000E+00;  1.0002007E+01;  4.0000001E-01;  2.1586655E-01;0;  0.0000000E+00;  0.0000000E+00;  0.0000000E+00;  0.0000000E+00;  0.0000000E+00;  0.0000000E+00;0; -3.0515000E-04;  1.0000000E+02;  0.0000000E+00;  0.0000000E+00;  1.0000000E+02;  0.0000000E+00;  1.0000000E+02; -3.0671558E-04;  0.0000000E+00;  1.5655763E-06;  0.0000000E+00;
 -6.0000002E-01;  9.9999998E-03;  8.0000001E-01;56;  0.0000000E+00;  0.0000000E+00;  0.0000000E+00;  1.0001671E+01;  4.0000001E-01;  1.7982467E-01;0;  0.0000000E+00;  0.0000000E+00;  0.0000000E+00;  0.0000000E+00;  0.0000000E+00;  0.0000000E+00;0; -2.5387522E-04;  1.0000000E+02;  0.0000000E+00;  0.0000000E+00;  1.0000000E+02;  0.0000000E+00;  1.0000000E+02; -2.5347175E-04;  0.0000000E+00; -4.0345441E-07;  0.0000000E+00;
 -6.0000002E-01;  9.9999998E-03;  1.0000000E+00;57;  0.0000000E+00;  0.0000000E+00;  0.0000000E+00;  1.0001276E+01;  4.0000001E-01;  1.3724136E-01;0;  0.0000000E+00;  0.0000000E+00;  0.0000000E+00;  0.0000000E+00;  0.0000000E+00;  0.0000000E+00;0; -1.9469786E-04;  1.0000000E+02;  0.0000000E+00;  0.0000000E+00;  1.0000000E+02;  0.0000000E+00;  1.0000000E+02; -1.9257165E-04;  0.0000000E+00; -2.1262058E-06;  0.0000000E+00;
 -6.0000002E-01;  9.9999998E-03;  1.2000000E+00;58;  0.0000000E+00;  0.0000000E+00;  0.0000000E+00;  1.0000901E+01;  4.0000001E-01;  9.6966796E-02;0;  0.0000000E+00;  0.0000000E+00;  0.0000000E+00;  0.0000000E+00;  0.0000000E+00;  0.0000000E+00;0; -1.3628630E-04;  1.0000000E+02;  0.0000000E+00;  0.0000000E+00;  1.0000000E+02;  0.0000000E+00;  1.0000000E+02; -1.3299716E-04;  0.0000000E+00; -3.2891337E-06;  0.0000000E+00;
 -6.0000002E-01;  9.9999998E-03;  1.4000000E+00;59;  0.0000000E+00;  0.0000000E+00;  0.0000000E+00;  1.0000571E+01;  4.0000001E-01;  6.1437953E-02;0;  0.0000000E+00;  0.0000000E+00;  0.0000000E+00;  0.0000000E+00;  0.0000000E+00;  0.0000000E+00;0; -8.6732020E-05;  1.0000000E+02;  0.0000000E+00;  0.0000000E+00;  1.0000000E+02;  0.0000000E+00;  1.0000000E+02; -8.3004183E-05;  0.0000000E+00; -3.7278355E-06;  0.0000000E+00;
 -4.0000001E-01;  9.9999998E-03;  0.0000000E+00;73;  0.0000000E+00;  0.0000000E+00;  0.0000000E+00;  1.0003160E+01;  4.0000001E-01;  3.4002447E-01;0;  0.0000000E+00;  0.0000000E+00;  0.0000000E+00;  0.0000000E+00;  0.0000000E+00;  0.0000000E+00;0; -4.7569803E-04;  1.0000000E+02;  0.0000000E+00;  0.0000000E+00;  1.0000000E+02;  0.0000000E+00;  1.0000000E+02; -4.8291055E-04;  0.0000000E+00;  7.2125163E-06;  0.0000000E+00;
 -4.0000001E-01;  9.9999998E-03;  2.0000000E-01;74;  0.0000000E+00;  0.0000000E+00;  0.0000000E+00;  1.0003098E+01;  4.0000001E-01;  3.3335480E-01;0;  0.0000000E+00;  0.0000000E+00;  0.0000000E+00;  0.0000000E+00;  0.0000000E+00;  0.0000000E+00;0; -4.6569353E-04;  1.0000000E+02;  0.0000000E+00;  0.0000000E+00;  1.0000000E+02;  0.0000000E+00;  1.0000000E+02; -4.7235456E-04;  0.0000000E+00;  6.6610146E-06;  0.0000000E+00;
 -4.0000001E-01;  9.9999998E-03;  4.0000001E-01;75;  0.0000000E+00;  0.0000000E+00;  0.0000000E+00;  1.0002896E+01;  4.0000001E-01;  3.1167841E-01;0;  0.0000000E+00;  0.0000000E+00;  0.0000000E+00;  0.0000000E+00;  0.0000000E+00;  0.0000000E+00;0; -4.3578041E-04;  1.0000000E+02;  0.0000000E+00;  0.0000000E+00;  1.0000000E+02;  0.0000000E+00;  1.0000000E+02; -4.4082056E-04;  0.0000000E+00;  5.0401350E-06;  0.0000000E+00;
 -4.0000001E-01;  9.9999998E-03;  6.0000002E-01;76;  0.0000000E+00;  0.0000000E+00;  0.0000000E+00;  1.0002577E+01;  4.0000001E-01;  2.7730399E-01;0;  0.0000000E+00;  0.0000000E+00;  0.0000000E+00;  0.0000000E+00;  0.0000000E+00;  0.0000000E+00;0; -3.8658650E-04;  1.0000000E+02;  0.0000000E+00;  0.0000000E+00;  1.0000000E+02;  0.0000000E+00;  1.0000000E+02; -3.8913958E-04;  0.0000000E+00;  2.5530724E-06;  0.0000000E+00;
 -4.0000001E-01;  9.9999998E-03;  8.0000001E-01;77;  0.0000000E+00;  0.0000000E+00;  0.0000000E+00;  1.0002139E+01;  4.0000001E-01;  2.3010331E-01;0;  0.0000000E+00;  0.0000000E+00;  0.0000000E+00;  0.0000000E+00;  0.0000000E+00;  0.0000000E+00;0; -3.2087296E-04;  1.0000000E+02;  0.0000000E+00;  0.0000000E+00;  1.0000000E+02;  0.0000000E+00;  1.0000000E+02; -3.2053926E-04;  0.0000000E+00; -3.3369744E-07;  0.0000000E+00;
 -4.0000001E-01;  9.9999998E-03;  1.0000000E+00;78;  0.0000000E+00;  0.0000000E+00;  0.0000000E+00;  1.0001646E+01;  4.0000001E-01;  1.7713082E-01;0;  0.0000000E+00;  0.0000000E+00;  0.0000000E+00;  0.0000000E+00;  0.0000000E+00;  0.0000000E+00;0; -2.4569713E-04;  1.0000000E+02;  0.0000000E+00;  0.0000000E+00;  1.0000000E+02;  0.0000000E+00;  1.0000000E+02; -2.4270306E-04;  0.0000000E+00; -2.9940679E-06;  0.0000000E+00;
 -4.0000001E-01;  9.9999998E-03;  1.2000000E+00;79;  0.0000000E+00;  0.0000000E+00;  0.0000000E+00;  1.0001161E+01;  4.0000001E-01;  1.2492789E-01;0;  0.0000000E+00;  0.0000000E+00;  0.0000000E+00;  0.0000000E+00;  0.0000000E+00;  0.0000000E+00;0; -1.7185530E-04;  1.0000000E+02;  0.0000000E+00;  0.0000000E+00;  1.0000000E+02;  0.0000000E+00;  1.0000000E+02; -1.6700670E-04;  0.0000000E+00; -4.8485940E-06;  0.0000000E+00;
 -4.0000001E-01;  9.9999998E-03;  1.4000000E+00;80;  0.0000000E+00;  0.0000000E+00;  0.0000000E+00;  1.0000750E+01;  4.0000001E-01;  8.0677249E-02;0;  0.0000000E+00;  0.0000000E+00;  0.0000000E+00;  0.0000000E+00;  0.0000000E+00;  0.0000000E+00;0; -1.0973714E-04;  1.0000000E+02;  0.0000000E+00;  0.0000000E+00;  1.0000000E+02;  0.0000000E+00;  1.0000000E+02; -1.0415442E-04;  0.0000000E+00; -5.5827245E-06;  0.0000000E+00;
 -2.0000000E-01;  9.9999998E-03;  0.0000000E+00;94;  0.0000000E+00;  0.0000000E+00;  0.0000000E+00;  1.0003592E+01;  4.0000001E-01;  3.8658226E-01;0;  0.0000000E+00;  0.0000000E+00;  0.0000000E+00;  0.0000000E+00;  0.0000000E+00;  0.0000000E+00;0; -5.3340360E-04;  1.0000000E+02;  0.0000000E+00;  0.0000000E+00;  1.0000000E+02;  0.0000000E+00;  1.0000000E+02; -5.4266601E-04;  0.0000000E+00;  9.2624332E-06;  0.0000000E+00;
 -2.0000000E-01;  9.9999998E-03;  2.0000000E-01;95;  0.0000000E+00;  0.0000000E+00;  0.0000000E+00;  1.0003518E+01;  4.0000001E-01;  3.7850174E-01;0;  0.0000000E+00;  0.0000000E+00;  0.0000000E+00;  0.0000000E+00;  0.0000000E+00;  0.0000000E+00;0; -5.2132906E-04;  1.0000000E+02;  0.0000000E+00;  0.0000000E+00;  1.0000000E+02;  0.0000000E+00;  1.0000000E+02; -5.2998430E-04;  0.0000000E+00;  8.6552291E-06;  0.0000000E+00;
 -2.0000000E-01;  9.9999998E-03;  4.0000001E-01;96;  0.0000000E+00;  0.0000000E+00;  0.0000000E+00;  1.0003281E+01;  4.0000001E-01;  3.5297757E-01;0;  0.0000000E+00;  0.0000000E+00;  0.0000000E+00;  0.0000000E+00;  0.0000000E+00;  0.0000000E+00;0; -4.8578787E-04;  1.0000000E+02;  0.0000000E+00;  0.0000000E+00;  1.0000000E+02;  0.0000000E+00;  1.0000000E+02; -4.9259566E-04;  0.0000000E+00;  6.8078034E-06;  0.0000000E+00;
 -2.0000000E-01;  9.9999998E-03;  6.0000002E-01;97;  0.0000000E+00;  0.0000000E+00;  0.0000000E+00;  1.0002914E+01;  4.0000001E-01;  3.1360108E-01;0;  0.0000000E+00;  0.0000000E+00;  0.0000000E+00;  0.0000000E+00;  0.0000000E+00;  0.0000000E+00;0; -4.2890542E-04;  1.0000000E+02;  0.0000000E+00;  0.0000000E+00;  1.0000000E+02;  0.0000000E+00;  1.0000000E+02; -4.3267969E-04;  0.0000000E+00;  3.7742579E-06;  0.0000000E+00;
 -2.0000000E-01;  9.9999998E-03;  8.0000001E-01;98;  0.0000000E+00;  0.0000000E+00;  0.0000000E+00;  1.0002421E+01;  4.0000001E-01;  2.6050052E-01;0;  0.0000000E+00;  0.0000000E+00;  0.0000000E+00;  0.0000000E+00;  0.0000000E+00;  0.0000000E+00;0; -3.5468230E-04;  1.0000000E+02;  0.0000000E+00;  0.0000000E+00;  1.0000000E+02;  0.0000000E+00;  1.0000000E+02; -3.5465538E-04;  0.0000000E+00; -2.6916226E-08;  0.0000000E+00;
 -2.0000000E-01;  9.9999998E-03;  1.0000000E+00;99;  0.0000000E+00;  0.0000000E+00;  0.0000000E+00;  1.0001867E+01;  4.0000001E-01;  2.0085859E-01;0;  0.0000000E+00;  0.0000000E+00;  0.0000000E+00;  0.0000000E+00;  0.0000000E+00;  0.0000000E+00;0; -2.7069505E-04;  1.0000000E+02;  0.0000000E+00;  0.0000000E+00;  1.0000000E+02;  0.0000000E+00;  1.0000000E+02; -2.6689481E-04;  0.0000000E+00; -3.8002233E-06;  0.0000000E+00;
 -2.0000000E-01;  9.9999998E-03;  1.2000000E+00;100;  0.0000000E+00;  0.0000000E+00;  0.0000000E+00;  1.0001317E+01;  4.0000001E-01;  1.4172973E-01;0;  0.0000000E+00;  0.0000000E+00;  0.0000000E+00;  0.0000000E+00;  0.0000000E+00;  0.0000000E+00;0; -1.8839758E-04;  1.0000000E+02;  0.0000000E+00;  0.0000000E+00;  1.0000000E+02;  0.0000000E+00;  1.0000000E+02; -1.8189248E-04;  0.0000000E+00; -6.5050986E-06;  0.0000000E+00;
 -2.0000000E-01;  9.9999998E-03;  1.4000000E+00;101;  0.0000000E+00;  0.0000000E+00;  0.0000000E+00;  1.0000853E+01;  4.0000001E-01;  9.1707468E-02;0;  0.0000000E+00;  0.0000000E+00;  0.0000000E+00;  0.0000000E+00;  0.0000000E+00;  0.0000000E+00;0; -1.2013398E-04;  1.0000000E+02;  0.0000000E+00;  0.0000000E+00;  1.0000000E+02;  0.0000000E+00;  1.0000000E+02; -1.1255347E-04;  0.0000000E+00; -7.5805087E-06;  0.0000000E+00;
  0.0000000E+00;  9.9999998E-03;  1.2000000E+00;110;  0.0000000E+00;  0.0000000E+00;  0.0000000E+00;  1.0001351E+01;  4.0000001E-01;  1.4544801E-01;0;  0.0000000E+00;  0.0000000E+00;  0.0000000E+00;  0.0000000E+00;  0.0000000E+00;  0.0000000E+00;0; -1.8383762E-04;  1.0000000E+02;  0.0000000E+00;  0.0000000E+00;  1.0000000E+02;  0.0000000E+00;  1.0000000E+02; -1.7623209E-04;  0.0000000E+00; -7.6055267E-06;  0.0000000E+00;
  0.0000000E+00;  9.9999998E-03;  1.4000000E+00;111;  0.0000000E+00;  0.0000000E+00;  0.0000000E+00;  1.0000873E+01;  4.0000001E-01;  9.3887076E-02;0;  0.0000000E+00;  0.0000000E+00;  0.0000000E+00;  0.0000000E+00;  0.0000000E+00;  0.0000000E+00;0; -1.1755435E-04;  1.0000000E+02;  0.0000000E+00;  0.0000000E+00;  1.0000000E+02;  0.0000000E+00;  1.0000000E+02; -1.0843503E-04;  0.0000000E+00; -9.1193224E-06;  0.0000000E+00;
  2.0000000E-01;  9.9999998E-03;  1.2000000E+00;120;  0.0000000E+00;  0.0000000E+00;  0.0000000E+00;  1.0001253E+01;  4.0000001E-01;  1.3479963E-01;0;  0.0000000E+00;  0.0000000E+00;  0.0000000E+00;  0.0000000E+00;  0.0000000E+00;  0.0000000E+00;0; -1.5702413E-04;  1.0000000E+02;  0.0000000E+00;  0.0000000E+00;  1.0000000E+02;  0.0000000E+00;  1.0000000E+02; -1.4971411E-04;  0.0000000E+00; -7.3100300E-06;  0.0000000E+00;
  2.0000000E-01;  9.9999998E-03;  1.4000000E+00;121;  0.0000000E+00;  0.0000000E+00;  0.0000000E+00;  1.0000838E+01;  4.0000001E-01;  9.0165682E-02;0;  0.0000000E+00;  0.0000000E+00;  0.0000000E+00;  0.0000000E+00;  0.0000000E+00;  0.0000000E+00;0; -1.0113069E-04;  1.0000000E+02;  0.0000000E+00;  0.0000000E+00;  1.0000000E+02;  0.0000000E+00;  1.0000000E+02; -9.1605049E-05;  0.0000000E+00; -9.5256364E-06;  0.0000000E+00;
  4.0000001E-01;  9.9999998E-03;  1.2000000E+00;130;  0.0000000E+00;  0.0000000E+00;  0.0000000E+00;  1.0001042E+01;  4.0000001E-01;  1.1209285E-01;0;  0.0000000E+00;  0.0000000E+00;  0.0000000E+00;  0.0000000E+00;  0.0000000E+00;  0.0000000E+00;0; -1.0591291E-04;  1.0000000E+02;  0.0000000E+00;  0.0000000E+00;  1.0000000E+02;  0.0000000E+00;  1.0000000E+02; -1.0022319E-04;  0.0000000E+00; -5.6897215E-06;  0.0000000E+00;
  4.0000001E-01;  9.9999998E-03;  1.4000000E+00;131;  0.0000000E+00;  0.0000000E+00;  0.0000000E+00;  1.0000722E+01;  4.0000001E-01;  7.7721134E-02;0;  0.0000000E+00;  0.0000000E+00;  0.0000000E+00;  0.0000000E+00;  0.0000000E+00;  0.0000000E+00;0; -6.7683053E-05;  1.0000000E+02;  0.0000000E+00;  0.0000000E+00;  1.0000000E+02;  0.0000000E+00;  1.0000000E+02; -5.9248654E-05;  0.0000000E+00; -8.4344010E-06;  0.0000000E+00;
  6.0000002E-01;  9.9999998E-03;  1.2000000E+00;140;  0.0000000E+00;  0.0000000E+00;  0.0000000E+00;  1.0000764E+01;  4.0000001E-01;  8.2201779E-02;0;  0.0000000E+00;  0.0000000E+00;  0.0000000E+00;  0.0000000E+00;  0.0000000E+00;  0.0000000E+00;0; -1.9975358E-05;  1.0000000E+02;  0.0000000E+00;  0.0000000E+00;  1.0000000E+02;  0.0000000E+00;  1.0000000E+02; -1.7408531E-05;  0.0000000E+00; -2.5668267E-06;  0.0000000E+00;
  6.0000002E-01;  9.9999998E-03;  1.4000000E+00;141;  0.0000000E+00;  0.0000000E+00;  0.0000000E+00;  1.0000533E+01;  4.0000001E-01;  5.7323236E-02;0;  0.0000000E+00;  0.0000000E+00;  0.0000000E+00;  0.0000000E+00;  0.0000000E+00;  0.0000000E+00;0; -7.0428046E-06;  1.0000000E+02;  0.0000000E+00;  0.0000000E+00;  1.0000000E+02;  0.0000000E+00;  1.0000000E+02; -1.8856468E-06;  0.0000000E+00; -5.1571578E-06;  0.0000000E+00;
  8.0000001E-01;  9.9999998E-03;  1.2000000E+00;150;  0.0000000E+00;  0.0000000E+00;  0.0000000E+00;  1.0000393E+01;  4.0000001E-01;  4.2309791E-02;0;  0.0000000E+00;  0.0000000E+00;  0.0000000E+00;  0.0000000E+00;  0.0000000E+00;  0.0000000E+00;0;  1.2203390E-04;  1.0000000E+02;  0.0000000E+00;  0.0000000E+00;  1.0000000E+02;  0.0000000E+00;  1.0000000E+02;  1.1818587E-04;  0.0000000E+00;  3.8480307E-06;  0.0000000E+00;
  8.0000001E-01;  9.9999998E-03;  1.4000000E+00;151;  0.0000000E+00;  0.0000000E+00;  0.0000000E+00;  1.0000314E+01;  4.0000001E-01;  3.3719622E-02;0;  0.0000000E+00;  0.0000000E+00;  0.0000000E+00;  0.0000000E+00;  0.0000000E+00;  0.0000000E+00;0;  9.9511664E-05;  1.0000000E+02;  0.0000000E+00;  0.0000000E+00;  1.0000000E+02;  0.0000000E+00;  1.0000000E+02;  9.7481992E-05;  0.0000000E+00;  2.0296741E-06;  0.0000000E+00;
  1.0000000E+00;  9.9999998E-03;  1.2000000E+00;160;  0.0000000E+00;  0.0000000E+00;  0.0000000E+00;  1.0000000E+01;  4.0000001E-01;  0.0000000E+00;0;  0.0000000E+00;  0.0000000E+00;  0.0000000E+00;  0.0000000E+00;  0.0000000E+00;  0.0000000E+00;0;  3.5230425E-04;  1.0000000E+02;  0.0000000E+00;  0.0000000E+00;  1.0000000E+02;  0.0000000E+00;  1.0000000E+02;  3.3558815E-04;  0.0000000E+00;  1.6716091E-05;  0.0000000E+00;
  1.0000000E+00;  9.9999998E-03;  1.4000000E+00;161;  0.0000000E+00;  0.0000000E+00;  0.0000000E+00;  1.0000123E+01;  4.0000001E-01;  1.3199294E-02;0;  0.0000000E+00;  0.0000000E+00;  0.0000000E+00;  0.0000000E+00;  0.0000000E+00;  0.0000000E+00;0;  2.7295790E-04;  1.0000000E+02;  0.0000000E+00;  0.0000000E+00;  1.0000000E+02;  0.0000000E+00;  1.0000000E+02;  2.5791582E-04;  0.0000000E+00;  1.5042075E-05;  0.0000000E+00;
 -1.0000000E+00;  9.9999998E-03;  1.6000000E+00;18;  0.0000000E+00;  0.0000000E+00;  0.0000000E+00;  1.0000038E+01;  4.0000001E-01;  4.1044196E-03;0;  0.0000000E+00;  0.0000000E+00;  0.0000000E+00;  0.0000000E+00;  0.0000000E+00;  0.0000000E+00;0; -1.3092205E-05;  1.0000000E+02;  0.0000000E+00;  0.0000000E+00;  1.0000000E+02;  0.0000000E+00;  1.0000000E+02; -1.2085188E-05;  0.0000000E+00; -1.0070171E-06;  0.0000000E+00;
 -1.0000000E+00;  9.9999998E-03;  1.8000000E+00;19;  0.0000000E+00;  0.0000000E+00;  0.0000000E+00;  1.0000000E+01;  4.0000001E-01;  0.0000000E+00;0;  0.0000000E+00;  0.0000000E+00;  0.0000000E+00;  0.0000000E+00;  0.0000000E+00;  0.0000000E+00;0; -6.0839061E-06;  1.0000000E+02;  0.0000000E+00;  0.0000000E+00;  1.0000000E+02;  0.0000000E+00;  1.0000000E+02; -5.4383859E-06;  0.0000000E+00; -6.4552023E-07;  0.0000000E+00;
 -1.0000000E+00;  9.9999998E-03;  2.0000000E+00;20;  0.0000000E+00;  0.0000000E+00;  0.0000000E+00;  1.0000000E+01;  4.0000001E-01;  0.0000000E+00;0;  0.0000000E+00;  0.0000000E+00;  0.0000000E+00;  0.0000000E+00;  0.0000000E+00;  0.0000000E+00;0; -2.0829432E-06;  1.0000000E+02;  0.0000000E+00;  0.0000000E+00;  1.0000000E+02;  0.0000000E+00;  1.0000000E+02; -1.8290671E-06;  0.0000000E+00; -2.5387610E-07;  0.0000000E+00;
 -8.0000001E-01;  9.9999998E-03;  1.6000000E+00;39;  0.0000000E+00;  0.0000000E+00;  0.0000000E+00;  1.0000203E+01;  4.0000001E-01;  2.1804720E-02;0;  0.0000000E+00;  0.0000000E+00;  0.0000000E+00;  0.0000000E+00;  0.0000000E+00;  0.0000000E+00;0; -3.0743620E-05;  1.0000000E+02;  0.0000000E+00;  0.0000000E+00;  1.0000000E+02;  0.0000000E+00;  1.0000000E+02; -2.8731725E-05;  0.0000000E+00; -2.0118935E-06;  0.0000000E+00;
 -8.0000001E-01;  9.9999998E-03;  1.8000000E+00;40;  0.0000000E+00;  0.0000000E+00;  0.0000000E+00;  1.0000087E+01;  4.0000001E-01;  9.3632033E-03;0;  0.0000000E+00;  0.0000000E+00;  0.0000000E+00;  0.0000000E+00;  0.0000000E+00;  0.0000000E+00;0; -1.5241352E-05;  1.0000000E+02;  0.0000000E+00;  0.0000000E+00;  1.0000000E+02;  0.0000000E+00;  1.0000000E+02; -1.3864942E-05;  0.0000000E+00; -1.3764106E-06;  0.0000000E+00;
 -8.0000001E-01;  9.9999998E-03;  2.0000000E+00;41;  0.0000000E+00;  0.0000000E+00;  0.0000000E+00;  1.0000000E+01;  4.0000001E-01;  0.0000000E+00;0;  0.0000000E+00;  0.0000000E+00;  0.0000000E+00;  0.0000000E+00;  0.0000000E+00;  0.0000000E+00;0; -6.0129469E-06;  1.0000000E+02;  0.0000000E+00;  0.0000000E+00;  1.0000000E+02;  0.0000000E+00;  1.0000000E+02; -5.3861208E-06;  0.0000000E+00; -6.2682579E-07;  0.0000000E+00;
 -6.0000002E-01;  9.9999998E-03;  1.6000000E+00;60;  0.0000000E+00;  0.0000000E+00;  0.0000000E+00;  1.0000324E+01;  4.0000001E-01;  3.4887522E-02;0;  0.0000000E+00;  0.0000000E+00;  0.0000000E+00;  0.0000000E+00;  0.0000000E+00;  0.0000000E+00;0; -5.0006274E-05;  1.0000000E+02;  0.0000000E+00;  0.0000000E+00;  1.0000000E+02;  0.0000000E+00;  1.0000000E+02; -4.6612582E-05;  0.0000000E+00; -3.3936922E-06;  0.0000000E+00;
 -6.0000002E-01;  9.9999998E-03;  1.8000000E+00;61;  0.0000000E+00;  0.0000000E+00;  0.0000000E+00;  1.0000201E+01;  4.0000001E-01;  2.1676440E-02;0;  0.0000000E+00;  0.0000000E+00;  0.0000000E+00;  0.0000000E+00;  0.0000000E+00;  0.0000000E+00;0; -2.5569012E-05;  1.0000000E+02;  0.0000000E+00;  0.0000000E+00;  1.0000000E+02;  0.0000000E+00;  1.0000000E+02; -2.3188537E-05;  0.0000000E+00; -2.3804755E-06;  0.0000000E+00;
 -6.0000002E-01;  9.9999998E-03;  2.0000000E+00;62;  0.0000000E+00;  0.0000000E+00;  0.0000000E+00;  1.0000000E+01;  4.0000001E-01;  0.0000000E+00;0;  0.0000000E+00;  0.0000000E+00;  0.0000000E+00;  0.0000000E+00;  0.0000000E+00;  0.0000000E+00;0; -1.0799007E-05;  1.0000000E+02;  0.0000000E+00;  0.0000000E+00;  1.0000000E+02;  0.0000000E+00;  1.0000000E+02; -9.6463555E-06;  0.0000000E+00; -1.1526515E-06;  0.0000000E+00;
 -4.0000001E-01;  9.9999998E-03;  1.6000000E+00;81;  0.0000000E+00;  0.0000000E+00;  0.0000000E+00;  1.0000455E+01;  4.0000001E-01;  4.8996359E-02;0;  0.0000000E+00;  0.0000000E+00;  0.0000000E+00;  0.0000000E+00;  0.0000000E+00;  0.0000000E+00;0; -6.4013322E-05;  1.0000000E+02;  0.0000000E+00;  0.0000000E+00;  1.0000000E+02;  0.0000000E+00;  1.0000000E+02; -5.8865531E-05;  0.0000000E+00; -5.1477887E-06;  0.0000000E+00;
 -4.0000001E-01;  9.9999998E-03;  1.8000000E+00;82;  0.0000000E+00;  0.0000000E+00;  0.0000000E+00;  1.0000228E+01;  4.0000001E-01;  2.4498180E-02;0;  0.0000000E+00;  0.0000000E+00;  0.0000000E+00;  0.0000000E+00;  0.0000000E+00;  0.0000000E+00;0; -3.3481891E-05;  1.0000000E+02;  0.0000000E+00;  0.0000000E+00;  1.0000000E+02;  0.0000000E+00;  1.0000000E+02; -2.9808374E-05;  0.0000000E+00; -3.6735166E-06;  0.0000000E+00;
 -4.0000001E-01;  9.9999998E-03;  2.0000000E+00;83;  0.0000000E+00;  0.0000000E+00;  0.0000000E+00;  1.0000092E+01;  4.0000001E-01;  9.8762298E-03;0;  0.0000000E+00;  0.0000000E+00;  0.0000000E+00;  0.0000000E+00;  0.0000000E+00;  0.0000000E+00;0; -1.4797841E-05;  1.0000000E+02;  0.0000000E+00;  0.0000000E+00;  1.0000000E+02;  0.0000000E+00;  1.0000000E+02; -1.2958116E-05;  0.0000000E+00; -1.8397254E-06;  0.0000000E+00;
 -2.0000000E-01;  9.9999998E-03;  1.6000000E+00;102;  0.0000000E+00;  0.0000000E+00;  0.0000000E+00;  1.0000508E+01;  4.0000001E-01;  5.4639697E-02;0;  0.0000000E+00;  0.0000000E+00;  0.0000000E+00;  0.0000000E+00;  0.0000000E+00;  0.0000000E+00;0; -7.0580587E-05;  1.0000000E+02;  0.0000000E+00;  0.0000000E+00;  1.0000000E+02;  0.0000000E+00;  1.0000000E+02; -6.3487510E-05;  0.0000000E+00; -7.0930741E-06;  0.0000000E+00;
 -2.0000000E-01;  9.9999998E-03;  1.8000000E+00;103;  0.0000000E+00;  0.0000000E+00;  0.0000000E+00;  1.0000273E+01;  4.0000001E-01;  2.9372042E-02;0;  0.0000000E+00;  0.0000000E+00;  0.0000000E+00;  0.0000000E+00;  0.0000000E+00;  0.0000000E+00;0; -3.7509184E-05;  1.0000000E+02;  0.0000000E+00;  0.0000000E+00;  1.0000000E+02;  0.0000000E+00;  1.0000000E+02; -3.2336218E-05;  0.0000000E+00; -5.1729671E-06;  0.0000000E+00;
 -2.0000000E-01;  9.9999998E-03;  2.0000000E+00;104;  0.0000000E+00;  0.0000000E+00;  0.0000000E+00;  1.0000140E+01;  4.0000001E-01;  1.5134939E-02;0;  0.0000000E+00;  0.0000000E+00;  0.0000000E+00;  0.0000000E+00;  0.0000000E+00;  0.0000000E+00;0; -1.7015882E-05;  1.0000000E+02;  0.0000000E+00;  0.0000000E+00;  1.0000000E+02;  0.0000000E+00;  1.0000000E+02; -1.4349575E-05;  0.0000000E+00; -2.6663060E-06;  0.0000000E+00;
  0.0000000E+00;  9.9999998E-03;  1.6000000E+00;112;  0.0000000E+00;  0.0000000E+00;  0.0000000E+00;  1.0000543E+01;  4.0000001E-01;  5.8358770E-02;0;  0.0000000E+00;  0.0000000E+00;  0.0000000E+00;  0.0000000E+00;  0.0000000E+00;  0.0000000E+00;0; -6.9593072E-05;  1.0000000E+02;  0.0000000E+00;  0.0000000E+00;  1.0000000E+02;  0.0000000E+00;  1.0000000E+02; -6.0812465E-05;  0.0000000E+00; -8.7806047E-06;  0.0000000E+00;
  0.0000000E+00;  9.9999998E-03;  1.8000000E+00;113;  0.0000000E+00;  0.0000000E+00;  0.0000000E+00;  1.0000288E+01;  4.0000001E-01;  3.1039169E-02;0;  0.0000000E+00;  0.0000000E+00;  0.0000000E+00;  0.0000000E+00;  0.0000000E+00;  0.0000000E+00;0; -3.7397083E-05;  1.0000000E+02;  0.0000000E+00;  0.0000000E+00;  1.0000000E+02;  0.0000000E+00;  1.0000000E+02; -3.0776504E-05;  0.0000000E+00; -6.6205807E-06;  0.0000000E+00;
  0.0000000E+00;  9.9999998E-03;  2.0000000E+00;114;  0.0000000E+00;  0.0000000E+00;  0.0000000E+00;  1.0000150E+01;  4.0000001E-01;  1.6160890E-02;0;  0.0000000E+00;  0.0000000E+00;  0.0000000E+00;  0.0000000E+00;  0.0000000E+00;  0.0000000E+00;0; -1.7128654E-05;  1.0000000E+02;  0.0000000E+00;  0.0000000E+00;  1.0000000E+02;  0.0000000E+00;  1.0000000E+02; -1.3580579E-05;  0.0000000E+00; -3.5480748E-06;  0.0000000E+00;
  2.0000000E-01;  9.9999998E-03;  1.6000000E+00;122;  0.0000000E+00;  0.0000000E+00;  0.0000000E+00;  1.0000538E+01;  4.0000001E-01;  5.7844557E-02;0;  0.0000000E+00;  0.0000000E+00;  0.0000000E+00;  0.0000000E+00;  0.0000000E+00;  0.0000000E+00;0; -6.0421658E-05;  1.0000000E+02;  0.0000000E+00;  0.0000000E+00;  1.0000000E+02;  0.0000000E+00;  1.0000000E+02; -5.0794410E-05;  0.0000000E+00; -9.6272497E-06;  0.0000000E+00;
  2.0000000E-01;  9.9999998E-03;  1.8000000E+00;123;  0.0000000E+00;  0.0000000E+00;  0.0000000E+00;  1.0000287E+01;  4.0000001E-01;  3.0910285E-02;0;  0.0000000E+00;  0.0000000E+00;  0.0000000E+00;  0.0000000E+00;  0.0000000E+00;  0.0000000E+00;0; -3.2752327E-05;  1.0000000E+02;  0.0000000E+00;  0.0000000E+00;  1.0000000E+02;  0.0000000E+00;  1.0000000E+02; -2.5164685E-05;  0.0000000E+00; -7.5876410E-06;  0.0000000E+00;
  2.0000000E-01;  9.9999998E-03;  2.0000000E+00;124;  0.0000000E+00;  0.0000000E+00;  0.0000000E+00;  1.0000134E+01;  4.0000001E-01;  1.4493204E-02;0;  0.0000000E+00;  0.0000000E+00;  0.0000000E+00;  0.0000000E+00;  0.0000000E+00;  0.0000000E+00;0; -1.4966368E-05;  1.0000000E+02;  0.0000000E+00;  0.0000000E+00;  1.0000000E+02;  0.0000000E+00;  1.0000000E+02; -1.0681043E-05;  0.0000000E+00; -4.2853253E-06;  0.0000000E+00;
  4.0000001E-01;  9.9999998E-03;  1.6000000E+00;132;  0.0000000E+00;  0.0000000E+00;  0.0000000E+00;  1.0000467E+01;  4.0000001E-01;  5.0275058E-02;0;  0.0000000E+00;  0.0000000E+00;  0.0000000E+00;  0.0000000E+00;  0.0000000E+00;  0.0000000E+00;0; -4.0726249E-05;  1.0000000E+02;  0.0000000E+00;  0.0000000E+00;  1.0000000E+02;  0.0000000E+00;  1.0000000E+02; -3.1702457E-05;  0.0000000E+00; -9.0237900E-06;  0.0000000E+00;
  4.0000001E-01;  9.9999998E-03;  1.8000000E+00;133;  0.0000000E+00;  0.0000000E+00;  0.0000000E+00;  1.0000286E+01;  4.0000001E-01;  3.0780647E-02;0;  0.0000000E+00;  0.0000000E+00;  0.0000000E+00;  0.0000000E+00;  0.0000000E+00;  0.0000000E+00;0; -2.2463042E-05;  1.0000000E+02;  0.0000000E+00;  0.0000000E+00;  1.0000000E+02;  0.0000000E+00;  1.0000000E+02; -1.4975624E-05;  0.0000000E+00; -7.4874183E-06;  0.0000000E+00;
  4.0000001E-01;  9.9999998E-03;  2.0000000E+00;134;  0.0000000E+00;  0.0000000E+00;  0.0000000E+00;  1.0000126E+01;  4.0000001E-01;  1.3594786E-02;0;  0.0000000E+00;  0.0000000E+00;  0.0000000E+00;  0.0000000E+00;  0.0000000E+00;  0.0000000E+00;0; -1.0241249E-05;  1.0000000E+02;  0.0000000E+00;  0.0000000E+00;  1.0000000E+02;  0.0000000E+00;  1.0000000E+02; -5.7161851E-06;  0.0000000E+00; -4.5250640E-06;  0.0000000E+00;
  6.0000002E-01;  9.9999998E-03;  1.6000000E+00;142;  0.0000000E+00;  0.0000000E+00;  0.0000000E+00;  1.0000371E+01;  4.0000001E-01;  3.9882611E-02;0;  0.0000000E+00;  0.0000000E+00;  0.0000000E+00;  0.0000000E+00;  0.0000000E+00;  0.0000000E+00;0; -3.0995382E-06;  1.0000000E+02;  0.0000000E+00;  0.0000000E+00;  1.0000000E+02;  0.0000000E+00;  1.0000000E+02;  2.9645919E-06;  0.0000000E+00; -6.0641300E-06;  0.0000000E+00;
  6.0000002E-01;  9.9999998E-03;  1.8000000E+00;143;  0.0000000E+00;  0.0000000E+00;  0.0000000E+00;  1.0000237E+01;  4.0000001E-01;  2.5391500E-02;0;  0.0000000E+00;  0.0000000E+00;  0.0000000E+00;  0.0000000E+00;  0.0000000E+00;  0.0000000E+00;0; -2.6564871E-06;  1.0000000E+02;  0.0000000E+00;  0.0000000E+00;  1.0000000E+02;  0.0000000E+00;  1.0000000E+02;  2.8213708E-06;  0.0000000E+00; -5.4778579E-06;  0.0000000E+00;
  6.0000002E-01;  9.9999998E-03;  2.0000000E+00;144;  0.0000000E+00;  0.0000000E+00;  0.0000000E+00;  1.0000116E+01;  4.0000001E-01;  1.2567511E-02;0;  0.0000000E+00;  0.0000000E+00;  0.0000000E+00;  0.0000000E+00;  0.0000000E+00;  0.0000000E+00;0; -1.9277945E-06;  1.0000000E+02;  0.0000000E+00;  0.0000000E+00;  1.0000000E+02;  0.0000000E+00;  1.0000000E+02;  1.7745417E-06;  0.0000000E+00; -3.7023362E-06;  0.0000000E+00;
  8.0000001E-01;  9.9999998E-03;  1.6000000E+00;152;  0.0000000E+00;  0.0000000E+00;  0.0000000E+00;  1.0000271E+01;  4.0000001E-01;  2.9104007E-02;0;  0.0000000E+00;  0.0000000E+00;  0.0000000E+00;  0.0000000E+00;  0.0000000E+00;  0.0000000E+00;0;  6.6436020E-05;  1.0000000E+02;  0.0000000E+00;  0.0000000E+00;  1.0000000E+02;  0.0000000E+00;  1.0000000E+02;  6.5832675E-05;  0.0000000E+00;  6.0334730E-07;  0.0000000E+00;
  8.0000001E-01;  9.9999998E-03;  1.8000000E+00;153;  0.0000000E+00;  0.0000000E+00;  0.0000000E+00;  1.0000194E+01;  4.0000001E-01;  2.0770261E-02;0;  0.0000000E+00;  0.0000000E+00;  0.0000000E+00;  0.0000000E+00;  0.0000000E+00;  0.0000000E+00;0;  3.6225592E-05;  1.0000000E+02;  0.0000000E+00;  0.0000000E+00;  1.0000000E+02;  0.0000000E+00;  1.0000000E+02;  3.6598954E-05;  0.0000000E+00; -3.7336133E-07;  0.0000000E+00;
  8.0000001E-01;  9.9999998E-03;  2.0000000E+00;154;  0.0000000E+00;  0.0000000E+00;  0.0000000E+00;  1.0000135E+01;  4.0000001E-01;  1.4616109E-02;0;  0.0000000E+00;  0.0000000E+00;  0.0000000E+00;  0.0000000E+00;  0.0000000E+00;  0.0000000E+00;0;  1.5224343E-05;  1.0000000E+02;  0.0000000E+00;  0.0000000E+00;  1.0000000E+02;  0.0000000E+00;  1.0000000E+02;  1.6031436E-05;  0.0000000E+00; -8.0709253E-07;  0.0000000E+00;
  1.0000000E+00;  9.9999998E-03;  1.6000000E+00;162;  0.0000000E+00;  0.0000000E+00;  0.0000000E+00;  1.0000223E+01;  4.0000001E-01;  2.3963768E-02;0;  0.0000000E+00;  0.0000000E+00;  0.0000000E+00;  0.0000000E+00;  0.0000000E+00;  0.0000000E+00;0;  1.8122407E-04;  1.0000000E+02;  0.0000000E+00;  0.0000000E+00;  1.0000000E+02;  0.0000000E+00;  1.0000000E+02;  1.6931914E-04;  0.0000000E+00;  1.1904919E-05;  0.0000000E+00;
  1.0000000E+00;  9.9999998E-03;  1.8000000E+00;163;  0.0000000E+00;  0.0000000E+00;  0.0000000E+00;  1.0000243E+01;  4.0000001E-01;  2.6142292E-02;0;  0.0000000E+00;  0.0000000E+00;  0.0000000E+00;  0.0000000E+00;  0.0000000E+00;  0.0000000E+00;0;  1.0537406E-04;  1.0000000E+02;  0.0000000E+00;  0.0000000E+00;  1.0000000E+02;  0.0000000E+00;  1.0000000E+02;  9.6603275E-05;  0.0000000E+00;  8.7707849E-06;  0.0000000E+00;
  1.0000000E+00;  9.9999998E-03;  2.0000000E+00;164;  0.0000000E+00;  0.0000000E+00;  0.0000000E+00;  1.0000190E+01;  4.0000001E-01;  2.0375609E-02;0;  0.0000000E+00;  0.0000000E+00;  0.0000000E+00;  0.0000000E+00;  0.0000000E+00;  0.0000000E+00;0;  5.2845564E-05;  1.0000000E+02;  0.0000000E+00;  0.0000000E+00;  1.0000000E+02;  0.0000000E+00;  1.0000000E+02;  4.6975045E-05;  0.0000000E+00;  5.8705173E-06;  0.0000000E+00;
 -1.8791872E-04;  9.9999998E-03; -1.0000395E+00;165; -3.0494842E-04;  0.0000000E+00; -4.7739166E-05;  1.0001035E+01;  3.9996850E-01;  1.1133058E-01;3; -8.2622789E-02;  0.0000000E+00; -4.6421446E-02;  0.0000000E+00;  0.0000000E+00;  0.0000000E+00;0; -2.5387283E-04;  1.0003555E+02;  0.0000000E+00; -1.1848495E-04;  1.0000000E+02;  0.0000000E+00;  1.0000087E+02; -2.5212322E-04;  0.0000000E+00; -1.7496004E-06;  0.0000000E+00;
 -2.1776577E-04;  9.9999998E-03; -8.0003643E-01;166; -3.4542562E-04;  0.0000000E+00; -3.9699822E-05;  1.0001348E+01;  3.9995879E-01;  1.4506322E-01;3; -1.1393639E-01;  0.0000000E+00; -3.8166407E-02;  0.0000000E+00;  0.0000000E+00;  0.0000000E+00;0; -3.3526935E-04;  1.0004749E+02;  0.0000000E+00; -8.3473671E-05;  1.0000000E+02;  0.0000000E+00;  1.0000000E+02; -3.3633964E-04;  0.0000000E+00;  1.0702915E-06;  0.0000000E+00;
 -2.4385312E-04;  9.9999998E-03; -6.0003150E-01;167; -3.8115069E-04;  0.0000000E+00; -3.2463948E-05;  1.0001620E+01;  3.9995036E-01;  1.7430674E-01;3; -1.4283232E-01;  0.0000000E+00; -2.6567953E-02;  0.0000000E+00;  0.0000000E+00;  0.0000000E+00;0; -4.0785372E-04;  1.0005839E+02;  0.0000000E+00; -3.7333248E-05;  1.0000000E+02;  0.0000000E+00;  9.9998749E+01; -4.1284520E-04;  0.0000000E+00;  4.9914916E-06;  0.0000000E+00;
 -2.6415609E-04;  9.9999998E-03; -4.0002307E-01;168; -4.0844714E-04;  0.0000000E+00; -2.3468314E-05;  1.0001833E+01;  3.9994416E-01;  1.9726546E-01;3; -1.6540553E-01;  0.0000000E+00; -1.5596150E-02;  0.0000000E+00;  0.0000000E+00;  0.0000000E+00;0; -4.6550078E-04;  1.0006701E+02;  0.0000000E+00; -9.0637750E-06;  1.0000000E+02;  0.0000000E+00;  9.9997711E+01; -4.7355087E-04;  0.0000000E+00;  8.0500995E-06;  0.0000000E+00;
 -2.7684943E-04;  9.9999998E-03; -2.0001206E-01;169; -4.2538610E-04;  0.0000000E+00; -1.2315998E-05;  1.0001970E+01;  3.9993981E-01;  2.1201548E-01;3; -1.7952383E-01;  0.0000000E+00; -6.8986979E-03;  0.0000000E+00;  0.0000000E+00;  0.0000000E+00;0; -5.0294132E-04;  1.0007256E+02;  0.0000000E+00; -7.3399030E-07;  1.0000000E+02;  0.0000000E+00;  9.9997078E+01; -5.1276380E-04;  0.0000000E+00;  9.8224918E-06;  0.0000000E+00;
  1.9977218E-01;  9.9999998E-03; -1.0000224E+00;176; -3.6706272E-04;  0.0000000E+00; -1.0650823E-05;  1.0000891E+01;  3.9996198E-01;  9.5809057E-02;3; -8.0593579E-02;  0.0000000E+00; -6.3992798E-02;  0.0000000E+00;  0.0000000E+00;  0.0000000E+00;0; -2.4223536E-04;  1.0003547E+02;  0.0000000E+00; -5.3475040E-04;  1.0000000E+02;  0.0000000E+00;  1.0000108E+02; -2.3980746E-04;  0.0000000E+00; -2.4279020E-06;  0.0000000E+00;
  1.9973072E-01;  9.9999998E-03; -8.0002564E-01;177; -4.2129934E-04;  0.0000000E+00; -1.3129004E-05;  1.0001122E+01;  3.9995241E-01;  1.2069120E-01;3; -1.0612669E-01;  0.0000000E+00; -5.0026082E-02;  0.0000000E+00;  0.0000000E+00;  0.0000000E+00;0; -3.0929025E-04;  1.0004617E+02;  0.0000000E+00; -3.9381333E-04;  1.0000000E+02;  0.0000000E+00;  9.9999870E+01; -3.1135342E-04;  0.0000000E+00;  2.0631778E-06;  0.0000000E+00;
  1.9969542E-01;  9.9999998E-03; -6.0002536E-01;178; -4.6490485E-04;  0.0000000E+00; -1.5906478E-05;  1.0001329E+01;  3.9994362E-01;  1.4300816E-01;3; -1.3034058E-01;  0.0000000E+00; -3.2935571E-02;  0.0000000E+00;  0.0000000E+00;  0.0000000E+00;0; -3.7340223E-04;  1.0005618E+02;  0.0000000E+00; -1.9761443E-04;  1.0000000E+02;  0.0000000E+00;  9.9998405E+01; -3.7917943E-04;  0.0000000E+00;  5.7771940E-06;  0.0000000E+00;
  1.9966872E-01;  9.9999998E-03; -4.0002048E-01;179; -4.9868634E-04;  0.0000000E+00; -1.4582313E-05;  1.0001498E+01;  3.9993736E-01;  1.6122088E-01;3; -1.4948404E-01;  0.0000000E+00; -1.8355915E-02;  0.0000000E+00;  0.0000000E+00;  0.0000000E+00;0; -4.2766344E-04;  1.0006441E+02;  0.0000000E+00; -6.1552913E-05;  1.0000000E+02;  0.0000000E+00;  9.9997200E+01; -4.3569715E-04;  0.0000000E+00;  8.0337104E-06;  0.0000000E+00;
  1.9965196E-01;  9.9999998E-03; -2.0001140E-01;180; -5.1975693E-04;  0.0000000E+00; -8.6402615E-06;  1.0001616E+01;  3.9993200E-01;  1.7379020E-01;3; -1.6150646E-01;  0.0000000E+00; -7.8144083E-03;  0.0000000E+00;  0.0000000E+00;  0.0000000E+00;0; -4.6462376E-04;  1.0006985E+02;  0.0000000E+00; -8.7276430E-06;  1.0000000E+02;  0.0000000E+00;  9.9996597E+01; -4.7377509E-04;  0.0000000E+00;  9.1513220E-06;  0.0000000E+00;
  3.9975151E-01;  9.9999998E-03; -1.0000174E+00;187; -3.8813677E-04;  0.0000000E+00; -6.0690627E-06;  1.0000698E+01;  3.9995980E-01;  7.5156085E-02;3; -1.1414928E-01;  0.0000000E+00; -1.6055131E-01;  0.0000000E+00;  0.0000000E+00;  0.0000000E+00;0; -2.0487211E-04;  1.0003323E+02;  0.0000000E+00; -1.6009852E-03;  1.0000000E+02;  0.0000000E+00;  1.0000108E+02; -2.0443711E-04;  0.0000000E+00; -4.3500449E-07;  0.0000000E+00;
  3.9968470E-01;  9.9999998E-03; -8.0001074E-01;188; -4.7789852E-04;  0.0000000E+00;  7.9967203E-06;  1.0000839E+01;  3.9995152E-01;  9.0289906E-02;3; -1.2940535E-01;  0.0000000E+00; -1.2539063E-01;  0.0000000E+00;  0.0000000E+00;  0.0000000E+00;0; -2.5196074E-04;  1.0004160E+02;  0.0000000E+00; -1.1990445E-03;  1.0000000E+02;  0.0000000E+00;  9.9999763E+01; -2.5499606E-04;  0.0000000E+00;  3.0353281E-06;  0.0000000E+00;
  3.9963558E-01;  9.9999998E-03; -6.0001183E-01;189; -5.4232968E-04;  0.0000000E+00;  4.7178269E-06;  1.0000966E+01;  3.9994413E-01;  1.0388470E-01;3; -1.4390510E-01;  0.0000000E+00; -8.2374156E-02;  0.0000000E+00;  0.0000000E+00;  0.0000000E+00;0; -2.9962129E-04;  1.0004932E+02;  0.0000000E+00; -6.3511095E-04;  1.0000000E+02;  0.0000000E+00;  9.9997925E+01; -3.0535852E-04;  0.0000000E+00;  5.7372285E-06;  0.0000000E+00;
  3.9959946E-01;  9.9999998E-03; -4.0001005E-01;190; -5.8787258E-04;  0.0000000E+00;  1.3153979E-06;  1.0001081E+01;  3.9993757E-01;  1.1619695E-01;3; -1.5570305E-01;  0.0000000E+00; -4.5755088E-02;  0.0000000E+00;  0.0000000E+00;  0.0000000E+00;0; -3.4486337E-04;  1.0005599E+02;  0.0000000E+00; -2.2211354E-04;  1.0000000E+02;  0.0000000E+00;  9.9996811E+01; -3.5122165E-04;  0.0000000E+00;  6.3582970E-06;  0.0000000E+00;
  3.9957756E-01;  9.9999998E-03; -2.0000564E-01;191; -6.1509531E-04;  0.0000000E+00;  3.9310786E-09;  1.0001163E+01;  3.9993250E-01;  1.2517464E-01;3; -1.6327065E-01;  0.0000000E+00; -1.9458812E-02;  0.0000000E+00;  0.0000000E+00;  0.0000000E+00;0; -3.7811484E-04;  1.0006064E+02;  0.0000000E+00; -3.9571787E-05;  1.0000000E+02;  0.0000000E+00;  9.9996254E+01; -3.8419550E-04;  0.0000000E+00;  6.0806506E-06;  0.0000000E+00;
  5.9975380E-01;  9.9999998E-03; -1.0000225E+00;198; -3.5200713E-04;  0.0000000E+00; -2.7953651E-05;  1.0000485E+01;  3.9995971E-01;  5.2193645E-02;3; -1.1388562E-01;  0.0000000E+00; -1.8630575E-01;  0.0000000E+00;  0.0000000E+00;  0.0000000E+00;0; -1.2639194E-04;  1.0002911E+02;  0.0000000E+00; -3.6016905E-03;  1.0000000E+02;  0.0000000E+00;  1.0000097E+02; -1.3320526E-04;  0.0000000E+00;  6.8133249E-06;  0.0000000E+00;
  5.9965551E-01;  9.9999998E-03; -8.0000067E-01;199; -4.9882487E-04;  0.0000000E+00;  1.4628929E-05;  1.0000567E+01;  3.9995527E-01;  6.1042208E-02;3; -1.0447451E-01;  0.0000000E+00; -1.4308345E-01;  0.0000000E+00;  0.0000000E+00;  0.0000000E+00;0; -1.6295091E-04;  1.0003500E+02;  0.0000000E+00; -2.6618727E-03;  1.0000000E+02;  0.0000000E+00;  9.9999290E+01; -1.6677601E-04;  0.0000000E+00;  3.8251001E-06;  0.0000000E+00;
  5.9958905E-01;  9.9999998E-03; -5.9999847E-01;200; -5.8948912E-04;  0.0000000E+00;  1.7307510E-05;  1.0000623E+01;  3.9995196E-01;  6.6941246E-02;3; -9.6922547E-02;  0.0000000E+00; -9.1971777E-02;  0.0000000E+00;  0.0000000E+00;  0.0000000E+00;0; -1.9292050E-04;  1.0003945E+02;  0.0000000E+00; -1.4443249E-03;  1.0000000E+02;  0.0000000E+00;  9.9997139E+01; -1.9720495E-04;  0.0000000E+00;  4.2844517E-06;  0.0000000E+00;
  5.9954298E-01;  9.9999998E-03; -3.9999914E-01;201; -6.5221312E-04;  0.0000000E+00;  1.3233904E-05;  1.0000683E+01;  3.9994755E-01;  7.3481493E-02;3; -9.4657980E-02;  0.0000000E+00; -5.0130885E-02;  0.0000000E+00;  0.0000000E+00;  0.0000000E+00;0; -2.2865870E-04;  1.0004375E+02;  0.0000000E+00; -5.3582678E-04;  1.0000000E+02;  0.0000000E+00;  9.9996361E+01; -2.3112932E-04;  0.0000000E+00;  2.4706176E-06;  0.0000000E+00;
  5.9951603E-01;  9.9999998E-03; -1.9999962E-01;202; -6.8530440E-04;  0.0000000E+00;  6.7921533E-06;  1.0000734E+01;  3.9994377E-01;  7.8995809E-02;3; -9.4427682E-02;  0.0000000E+00; -2.1076474E-02;  0.0000000E+00;  0.0000000E+00;  0.0000000E+00;0; -2.5881384E-04;  1.0004709E+02;  0.0000000E+00; -1.0559184E-04;  1.0000000E+02;  0.0000000E+00;  9.9995789E+01; -2.5889926E-04;  0.0000000E+00;  8.5419515E-08;  0.0000000E+00;
  7.9979384E-01;  9.9999998E-03; -1.0000508E+00;209; -2.2500887E-04;  0.0000000E+00; -8.3497049E-05;  1.0000202E+01;  3.9996898E-01;  2.1795960E-02;3; -1.3539211E-01;  0.0000000E+00; -2.0110379E-01;  0.0000000E+00;  0.0000000E+00;  0.0000000E+00;0;  6.3693762E-05;  1.0002081E+02;  0.0000000E+00; -6.5674279E-03;  1.0000000E+02;  0.0000000E+00;  9.9998756E+01;  3.1524723E-05;  0.0000000E+00;  3.2169035E-05;  0.0000000E+00;
  7.9965430E-01;  9.9999998E-03; -8.0000836E-01;210; -4.5047322E-04;  0.0000000E+00; -2.2375756E-05;  1.0000295E+01;  3.9996448E-01;  3.1668253E-02;3; -9.8306514E-02;  0.0000000E+00; -1.5186699E-01;  0.0000000E+00;  0.0000000E+00;  0.0000000E+00;0; -9.1732545E-08;  1.0002584E+02;  0.0000000E+00; -4.5853560E-03;  1.0000000E+02;  0.0000000E+00;  9.9997704E+01; -1.2369215E-05;  0.0000000E+00;  1.2277483E-05;  0.0000000E+00;
  7.9956144E-01;  9.9999998E-03; -5.9999359E-01;211; -6.0000131E-04;  0.0000000E+00;  1.3549891E-05;  1.0000317E+01;  3.9996648E-01;  3.4104276E-02;3; -6.7491993E-02;  0.0000000E+00; -9.3253218E-02;  0.0000000E+00;  0.0000000E+00;  0.0000000E+00;0; -3.2989679E-05;  1.0002725E+02;  0.0000000E+00; -2.4776906E-03;  1.0000000E+02;  0.0000000E+00;  9.9995934E+01; -3.4765108E-05;  0.0000000E+00;  1.7754301E-06;  0.0000000E+00;
  7.9950184E-01;  9.9999998E-03; -3.9999250E-01;212; -6.8661268E-04;  0.0000000E+00;  1.7303426E-05;  1.0000341E+01;  3.9996633E-01;  3.6668513E-02;3; -5.1596161E-02;  0.0000000E+00; -4.9231138E-02;  0.0000000E+00;  0.0000000E+00;  0.0000000E+00;0; -6.6205335E-05;  1.0002886E+02;  0.0000000E+00; -9.4470923E-04;  1.0000000E+02;  0.0000000E+00;  9.9994713E+01; -6.1541927E-05;  0.0000000E+00; -4.6634100E-06;  0.0000000E+00;
  7.9946923E-01;  9.9999998E-03; -1.9999585E-01;213; -7.3179440E-04;  0.0000000E+00;  1.0276402E-05;  1.0000375E+01;  3.9996481E-01;  4.0258437E-02;3; -4.4886895E-02;  0.0000000E+00; -2.0237867E-02;  0.0000000E+00;  0.0000000E+00;  0.0000000E+00;0; -9.7784832E-05;  1.0003055E+02;  0.0000000E+00; -1.9491669E-04;  1.0000000E+02;  0.0000000E+00;  9.9994667E+01; -8.7664099E-05;  0.0000000E+00; -1.0120734E-05;  0.0000000E+00;
  9.9982780E-01;  9.9999998E-03; -1.0000719E+00;220; -2.1962941E-04;  0.0000000E+00; -2.9332963E-05;  9.9999485E+00;  3.9999056E-01; -5.5103889E-03;3; -1.6744572E-01;  0.0000000E+00; -1.9493209E-01;  0.0000000E+00;  0.0000000E+00;  0.0000000E+00;0;  3.0221985E-04;  1.0000807E+02;  0.0000000E+00; -9.4444649E-03;  1.0000000E+02;  0.0000000E+00;  9.9995697E+01;  2.7182570E-04;  0.0000000E+00;  3.0394149E-05;  0.0000000E+00;
  9.9968147E-01;  9.9999998E-03; -8.0003279E-01;221; -3.5034737E-04;  0.0000000E+00; -5.8897578E-05;  9.9999695E+00;  3.9998546E-01; -3.2677902E-03;3; -1.0066194E-01;  0.0000000E+00; -1.4422250E-01;  0.0000000E+00;  0.0000000E+00;  0.0000000E+00;0;  3.0388334E-04;  1.0001171E+02;  0.0000000E+00; -6.3595977E-03;  1.0000000E+02;  0.0000000E+00;  9.9995018E+01;  2.7192707E-04;  0.0000000E+00;  3.1956268E-05;  0.0000000E+00;
  9.9955684E-01;  9.9999998E-03; -6.0000068E-01;222; -5.6723627E-04;  0.0000000E+00; -1.1186757E-05;  1.0000009E+01;  3.9999068E-01;  8.9704082E-04;3; -5.3310130E-02;  0.0000000E+00; -8.5608490E-02;  0.0000000E+00;  0.0000000E+00;  0.0000000E+00;0;  2.4493685E-04;  1.0001130E+02;  0.0000000E+00; -3.3246693E-03;  1.0000000E+02;  0.0000000E+00;  9.9993698E+01;  2.4283593E-04;  0.0000000E+00;  2.1009214E-06;  0.0000000E+00;
  9.9947613E-01;  9.9999998E-03; -3.9999118E-01;223; -7.0102280E-04;  0.0000000E+00;  1.7197266E-05;  1.0000030E+01;  3.9999425E-01;  3.2037185E-03;3; -2.8637437E-02;  0.0000000E+00; -4.3015953E-02;  0.0000000E+00;  0.0000000E+00;  0.0000000E+00;0;  1.9971363E-04;  1.0001054E+02;  0.0000000E+00; -1.2713548E-03;  1.0000000E+02;  0.0000000E+00;  9.9992683E+01;  2.1601887E-04;  0.0000000E+00; -1.6305246E-05;  0.0000000E+00;
  9.9943513E-01;  9.9999998E-03; -1.9999427E-01;224; -7.6119823E-04;  0.0000000E+00;  1.1931570E-05;  1.0000040E+01;  3.9999536E-01;  4.3570576E-03;3; -1.7762266E-02;  0.0000000E+00; -1.7116670E-02;  0.0000000E+00;  0.0000000E+00;  0.0000000E+00;0;  1.6319459E-04;  1.0001070E+02;  0.0000000E+00; -2.6712767E-04;  1.0000000E+02;  0.0000000E+00;  9.9992661E+01;  1.8944503E-04;  0.0000000E+00; -2.6250433E-05;  0.0000000E+00;
  1.1998634E+00;  9.9999998E-03; -1.0001028E+00;231; -2.8726683E-04;  0.0000000E+00;  8.9085712E-05;  9.9997320E+00;  4.0003300E-01; -2.8802184E-02;3; -1.6958645E-01;  0.0000000E+00; -1.6106609E-01;  0.0000000E+00;  0.0000000E+00;  0.0000000E+00;0;  6.0758693E-04;  9.9989594E+01;  0.0000000E+00; -1.0804132E-02;  1.0000000E+02;  0.0000000E+00;  9.9988800E+01;  6.4732402E-04;  0.0000000E+00; -3.9737104E-05;  0.0000000E+00;
  1.1997250E+00;  9.9999998E-03; -8.0006820E-01;232; -2.9682272E-04;  0.0000000E+00; -2.2696684E-05;  9.9996223E+00;  4.0002680E-01; -4.0579122E-02;3; -9.3899854E-02;  0.0000000E+00; -1.0984989E-01;  0.0000000E+00;  0.0000000E+00;  0.0000000E+00;0;  7.6291297E-04;  9.9990448E+01;  0.0000000E+00; -7.1673840E-03;  1.0000000E+02;  0.0000000E+00;  9.9988510E+01;  7.3475839E-04;  0.0000000E+00;  2.8154580E-05;  0.0000000E+00;
  1.1995726E+00;  9.9999998E-03; -6.0001773E-01;233; -5.0432200E-04;  0.0000000E+00; -1.8295172E-05;  9.9996567E+00;  4.0002972E-01; -3.6866881E-02;3; -4.4275139E-02;  0.0000000E+00; -6.7329831E-02;  0.0000000E+00;  0.0000000E+00;  0.0000000E+00;0;  7.2180777E-04;  9.9988686E+01;  0.0000000E+00; -3.5546811E-03;  1.0000000E+02;  0.0000000E+00;  9.9989716E+01;  7.2126521E-04;  0.0000000E+00;  5.4252632E-07;  0.0000000E+00;
  1.1994669E+00;  9.9999998E-03; -3.9999437E-01;234; -7.0391368E-04;  0.0000000E+00;  2.7715356E-05;  9.9996748E+00;  4.0003595E-01; -3.4946762E-02;3; -1.8588508E-02;  0.0000000E+00; -3.2992601E-02;  0.0000000E+00;  0.0000000E+00;  0.0000000E+00;0;  6.6176709E-04;  9.9986023E+01;  0.0000000E+00; -1.3330817E-03;  1.0000000E+02;  0.0000000E+00;  9.9989395E+01;  6.9623755E-04;  0.0000000E+00; -3.4470482E-05;  0.0000000E+00;
  1.1994135E+00;  9.9999998E-03; -1.9999394E-01;235; -7.7859452E-04;  0.0000000E+00;  1.7432239E-05;  9.9996796E+00;  4.0003929E-01; -3.4434732E-02;3; -6.8067214E-03;  0.0000000E+00; -1.2712200E-02;  0.0000000E+00;  0.0000000E+00;  0.0000000E+00;0;  6.2488270E-04;  9.9984573E+01;  0.0000000E+00; -2.7970324E-04;  1.0000000E+02;  0.0000000E+00;  9.9989395E+01;  6.7356706E-04;  0.0000000E+00; -4.8684378E-05;  0.0000000E+00;
  1.3998650E+00;  9.9999998E-03; -1.0001283E+00;242; -2.5536853E-04;  0.0000000E+00;  1.3646085E-04;  9.9994125E+00;  4.0008196E-01; -6.2959485E-02;3; -1.2891641E-01;  0.0000000E+00; -9.8240674E-02;  0.0000000E+00;  0.0000000E+00;  0.0000000E+00;0;  1.2028139E-03;  9.9966866E+01;  0.0000000E+00; -9.1241421E-03;  1.0000000E+02;  0.0000000E+00;  9.9980347E+01;  1.2998463E-03;  0.0000000E+00; -9.7032433E-05;  0.0000000E+00;
  1.3997618E+00;  9.9999998E-03; -8.0010074E-01;243; -2.3717672E-04;  0.0000000E+00;  3.2774089E-05;  9.9992380E+00;  4.0008876E-01; -8.1604838E-02;3; -7.1243294E-02;  0.0000000E+00; -6.3597053E-02;  0.0000000E+00;  0.0000000E+00;  0.0000000E+00;0;  1.4507222E-03;  9.9961205E+01;  0.0000000E+00; -6.3476586E-03;  1.0000000E+02;  0.0000000E+00;  9.9979355E+01;  1.4513292E-03;  0.0000000E+00; -6.0703223E-07;  0.0000000E+00;
  1.3996028E+00;  9.9999998E-03; -6.0004210E-01;244; -4.1092557E-04;  0.0000000E+00; -8.7811059E-06;  9.9992189E+00;  4.0008897E-01; -8.3648369E-02;3; -3.2887600E-02;  0.0000000E+00; -4.1122571E-02;  0.0000000E+00;  0.0000000E+00;  0.0000000E+00;0;  1.4754715E-03;  9.9956558E+01;  0.0000000E+00; -3.0351249E-03;  1.0000000E+02;  0.0000000E+00;  9.9983284E+01;  1.4794415E-03;  0.0000000E+00; -3.9699539E-06;  0.0000000E+00;
  1.3994699E+00;  9.9999998E-03; -3.9999977E-01;245; -6.8921107E-04;  0.0000000E+00;  4.7299010E-05;  9.9992332E+00;  4.0009683E-01; -8.2116075E-02;3; -1.3227057E-02;  0.0000000E+00; -2.0727841E-02;  0.0000000E+00;  0.0000000E+00;  0.0000000E+00;0;  1.4174557E-03;  9.9951729E+01;  0.0000000E+00; -1.0893312E-03;  1.0000000E+02;  0.0000000E+00;  9.9984550E+01;  1.4731149E-03;  0.0000000E+00; -5.5659249E-05;  0.0000000E+00;
  1.3994038E+00;  9.9999998E-03; -1.9999407E-01;246; -7.8226271E-04;  0.0000000E+00;  2.8101365E-05;  9.9992313E+00;  4.0010270E-01; -8.2371578E-02;3; -3.4218295E-03;  0.0000000E+00; -7.7414629E-03;  0.0000000E+00;  0.0000000E+00;  0.0000000E+00;0;  1.3934760E-03;  9.9948471E+01;  0.0000000E+00; -2.2425380E-04;  1.0000000E+02;  0.0000000E+00;  9.9984802E+01;  1.4657879E-03;  0.0000000E+00; -7.2311857E-05;  0.0000000E+00;
  1.5998858E+00;  9.9999998E-03; -1.0001432E+00;253; -1.7230082E-07;  0.0000000E+00;  1.4096709E-04;  9.9989462E+00;  4.0014395E-01; -1.1232263E-01;3; -7.1702689E-02;  0.0000000E+00; -4.3694977E-02;  0.0000000E+00;  0.0000000E+00;  0.0000000E+00;0;  2.1635697E-03;  9.9932426E+01;  0.0000000E+00; -6.0461168E-03;  1.0000000E+02;  0.0000000E+00;  9.9974518E+01;  2.2857001E-03;  0.0000000E+00; -1.2213044E-04;  0.0000000E+00;
  1.5997803E+00;  9.9999998E-03; -8.0010867E-01;254; -9.5984862E-05;  0.0000000E+00;  9.0292415E-05;  9.9987936E+00;  4.0016150E-01; -1.2858702E-01;3; -3.9741039E-02;  0.0000000E+00; -2.8674303E-02;  0.0000000E+00;  0.0000000E+00;  0.0000000E+00;0;  2.4201877E-03;  9.9921822E+01;  0.0000000E+00; -4.1544652E-03;  1.0000000E+02;  0.0000000E+00;  9.9973320E+01;  2.4680495E-03;  0.0000000E+00; -4.7861762E-05;  0.0000000E+00;
  1.5996330E+00;  9.9999998E-03; -6.0005403E-01;255; -3.4870414E-04;  0.0000000E+00;  5.4401193E-05;  9.9987278E+00;  4.0017083E-01; -1.3557616E-01;3; -1.9907072E-02;  0.0000000E+00; -1.9636599E-02;  0.0000000E+00;  0.0000000E+00;  0.0000000E+00;0;  2.5143698E-03;  9.9912659E+01;  0.0000000E+00; -1.9827688E-03;  1.0000000E+02;  0.0000000E+00;  9.9976349E+01;  2.5467477E-03;  0.0000000E+00; -3.2377888E-05;  0.0000000E+00;
  1.5994893E+00;  9.9999998E-03; -4.0000531E-01;256; -6.3139497E-04;  0.0000000E+00;  7.6356402E-05;  9.9987078E+00;  4.0018216E-01; -1.3773695E-01;3; -7.6098535E-03;  0.0000000E+00; -1.0192952E-02;  0.0000000E+00;  0.0000000E+00;  0.0000000E+00;0;  2.5194581E-03;  9.9904930E+01;  0.0000000E+00; -6.8361143E-04;  1.0000000E+02;  0.0000000E+00;  9.9978012E+01;  2.5876972E-03;  0.0000000E+00; -6.8239140E-05;  0.0000000E+00;
  1.5994099E+00;  9.9999998E-03; -1.9999433E-01;257; -7.5872021E-04;  0.0000000E+00;  4.5833141E-05;  9.9986906E+00;  4.0019175E-01; -1.3957976E-01;3; -1.3873222E-03;  0.0000000E+00; -3.6713085E-03;  0.0000000E+00;  0.0000000E+00;  0.0000000E+00;0;  2.5256528E-03;  9.9899956E+01;  0.0000000E+00; -1.3440927E-04;  1.0000000E+02;  0.0000000E+00;  9.9978104E+01;  2.6082746E-03;  0.0000000E+00; -8.2621875E-05;  0.0000000E+00;
  1.8000029E+00;  9.9999998E-03; -1.0001652E+00;264;  1.4983008E-03;  0.0000000E+00;  8.1632279E-05;  9.9983759E+00;  4.0023223E-01; -1.7134008E-01;3; -3.0889880E-02;  0.0000000E+00; -1.9155446E-02;  0.0000000E+00;  0.0000000E+00;  0.0000000E+00;0;  3.6211920E-03;  9.9881851E+01;  0.0000000E+00; -3.8405356E-03;  1.0000000E+02;  0.0000000E+00;  9.9969612E+01;  3.6906488E-03;  0.0000000E+00; -6.9456961E-05;  0.0000000E+00;
  1.7998313E+00;  9.9999998E-03; -8.0011368E-01;265;  4.4175607E-04;  0.0000000E+00;  1.2594729E-04;  9.9983082E+00;  4.0025571E-01; -1.7844737E-01;3; -1.4757266E-02;  0.0000000E+00; -1.2646783E-02;  0.0000000E+00;  0.0000000E+00;  0.0000000E+00;0;  3.6748440E-03;  9.9869362E+01;  0.0000000E+00; -2.1028069E-03;  1.0000000E+02;  0.0000000E+00;  9.9969200E+01;  3.7588626E-03;  0.0000000E+00; -8.4018538E-05;  0.0000000E+00;
  1.7996861E+00;  9.9999998E-03; -6.0005772E-01;266; -2.0270233E-04;  0.0000000E+00;  1.2140005E-04;  9.9982204E+00;  4.0027699E-01; -1.8775521E-01;3; -7.8669898E-03;  0.0000000E+00; -7.1907146E-03;  0.0000000E+00;  0.0000000E+00;  0.0000000E+00;0;  3.8227108E-03;  9.9856796E+01;  0.0000000E+00; -9.7343198E-04;  1.0000000E+02;  0.0000000E+00;  9.9969337E+01;  3.8747976E-03;  0.0000000E+00; -5.2086827E-05;  0.0000000E+00;
  1.7995498E+00;  9.9999998E-03; -4.0000939E-01;267; -4.8241674E-04;  0.0000000E+00;  1.1362009E-04;  9.9981585E+00;  4.0029517E-01; -1.9429645E-01;3; -2.3667838E-03;  0.0000000E+00; -3.6396061E-03;  0.0000000E+00;  0.0000000E+00;  0.0000000E+00;0;  3.9194957E-03;  9.9846649E+01;  0.0000000E+00; -3.2261983E-04;  1.0000000E+02;  0.0000000E+00;  9.9969200E+01;  3.9704107E-03;  0.0000000E+00; -5.0915085E-05;  0.0000000E+00;
  1.7994576E+00;  9.9999998E-03; -1.9999686E-01;268; -6.4083457E-04;  0.0000000E+00;  6.8557136E-05;  9.9981251E+00;  4.0030834E-01; -1.9781898E-01;3;  5.8610650E-04;  0.0000000E+00; -1.2585996E-03;  0.0000000E+00;  0.0000000E+00;  0.0000000E+00;0;  3.9708405E-03;  9.9840172E+01;  0.0000000E+00; -5.7170335E-05;  1.0000000E+02;  0.0000000E+00;  9.9968491E+01;  4.0250299E-03;  0.0000000E+00; -5.4189368E-05;  0.0000000E+00;
  2.0001206E+00;  9.9999998E-03; -1.0002038E+00;275;  2.9015183E-03;  0.0000000E+00; -3.4078254E-05;  9.9979477E+00;  4.0034938E-01; -2.1235514E-01;3; -1.4583054E-03;  0.0000000E+00; -8.9540882E-03;  0.0000000E+00;  0.0000000E+00;  0.0000000E+00;0;  5.0321966E-03;  9.9820656E+01;  0.0000000E+00; -1.6800703E-03;  1.0000000E+02;  0.0000000E+00;  9.9963692E+01;  4.9879318E-03;  0.0000000E+00;  4.4264991E-05;  0.0000000E+00;
  1.9999609E+00;  9.9999998E-03; -8.0013424E-01;276;  1.5657567E-03;  0.0000000E+00;  1.3953811E-04;  9.9978962E+00;  4.0037826E-01; -2.1772538E-01;3;  1.2307564E-03;  0.0000000E+00; -6.0663018E-03;  0.0000000E+00;  0.0000000E+00;  0.0000000E+00;0;  5.0153411E-03;  9.9805977E+01;  0.0000000E+00; -8.6750137E-04;  1.0000000E+02;  0.0000000E+00;  9.9963097E+01;  5.1205894E-03;  0.0000000E+00; -1.0524846E-04;  0.0000000E+00;
  1.9998447E+00;  9.9999998E-03; -6.0007000E-01;277;  7.9079252E-04;  0.0000000E+00;  2.2023730E-04;  9.9977875E+00;  4.0040794E-01; -2.2895420E-01;3;  2.7934462E-03;  0.0000000E+00; -2.0493516E-03;  0.0000000E+00;  0.0000000E+00;  0.0000000E+00;0;  5.2139354E-03;  9.9792572E+01;  0.0000000E+00; -3.9215162E-04;  1.0000000E+02;  0.0000000E+00;  9.9959541E+01;  5.2826069E-03;  0.0000000E+00; -6.8671434E-05;  0.0000000E+00;
  1.9997286E+00;  9.9999998E-03; -4.0002140E-01;278;  2.1645128E-04;  0.0000000E+00;  1.6255729E-04;  9.9976864E+00;  4.0043187E-01; -2.3944312E-01;3;  1.9674434E-03;  0.0000000E+00; -3.9784060E-04;  0.0000000E+00;  0.0000000E+00;  0.0000000E+00;0;  5.4350873E-03;  9.9781738E+01;  0.0000000E+00; -1.1550406E-04;  1.0000000E+02;  0.0000000E+00;  9.9956367E+01;  5.4145716E-03;  0.0000000E+00;  2.0515447E-05;  0.0000000E+00;
  1.9996386E+00;  9.9999998E-03; -2.0000501E-01;279; -5.0880000E-05;  0.0000000E+00;  8.0722632E-05;  9.9976349E+00;  4.0044758E-01; -2.4475038E-01;3;  1.2346486E-03;  0.0000000E+00; -8.2321516E-05;  0.0000000E+00;  0.0000000E+00;  0.0000000E+00;0;  5.5457884E-03;  9.9774857E+01;  0.0000000E+00; -1.5835269E-05;  1.0000000E+02;  0.0000000E+00;  9.9954544E+01;  5.4988954E-03;  0.0000000E+00;  4.6893139E-05;  0.0000000E+00;
  2.2002060E+00;  9.9999998E-03; -1.0002866E+00;286;  3.5781614E-03;  0.0000000E+00; -3.7637513E-04;  9.9975882E+00;  4.0050560E-01; -2.4207166E-01;3;  8.8094277E-03;  0.0000000E+00; -4.7870767E-03;  0.0000000E+00;  0.0000000E+00;  0.0000000E+00;0;  6.5917093E-03;  9.9751495E+01;  0.0000000E+00; -3.3934388E-04;  1.0000000E+02;  0.0000000E+00;  9.9947838E+01;  6.1137639E-03;  0.0000000E+00;  4.7794523E-04;  0.0000000E+00;
  2.2001524E+00;  9.9999998E-03; -8.0019373E-01;287;  2.8412789E-03;  0.0000000E+00;  5.3245760E-05;  9.9976244E+00;  4.0053189E-01; -2.3848416E-01;3;  8.8623464E-03;  0.0000000E+00; -4.6687573E-03;  0.0000000E+00;  0.0000000E+00;  0.0000000E+00;0;  6.2879059E-03;  9.9738503E+01;  0.0000000E+00; -2.3738913E-04;  1.0000000E+02;  0.0000000E+00;  9.9948418E+01;  6.3068713E-03;  0.0000000E+00; -1.8965571E-05;  0.0000000E+00;
  2.2001269E+00;  9.9999998E-03; -6.0012472E-01;288;  2.4944765E-03;  0.0000000E+00;  2.1459754E-04;  9.9974947E+00;  4.0056407E-01; -2.5146848E-01;3;  8.5021881E-03;  0.0000000E+00; -5.9768336E-04;  0.0000000E+00;  0.0000000E+00;  0.0000000E+00;0;  6.5225959E-03;  9.9727028E+01;  0.0000000E+00; -1.1078608E-04;  1.0000000E+02;  0.0000000E+00;  9.9941238E+01;  6.4915717E-03;  0.0000000E+00;  3.1024076E-05;  0.0000000E+00;
  2.2000868E+00;  9.9999998E-03; -4.0005943E-01;289;  2.3285034E-03;  0.0000000E+00;  1.4755121E-04;  9.9973707E+00;  4.0058595E-01; -2.6391515E-01;3;  8.1967246E-03;  0.0000000E+00;  9.8922006E-05;  0.0000000E+00;  0.0000000E+00;  0.0000000E+00;0;  6.8383911E-03;  9.9717651E+01;  0.0000000E+00; -2.5140096E-05;  1.0000000E+02;  0.0000000E+00;  9.9937401E+01;  6.6426634E-03;  0.0000000E+00;  1.9572755E-04;  0.0000000E+00;
  2.2000611E+00;  9.9999998E-03; -2.0002189E-01;290;  2.2520437E-03;  0.0000000E+00;  7.0323760E-05;  9.9973097E+00;  4.0059987E-01; -2.7007899E-01;3;  8.0515714E-03;  0.0000000E+00;  6.9632908E-05;  0.0000000E+00;  0.0000000E+00;  0.0000000E+00;0;  6.9954493E-03;  9.9711502E+01;  0.0000000E+00; -1.5609437E-06;  1.0000000E+02;  0.0000000E+00;  9.9935394E+01;  6.7425501E-03;  0.0000000E+00;  2.5289942E-04;  0.0000000E+00;
  2.4003835E+00;  9.9999998E-03; -1.0004148E+00;297;  4.4746799E-03;  0.0000000E+00; -5.3250405E-04;  9.9974136E+00;  4.0069842E-01; -2.5006214E-01;3;  1.1287471E-02;  0.0000000E+00; -4.1827681E-03;  0.0000000E+00;  0.0000000E+00;  0.0000000E+00;0;  7.5872452E-03;  9.9678856E+01;  0.0000000E+00; -2.8839962E-05;  1.0000000E+02;  0.0000000E+00;  9.9921143E+01;  7.0901946E-03;  0.0000000E+00;  4.9705047E-04;  0.0000000E+00;
  2.4004350E+00;  9.9999998E-03; -8.0029500E-01;298;  4.3543852E-03;  0.0000000E+00; -9.6872500E-05;  9.9975004E+00;  4.0071154E-01; -2.4170326E-01;3;  1.1758189E-02;  0.0000000E+00; -7.0196125E-03;  0.0000000E+00;  0.0000000E+00;  0.0000000E+00;0;  7.3595061E-03;  9.9671120E+01;  0.0000000E+00; -2.9684594E-05;  1.0000000E+02;  0.0000000E+00;  9.9923851E+01;  7.2470238E-03;  0.0000000E+00;  1.1248236E-04;  0.0000000E+00;
  2.4004672E+00;  9.9999998E-03; -6.0021383E-01;299;  4.3839975E-03;  0.0000000E+00;  1.6943213E-04;  9.9973564E+00;  4.0073794E-01; -2.5559071E-01;3;  1.2329585E-02;  0.0000000E+00; -4.1322681E-05;  0.0000000E+00;  0.0000000E+00;  0.0000000E+00;0;  7.5972807E-03;  9.9663811E+01;  0.0000000E+00; -8.4740786E-06;  1.0000000E+02;  0.0000000E+00;  9.9915314E+01;  7.3983073E-03;  0.0000000E+00;  1.9897331E-04;  0.0000000E+00;
  2.4004760E+00;  9.9999998E-03; -4.0012020E-01;300;  4.5186654E-03;  0.0000000E+00;  1.1700786E-04;  9.9972200E+00;  4.0075028E-01; -2.6878762E-01;3;  1.2909695E-02;  0.0000000E+00;  5.0144474E-04;  0.0000000E+00;  0.0000000E+00;  0.0000000E+00;0;  7.9943426E-03;  9.9657722E+01;  0.0000000E+00;  7.1517917E-07;  1.0000000E+02;  0.0000000E+00;  9.9912498E+01;  7.5258440E-03;  0.0000000E+00;  4.6849865E-04;  0.0000000E+00;
  2.4004853E+00;  9.9999998E-03; -2.0005149E-01;301;  4.6506571E-03;  0.0000000E+00;  5.7082780E-05;  9.9971542E+00;  4.0075934E-01; -2.7512649E-01;3;  1.3376866E-02;  0.0000000E+00;  3.1779974E-04;  0.0000000E+00;  0.0000000E+00;  0.0000000E+00;0;  8.1924880E-03;  9.9653595E+01;  0.0000000E+00;  4.5621346E-07;  1.0000000E+02;  0.0000000E+00;  9.9910767E+01;  7.6123369E-03;  0.0000000E+00;  5.8015098E-04;  0.0000000E+00;
  2.6006804E+00;  9.9999998E-03; -1.0005846E+00;308;  5.6485739E-03;  0.0000000E+00; -9.6956600E-04;  9.9972019E+00;  4.0091276E-01; -2.6142883E-01;3;  1.0822868E-02;  0.0000000E+00;  3.6114124E-03;  0.0000000E+00;  0.0000000E+00;  0.0000000E+00;0;  8.8948626E-03;  9.9605286E+01;  0.0000000E+00;  5.7752231E-07;  1.0000000E+02;  0.0000000E+00;  9.9883713E+01;  7.9851272E-03;  0.0000000E+00;  9.0973574E-04;  0.0000000E+00;
  2.6008043E+00;  9.9999998E-03; -8.0044109E-01;309;  5.8647003E-03;  0.0000000E+00; -4.1769139E-04;  9.9973574E+00;  4.0091622E-01; -2.4694383E-01;3;  1.1889407E-02;  0.0000000E+00; -3.0297230E-03;  0.0000000E+00;  0.0000000E+00;  0.0000000E+00;0;  8.5037360E-03;  9.9602654E+01;  0.0000000E+00;  3.2815715E-06;  1.0000000E+02;  0.0000000E+00;  9.9887970E+01;  8.0688782E-03;  0.0000000E+00;  4.3485776E-04;  0.0000000E+00;
  2.6008387E+00;  9.9999998E-03; -6.0034376E-01;310;  5.9971982E-03;  0.0000000E+00; -1.1868169E-04;  9.9972296E+00;  4.0092954E-01; -2.5886089E-01;3;  1.3120986E-02;  0.0000000E+00;  5.9763282E-03;  0.0000000E+00;  0.0000000E+00;  0.0000000E+00;0;  8.7375790E-03;  9.9600319E+01;  0.0000000E+00;  3.5605442E-06;  1.0000000E+02;  0.0000000E+00;  9.9880852E+01;  8.1472890E-03;  0.0000000E+00;  5.9029012E-04;  0.0000000E+00;
  2.6008639E+00;  9.9999998E-03; -4.0021688E-01;311;  6.2581808E-03;  0.0000000E+00; -1.5900814E-04;  9.9971161E+00;  4.0092796E-01; -2.6944155E-01;3;  1.4321212E-02;  0.0000000E+00;  6.6400515E-03;  0.0000000E+00;  0.0000000E+00;  0.0000000E+00;0;  9.1318581E-03;  9.9598335E+01;  0.0000000E+00;  1.8262581E-06;  1.0000000E+02;  0.0000000E+00;  9.9881416E+01;  8.2106404E-03;  0.0000000E+00;  9.2121767E-04;  0.0000000E+00;
  2.6008837E+00;  9.9999998E-03; -2.0010912E-01;312;  6.4823702E-03;  0.0000000E+00; -1.9364120E-04;  9.9970732E+00;  4.0092915E-01; -2.7345064E-01;3;  1.5194436E-02;  0.0000000E+00;  6.2451879E-03;  0.0000000E+00;  0.0000000E+00;  0.0000000E+00;0;  9.3105696E-03;  9.9597038E+01;  0.0000000E+00;  4.4428086E-07;  1.0000000E+02;  0.0000000E+00;  9.9881256E+01;  8.2515944E-03;  0.0000000E+00;  1.0589757E-03;  0.0000000E+00;
  2.8011479E+00;  9.9999998E-03; -1.0007639E+00;319;  7.1875630E-03;  0.0000000E+00; -1.4705268E-03;  9.9970102E+00;  4.0114215E-01; -2.7282444E-01;3;  1.0545517E-02;  0.0000000E+00;  1.0888557E-02;  0.0000000E+00;  0.0000000E+00;  0.0000000E+00;0;  1.0381766E-02;  9.9526405E+01;  0.0000000E+00;  1.5107928E-06;  1.0000000E+02;  0.0000000E+00;  9.9844810E+01;  9.0281582E-03;  0.0000000E+00;  1.3536077E-03;  0.0000000E+00;
  2.8012545E+00;  9.9999998E-03; -8.0059499E-01;320;  7.4182739E-03;  0.0000000E+00; -9.6742605E-04;  9.9971609E+00;  4.0113494E-01; -2.5906110E-01;3;  1.1819371E-02;  0.0000000E+00;  2.1365050E-03;  0.0000000E+00;  0.0000000E+00;  0.0000000E+00;0;  1.0054656E-02;  9.9528046E+01;  0.0000000E+00;  4.6954465E-06;  1.0000000E+02;  0.0000000E+00;  9.9849945E+01;  9.0301735E-03;  0.0000000E+00;  1.0244825E-03;  0.0000000E+00;
  2.8012705E+00;  9.9999998E-03; -6.0048181E-01;321;  7.5224051E-03;  0.0000000E+00; -8.2004402E-04;  9.9970446E+00;  4.0113887E-01; -2.6966679E-01;3;  1.3186256E-02;  0.0000000E+00;  7.2972034E-03;  0.0000000E+00;  0.0000000E+00;  0.0000000E+00;0;  1.0339732E-02;  9.9530029E+01;  0.0000000E+00;  4.3193418E-06;  1.0000000E+02;  0.0000000E+00;  9.9843575E+01;  9.0211807E-03;  0.0000000E+00;  1.3185515E-03;  0.0000000E+00;
  2.8012662E+00;  9.9999998E-03; -4.0032670E-01;322;  7.6750014E-03;  0.0000000E+00; -8.9356001E-04;  9.9969749E+00;  4.0112478E-01; -2.7603057E-01;3;  1.4459835E-02;  0.0000000E+00;  7.2693154E-03;  0.0000000E+00;  0.0000000E+00;  0.0000000E+00;0;  1.0608308E-02;  9.9532059E+01;  0.0000000E+00;  2.1032756E-06;  1.0000000E+02;  0.0000000E+00;  9.9847176E+01;  9.0043005E-03;  0.0000000E+00;  1.6040073E-03;  0.0000000E+00;
  2.8012588E+00;  9.9999998E-03; -2.0015484E-01;323;  7.8108022E-03;  0.0000000E+00; -6.0977304E-04;  9.9969788E+00;  4.0111616E-01; -2.7570441E-01;3;  1.5363679E-02;  0.0000000E+00;  1.7622499E-03;  0.0000000E+00;  0.0000000E+00;  0.0000000E+00;0;  1.0630290E-02;  9.9533607E+01;  0.0000000E+00;  4.9948306E-07;  1.0000000E+02;  0.0000000E+00;  9.9849823E+01;  8.9875702E-03;  0.0000000E+00;  1.6427197E-03;  0.0000000E+00;
  3.0016816E+00;  9.9999998E-03; -1.0009347E+00;330;  8.9437263E-03;  0.0000000E+00; -1.8934781E-03;  9.9968109E+00;  4.0138605E-01; -2.8711072E-01;3;  1.2581391E-02;  0.0000000E+00;  1.8381368E-02;  0.0000000E+00;  0.0000000E+00;  0.0000000E+00;0;  1.2062601E-02;  9.9437187E+01;  0.0000000E+00;  2.2761121E-06;  1.0000000E+02;  0.0000000E+00;  9.9808891E+01;  1.0429133E-02;  0.0000000E+00;  1.6334682E-03;  0.0000000E+00;
  3.0017259E+00;  9.9999998E-03; -8.0073297E-01;331;  8.9905662E-03;  0.0000000E+00; -1.5660207E-03;  9.9969072E+00;  4.0136823E-01; -2.7846998E-01;3;  1.3619105E-02;  0.0000000E+00;  6.9728843E-03;  0.0000000E+00;  0.0000000E+00;  0.0000000E+00;0;  1.2026327E-02;  9.9441681E+01;  0.0000000E+00;  5.5030082E-06;  1.0000000E+02;  0.0000000E+00;  9.9815338E+01;  1.0363619E-02;  0.0000000E+00;  1.6627081E-03;  0.0000000E+00;
  3.0016992E+00;  9.9999998E-03; -6.0059607E-01;332;  8.9244861E-03;  0.0000000E+00; -1.4102309E-03;  9.9968233E+00;  4.0136728E-01; -2.8603718E-01;3;  1.4663300E-02;  0.0000000E+00;  8.3779339E-03;  0.0000000E+00;  0.0000000E+00;  0.0000000E+00;0;  1.2252031E-02;  9.9446632E+01;  0.0000000E+00;  4.8192524E-06;  1.0000000E+02;  0.0000000E+00;  9.9808891E+01;  1.0284182E-02;  0.0000000E+00;  1.9678492E-03;  0.0000000E+00;
  3.0016649E+00;  9.9999998E-03; -4.0040842E-01;333;  8.9222947E-03;  0.0000000E+00; -1.4958804E-03;  9.9967756E+00;  4.0134549E-01; -2.9033089E-01;3;  1.5580229E-02;  0.0000000E+00;  7.2237733E-03;  0.0000000E+00;  0.0000000E+00;  0.0000000E+00;0;  1.2464419E-02;  9.9451271E+01;  0.0000000E+00;  2.4187923E-06;  1.0000000E+02;  0.0000000E+00;  9.9814209E+01;  1.0203818E-02;  0.0000000E+00;  2.2606014E-03;  0.0000000E+00;
  3.0016274E+00;  9.9999998E-03; -2.0018387E-01;334;  8.9203902E-03;  0.0000000E+00; -8.1770413E-04;  9.9968033E+00;  4.0133163E-01; -2.8780910E-01;3;  1.6199069E-02;  0.0000000E+00;  1.1764338E-03;  0.0000000E+00;  0.0000000E+00;  0.0000000E+00;0;  1.2367113E-02;  9.9454712E+01;  0.0000000E+00;  5.9511166E-07;  1.0000000E+02;  0.0000000E+00;  9.9818359E+01;  1.0141998E-02;  0.0000000E+00;  2.2251150E-03;  0.0000000E+00;
  3.2022953E+00;  9.9999998E-03; -1.0010921E+00;341;  1.1093065E-02;  0.0000000E+00; -2.1294944E-03;  9.9966049E+00;  4.0164888E-01; -3.0361947E-01;3;  1.7797163E-02;  0.0000000E+00;  2.4392590E-02;  0.0000000E+00;  0.0000000E+00;  0.0000000E+00;0;  1.3883356E-02;  9.9334564E+01;  0.0000000E+00;  2.6787311E-06;  1.0000000E+02;  0.0000000E+00;  9.9777023E+01;  1.2278532E-02;  0.0000000E+00;  1.6048246E-03;  0.0000000E+00;
  3.2022800E+00;  9.9999998E-03; -8.0086124E-01;342;  1.0931947E-02;  0.0000000E+00; -2.1018058E-03;  9.9965811E+00;  4.0162563E-01; -3.0575174E-01;3;  1.8292826E-02;  0.0000000E+00;  1.4107826E-02;  0.0000000E+00;  0.0000000E+00;  0.0000000E+00;0;  1.4405669E-02;  9.9340286E+01;  0.0000000E+00;  5.7118727E-06;  1.0000000E+02;  0.0000000E+00;  9.9782448E+01;  1.2177704E-02;  0.0000000E+00;  2.2279648E-03;  0.0000000E+00;
  3.2022140E+00;  9.9999998E-03; -6.0068464E-01;343;  1.0682649E-02;  0.0000000E+00; -1.8451043E-03;  9.9965343E+00;  4.0162069E-01; -3.0990994E-01;3;  1.8745214E-02;  0.0000000E+00;  1.3268524E-02;  0.0000000E+00;  0.0000000E+00;  0.0000000E+00;0;  1.4559548E-02;  9.9346519E+01;  0.0000000E+00;  4.9404734E-06;  1.0000000E+02;  0.0000000E+00;  9.9777740E+01;  1.2061984E-02;  0.0000000E+00;  2.4975643E-03;  0.0000000E+00;
  3.2021492E+00;  9.9999998E-03; -4.0045637E-01;344;  1.0506202E-02;  0.0000000E+00; -1.8318054E-03;  9.9965057E+00;  4.0159541E-01; -3.1246898E-01;3;  1.9069660E-02;  0.0000000E+00;  4.6328655E-03;  0.0000000E+00;  0.0000000E+00;  0.0000000E+00;0;  1.4752710E-02;  9.9352295E+01;  0.0000000E+00;  2.5691572E-06;  1.0000000E+02;  0.0000000E+00;  9.9783791E+01;  1.1949443E-02;  0.0000000E+00;  2.8032670E-03;  0.0000000E+00;
  3.2020862E+00;  9.9999998E-03; -2.0020065E-01;345;  1.0366077E-02;  0.0000000E+00; -9.2646619E-04;  9.9965343E+00;  4.0158001E-01; -3.0991083E-01;3;  1.9229185E-02;  0.0000000E+00;  1.2415297E-03;  0.0000000E+00;  0.0000000E+00;  0.0000000E+00;0;  1.4633922E-02;  9.9356606E+01;  0.0000000E+00;  6.5815721E-07;  1.0000000E+02;  0.0000000E+00;  9.9787849E+01;  1.1865055E-02;  0.0000000E+00;  2.7688672E-03;  0.0000000E+00;
  3.4030261E+00;  9.9999998E-03; -1.0012401E+00;352;  1.3795910E-02;  0.0000000E+00; -2.2979963E-03;  9.9963694E+00;  4.0193722E-01; -3.2363683E-01;3;  2.6023896E-02;  0.0000000E+00;  2.2903915E-02;  0.0000000E+00;  0.0000000E+00;  0.0000000E+00;0;  1.6037118E-02;  9.9216736E+01;  0.0000000E+00;  2.2981435E-06;  1.0000000E+02;  0.0000000E+00;  9.9747856E+01;  1.4548841E-02;  0.0000000E+00;  1.4882759E-03;  0.0000000E+00;
  3.4029741E+00;  9.9999998E-03; -8.0098230E-01;353;  1.3496724E-02;  0.0000000E+00; -2.4256236E-03;  9.9962177E+00;  4.0191227E-01; -3.3718610E-01;3;  2.5869820E-02;  0.0000000E+00;  2.5576580E-02;  0.0000000E+00;  0.0000000E+00;  0.0000000E+00;0;  1.6973006E-02;  9.9222931E+01;  0.0000000E+00;  5.2968571E-06;  1.0000000E+02;  0.0000000E+00;  9.9750931E+01;  1.4433816E-02;  0.0000000E+00;  2.5391888E-03;  0.0000000E+00;
  3.4028831E+00;  9.9999998E-03; -6.0075319E-01;354;  1.3120161E-02;  0.0000000E+00; -2.2193170E-03;  9.9961872E+00;  4.0189976E-01; -3.3989626E-01;3;  2.5663771E-02;  0.0000000E+00;  1.4762435E-02;  0.0000000E+00;  0.0000000E+00;  0.0000000E+00;0;  1.7271468E-02;  9.9229897E+01;  0.0000000E+00;  4.5049651E-06;  1.0000000E+02;  0.0000000E+00;  9.9749413E+01;  1.4302189E-02;  0.0000000E+00;  2.9692804E-03;  0.0000000E+00;
  3.4027984E+00;  9.9999998E-03; -4.0048370E-01;355;  1.2818645E-02;  0.0000000E+00; -1.9543313E-03;  9.9961672E+00;  4.0187418E-01; -3.4164995E-01;3;  2.5357567E-02;  0.0000000E+00;  5.5495435E-03;  0.0000000E+00;  0.0000000E+00;  0.0000000E+00;0;  1.7409921E-02;  9.9236542E+01;  0.0000000E+00;  2.2976328E-06;  1.0000000E+02;  0.0000000E+00;  9.9755119E+01;  1.4174606E-02;  0.0000000E+00;  3.2353154E-03;  0.0000000E+00;
  3.4027185E+00;  9.9999998E-03; -2.0020892E-01;356;  1.2580369E-02;  0.0000000E+00; -9.5245091E-04;  9.9961872E+00;  4.0185896E-01; -3.3989680E-01;3;  2.5041860E-02;  0.0000000E+00;  1.7895962E-03;  0.0000000E+00;  0.0000000E+00;  0.0000000E+00;0;  1.7329797E-02;  9.9241417E+01;  0.0000000E+00;  5.8220053E-07;  1.0000000E+02;  0.0000000E+00;  9.9758102E+01;  1.4079149E-02;  0.0000000E+00;  3.2506487E-03;  0.0000000E+00;
  3.6038895E+00;  9.9999998E-03; -1.0013891E+00;363;  1.7074076E-02;  0.0000000E+00; -2.4628469E-03;  9.9960632E+00;  4.0226147E-01; -3.5043159E-01;3;  3.6551937E-02;  0.0000000E+00;  2.1464303E-02;  0.0000000E+00;  0.0000000E+00;  0.0000000E+00;0;  1.8568758E-02;  9.9079567E+01;  0.0000000E+00;  1.3969970E-06;  1.0000000E+02;  0.0000000E+00;  9.9718819E+01;  1.7156808E-02;  0.0000000E+00;  1.4119507E-03;  0.0000000E+00;
  3.6038239E+00;  9.9999998E-03; -8.0110198E-01;364;  1.6734093E-02;  0.0000000E+00; -2.5852409E-03;  9.9958353E+00;  4.0223297E-01; -3.7069890E-01;3;  3.5823755E-02;  0.0000000E+00;  2.9985011E-02;  0.0000000E+00;  0.0000000E+00;  0.0000000E+00;0;  1.9663313E-02;  9.9087875E+01;  0.0000000E+00;  4.0155023E-06;  1.0000000E+02;  0.0000000E+00;  9.9719948E+01;  1.7014226E-02;  0.0000000E+00;  2.6490882E-03;  0.0000000E+00;
  3.6037273E+00;  9.9999998E-03; -6.0081398E-01;365;  1.6328871E-02;  0.0000000E+00; -2.5223286E-03;  9.9957886E+00;  4.0220767E-01; -3.7489048E-01;3;  3.5069380E-02;  0.0000000E+00;  1.6890951E-02;  0.0000000E+00;  0.0000000E+00;  0.0000000E+00;0;  2.0234358E-02;  9.9097359E+01;  0.0000000E+00;  2.9874361E-06;  1.0000000E+02;  0.0000000E+00;  9.9722099E+01;  1.6851583E-02;  0.0000000E+00;  3.3827738E-03;  0.0000000E+00;
  3.6036437E+00;  9.9999998E-03; -4.0050048E-01;366;  1.6001359E-02;  0.0000000E+00; -1.9640275E-03;  9.9957895E+00;  4.0217906E-01; -3.7478453E-01;3;  3.4277380E-02;  0.0000000E+00;  6.6933366E-03;  0.0000000E+00;  0.0000000E+00;  0.0000000E+00;0;  2.0287097E-02;  9.9106644E+01;  0.0000000E+00;  1.1305939E-06;  1.0000000E+02;  0.0000000E+00;  9.9726715E+01;  1.6691692E-02;  0.0000000E+00;  3.5954046E-03;  0.0000000E+00;
  3.6035600E+00;  9.9999998E-03; -2.0021260E-01;367;  1.5732966E-02;  0.0000000E+00; -9.1349339E-04;  9.9957972E+00;  4.0216258E-01; -3.7409490E-01;3;  3.3612054E-02;  0.0000000E+00;  2.6720657E-03;  0.0000000E+00;  0.0000000E+00;  0.0000000E+00;0;  2.0245580E-02;  9.9113731E+01;  0.0000000E+00;  1.9100477E-07;  1.0000000E+02;  0.0000000E+00;  9.9727959E+01;  1.6569508E-02;  0.0000000E+00;  3.6760720E-03;  0.0000000E+00;
  3.8048716E+00;  9.9999998E-03; -1.0015492E+00;374;  2.0838991E-02;  0.0000000E+00; -2.6644778E-03;  9.9956646E+00;  4.0264264E-01; -3.8566858E-01;3;  4.8608020E-02;  0.0000000E+00;  1.7337147E-02;  0.0000000E+00;  0.0000000E+00;  0.0000000E+00;0;  2.1444278E-02;  9.8914955E+01;  0.0000000E+00;  2.1376813E-06;  1.0000000E+02;  0.0000000E+00;  9.9687683E+01;  2.0013178E-02;  0.0000000E+00;  1.4311001E-03;  0.0000000E+00;
  3.8048089E+00;  9.9999998E-03; -8.0123204E-01;375;  2.0538472E-02;  0.0000000E+00; -2.7217572E-03;  9.9954109E+00;  4.0260458E-01; -4.0820217E-01;3;  4.7512699E-02;  0.0000000E+00;  2.6449677E-02;  0.0000000E+00;  0.0000000E+00;  0.0000000E+00;0;  2.2547644E-02;  9.8929169E+01;  0.0000000E+00;  3.0215101E-06;  1.0000000E+02;  0.0000000E+00;  9.9687126E+01;  1.9797973E-02;  0.0000000E+00;  2.7496710E-03;  0.0000000E+00;
  3.8047299E+00;  9.9999998E-03; -6.0088474E-01;376;  2.0210847E-02;  0.0000000E+00; -2.7941843E-03;  9.9953346E+00;  4.0255743E-01; -4.1498882E-01;3;  4.6441305E-02;  0.0000000E+00;  2.0969279E-02;  0.0000000E+00;  0.0000000E+00;  0.0000000E+00;0;  2.3344088E-02;  9.8945023E+01;  0.0000000E+00;  6.5663374E-07;  1.0000000E+02;  0.0000000E+00;  9.9693024E+01;  1.9560715E-02;  0.0000000E+00;  3.7833739E-03;  0.0000000E+00;
  3.8046608E+00;  9.9999998E-03; -4.0051949E-01;377;  1.9950842E-02;  0.0000000E+00; -1.9466295E-03;  9.9953642E+00;  4.0251845E-01; -4.1239089E-01;3;  4.5430090E-02;  0.0000000E+00;  7.5510130E-03;  0.0000000E+00;  0.0000000E+00;  0.0000000E+00;0;  2.3259517E-02;  9.8960678E+01;  0.0000000E+00; -1.0430394E-06;  1.0000000E+02;  0.0000000E+00;  9.9697098E+01;  1.9328227E-02;  0.0000000E+00;  3.9312886E-03;  0.0000000E+00;
  3.8045852E+00;  9.9999998E-03; -2.0021646E-01;378;  1.9722247E-02;  0.0000000E+00; -8.4737834E-04;  9.9953718E+00;  4.0249687E-01; -4.1170171E-01;3;  4.4634830E-02;  0.0000000E+00;  3.5997664E-03;  0.0000000E+00;  0.0000000E+00;  0.0000000E+00;0;  2.3219608E-02;  9.8972641E+01;  0.0000000E+00; -5.9551070E-07;  1.0000000E+02;  0.0000000E+00;  9.9696037E+01;  1.9149980E-02;  0.0000000E+00;  4.0696277E-03;  0.0000000E+00;
  4.0059471E+00;  9.9999998E-03; -1.0017271E+00;385;  2.4955675E-02;  0.0000000E+00; -2.9707483E-03;  9.9951506E+00;  4.0310213E-01; -4.3124256E-01;3;  6.1378866E-02;  0.0000000E+00;  9.9096913E-03;  0.0000000E+00;  0.0000000E+00;  0.0000000E+00;0;  2.4647288E-02;  9.8714256E+01;  0.0000000E+00;  6.0204943E-06;  1.0000000E+02;  0.0000000E+00;  9.9652351E+01;  2.2990221E-02;  0.0000000E+00;  1.6570665E-03;  0.0000000E+00;
  4.0058947E+00;  9.9999998E-03; -8.0138433E-01;386;  2.4723453E-02;  0.0000000E+00; -2.9458147E-03;  9.9949102E+00;  4.0304777E-01; -4.5260328E-01;3;  6.0181689E-02;  0.0000000E+00;  1.9249769E-02;  0.0000000E+00;  0.0000000E+00;  0.0000000E+00;0;  2.5671359E-02;  9.8738434E+01;  0.0000000E+00;  5.0279941E-06;  1.0000000E+02;  0.0000000E+00;  9.9650047E+01;  2.2663394E-02;  0.0000000E+00;  3.0079645E-03;  0.0000000E+00;
  4.0058427E+00;  9.9999998E-03; -6.0098892E-01;387;  2.4526443E-02;  0.0000000E+00; -3.0728609E-03;  9.9948025E+00;  4.0297186E-01; -4.6219710E-01;3;  5.9077326E-02;  0.0000000E+00;  2.1142732E-02;  0.0000000E+00;  0.0000000E+00;  0.0000000E+00;0;  2.6523313E-02;  9.8764694E+01;  0.0000000E+00;  5.0690807E-07;  1.0000000E+02;  0.0000000E+00;  9.9659065E+01;  2.2314494E-02;  0.0000000E+00;  4.2088176E-03;  0.0000000E+00;
  4.0057902E+00;  9.9999998E-03; -4.0056211E-01;388;  2.4383511E-02;  0.0000000E+00; -2.0574147E-03;  9.9948721E+00;  4.0291122E-01; -4.5599559E-01;3;  5.8172047E-02;  0.0000000E+00;  7.2375727E-03;  0.0000000E+00;  0.0000000E+00;  0.0000000E+00;0;  2.6294630E-02;  9.8790100E+01;  0.0000000E+00; -2.3356695E-06;  1.0000000E+02;  0.0000000E+00;  9.9664581E+01;  2.1981362E-02;  0.0000000E+00;  4.3132678E-03;  0.0000000E+00;
  4.0057225E+00;  9.9999998E-03; -2.0022994E-01;389;  2.4228003E-02;  0.0000000E+00; -8.3267450E-04;  9.9948931E+00;  4.0287873E-01; -4.5414048E-01;3;  5.7529725E-02;  0.0000000E+00;  4.0113120E-03;  0.0000000E+00;  0.0000000E+00;  0.0000000E+00;0;  2.6190784E-02;  9.8809334E+01;  0.0000000E+00; -1.2198217E-06;  1.0000000E+02;  0.0000000E+00;  9.9661896E+01;  2.1733055E-02;  0.0000000E+00;  4.4577285E-03;  0.0000000E+00;
  4.2071171E+00;  9.9999998E-03; -1.0019182E+00;396;  2.9421693E-02;  0.0000000E+00; -3.4644939E-03;  9.9945097E+00;  4.0363595E-01; -4.8815644E-01;3;  7.4126028E-02;  0.0000000E+00; -4.4900486E-03;  0.0000000E+00;  0.0000000E+00;  0.0000000E+00;0;  2.8063999E-02;  9.8479301E+01;  0.0000000E+00;  5.7118764E-06;  1.0000000E+02;  0.0000000E+00;  9.9613312E+01;  2.5821028E-02;  0.0000000E+00;  2.2429714E-03;  0.0000000E+00;
  4.2070608E+00;  9.9999998E-03; -8.0155975E-01;397;  2.9182710E-02;  0.0000000E+00; -3.2613308E-03;  9.9943094E+00;  4.0356445E-01; -5.0596344E-01;3;  7.2994895E-02;  0.0000000E+00;  1.2052080E-02;  0.0000000E+00;  0.0000000E+00;  0.0000000E+00;0;  2.8845239E-02;  9.8514938E+01;  0.0000000E+00; -9.4527195E-06;  1.0000000E+02;  0.0000000E+00;  9.9608406E+01;  2.5394235E-02;  0.0000000E+00;  3.4510053E-03;  0.0000000E+00;
  4.2070351E+00;  9.9999998E-03; -6.0114533E-01;398;  2.9078657E-02;  0.0000000E+00; -3.3844488E-03;  9.9941912E+00;  4.0346184E-01; -5.1650989E-01;3;  7.1971379E-02;  0.0000000E+00;  1.5247368E-02;  0.0000000E+00;  0.0000000E+00;  0.0000000E+00;0;  2.9625675E-02;  9.8552971E+01;  0.0000000E+00; -2.5511554E-05;  1.0000000E+02;  0.0000000E+00;  9.9618301E+01;  2.4940960E-02;  0.0000000E+00;  4.6847151E-03;  0.0000000E+00;
  4.2069798E+00;  9.9999998E-03; -4.0066028E-01;399;  2.8985418E-02;  0.0000000E+00; -2.4740414E-03;  9.9942846E+00;  4.0337154E-01; -5.0818938E-01;3;  7.1323462E-02;  0.0000000E+00;  5.0723599E-03;  0.0000000E+00;  0.0000000E+00;  0.0000000E+00;0;  2.9322242E-02;  9.8589119E+01;  0.0000000E+00; -1.2929264E-05;  1.0000000E+02;  0.0000000E+00;  9.9628349E+01;  2.4520408E-02;  0.0000000E+00;  4.8018345E-03;  0.0000000E+00;
  4.2068915E+00;  9.9999998E-03; -2.0026925E-01;400;  2.8819758E-02;  0.0000000E+00; -9.8378875E-04;  9.9943352E+00;  4.0332302E-01; -5.0368464E-01;3;  7.1031936E-02;  0.0000000E+00;  3.2609997E-03;  0.0000000E+00;  0.0000000E+00;  0.0000000E+00;0;  2.9066972E-02;  9.8615845E+01;  0.0000000E+00; -1.3184795E-06;  1.0000000E+02;  0.0000000E+00;  9.9626411E+01;  2.4217565E-02;  0.0000000E+00;  4.8494069E-03;  0.0000000E+00;
  4.4086027E+00;  9.9999998E-03; -1.0021019E+00;407;  3.4946732E-02;  0.0000000E+00; -4.2425063E-03;  9.9937630E+00;  4.0419009E-01; -5.5452836E-01;3;  8.6509608E-02;  0.0000000E+00; -2.8303141E-02;  0.0000000E+00;  0.0000000E+00;  0.0000000E+00;0;  3.1426698E-02;  9.8233032E+01;  0.0000000E+00; -4.2354236E-06;  1.0000000E+02;  0.0000000E+00;  9.9574547E+01;  2.8039152E-02;  0.0000000E+00;  3.3875443E-03;  0.0000000E+00;
  4.4084306E+00;  9.9999998E-03; -8.0173719E-01;408;  3.4318466E-02;  0.0000000E+00; -3.5743213E-03;  9.9936495E+00;  4.0411073E-01; -5.6459725E-01;3;  8.5451163E-02;  0.0000000E+00;  1.7314007E-03;  0.0000000E+00;  0.0000000E+00;  0.0000000E+00;0;  3.1561639E-02;  9.8277115E+01;  0.0000000E+00; -6.1523744E-05;  1.0000000E+02;  0.0000000E+00;  9.9566879E+01;  2.7585734E-02;  0.0000000E+00;  3.9759055E-03;  0.0000000E+00;
  4.4083219E+00;  9.9999998E-03; -6.0134256E-01;409;  3.3898350E-02;  0.0000000E+00; -3.6072254E-03;  9.9935389E+00;  4.0399516E-01; -5.7445413E-01;3;  8.4242880E-02;  0.0000000E+00;  7.4961442E-03;  0.0000000E+00;  0.0000000E+00;  0.0000000E+00;0;  3.2210544E-02;  9.8324066E+01;  0.0000000E+00; -1.9407646E-04;  1.0000000E+02;  0.0000000E+00;  9.9573868E+01;  2.7091226E-02;  0.0000000E+00;  5.1193181E-03;  0.0000000E+00;
  4.4082136E+00;  9.9999998E-03; -4.0083766E-01;410;  3.3585802E-02;  0.0000000E+00; -3.2376931E-03;  9.9936113E+00;  4.0387723E-01; -5.6798887E-01;3;  8.3472185E-02;  0.0000000E+00;  1.2009096E-03;  0.0000000E+00;  0.0000000E+00;  0.0000000E+00;0;  3.2030616E-02;  9.8367432E+01;  0.0000000E+00; -1.4711777E-04;  1.0000000E+02;  0.0000000E+00;  9.9589478E+01;  2.6642213E-02;  0.0000000E+00;  5.3884028E-03;  0.0000000E+00;
  4.4081063E+00;  9.9999998E-03; -2.0034996E-01;411;  3.3310775E-02;  0.0000000E+00; -1.3698835E-03;  9.9937077E+00;  4.0381089E-01; -5.5945688E-01;3;  8.3215088E-02;  0.0000000E+00;  1.0490663E-03;  0.0000000E+00;  0.0000000E+00;  0.0000000E+00;0;  3.1544492E-02;  9.8398315E+01;  0.0000000E+00; -3.7410857E-05;  1.0000000E+02;  0.0000000E+00;  9.9592888E+01;  2.6329637E-02;  0.0000000E+00;  5.2148541E-03;  0.0000000E+00;
  4.6109080E+00;  9.9999998E-03; -1.0022526E+00;418;  4.3040082E-02;  0.0000000E+00; -5.3239651E-03;  9.9929361E+00;  4.0467530E-01; -6.2801403E-01;3;  9.8092541E-02;  0.0000000E+00; -5.2264940E-02;  0.0000000E+00;  0.0000000E+00;  0.0000000E+00;0;  3.4297355E-02;  9.8014717E+01;  0.0000000E+00;  2.3512049E-04;  1.0000000E+02;  0.0000000E+00;  9.9540657E+01;  2.9118422E-02;  0.0000000E+00;  5.1789321E-03;  0.0000000E+00;
  4.6104422E+00;  9.9999998E-03; -8.0187780E-01;419;  4.1410066E-02;  0.0000000E+00; -3.8646872E-03;  9.9929991E+00;  4.0459281E-01; -6.2244982E-01;3;  9.7030260E-02;  0.0000000E+00; -1.6056178E-02;  0.0000000E+00;  0.0000000E+00;  0.0000000E+00;0;  3.3269316E-02;  9.8063354E+01;  0.0000000E+00; -3.2567012E-04;  1.0000000E+02;  0.0000000E+00;  9.9533195E+01;  2.8697770E-02;  0.0000000E+00;  4.5715468E-03;  0.0000000E+00;
  4.6099868E+00;  9.9999998E-03; -6.0152233E-01;420;  3.9768305E-02;  0.0000000E+00; -3.6634782E-03;  9.9929132E+00;  4.0447971E-01; -6.3008070E-01;3;  9.5064051E-02;  0.0000000E+00; -3.0411298E-03;  0.0000000E+00;  0.0000000E+00;  0.0000000E+00;0;  3.3690818E-02;  9.8114288E+01;  0.0000000E+00; -6.5601605E-04;  1.0000000E+02;  0.0000000E+00;  9.9535194E+01;  2.8238200E-02;  0.0000000E+00;  5.4526166E-03;  0.0000000E+00;
  4.6096439E+00;  9.9999998E-03; -4.0105072E-01;421;  3.8551018E-02;  0.0000000E+00; -3.7160404E-03;  9.9929380E+00;  4.0435085E-01; -6.2785506E-01;3;  9.3212090E-02;  0.0000000E+00; -1.8676309E-03;  0.0000000E+00;  0.0000000E+00;  0.0000000E+00;0;  3.3656608E-02;  9.8158653E+01;  0.0000000E+00; -5.7240255E-04;  1.0000000E+02;  0.0000000E+00;  9.9554268E+01;  2.7842212E-02;  0.0000000E+00;  5.8143958E-03;  0.0000000E+00;
  4.6093740E+00;  9.9999998E-03; -2.0046349E-01;422;  3.7674908E-02;  0.0000000E+00; -1.9064575E-03;  9.9930687E+00;  4.0426970E-01; -6.1624974E-01;3;  9.2217512E-02;  0.0000000E+00; -2.2040021E-03;  0.0000000E+00;  0.0000000E+00;  0.0000000E+00;0;  3.3059798E-02;  9.8188629E+01;  0.0000000E+00; -1.9739584E-04;  1.0000000E+02;  0.0000000E+00;  9.9566498E+01;  2.7575545E-02;  0.0000000E+00;  5.4842541E-03;  0.0000000E+00;
  4.8143959E+00;  9.9999998E-03; -1.0023546E+00;429;  5.4763485E-02;  0.0000000E+00; -6.4675971E-03;  9.9919720E+00;  4.0504518E-01; -7.1374726E-01;3;  1.0673905E-01;  0.0000000E+00; -6.9238566E-02;  0.0000000E+00;  0.0000000E+00;  0.0000000E+00;0;  3.6386047E-02;  9.7844460E+01;  0.0000000E+00;  3.8370634E-03;  1.0000000E+02;  0.0000000E+00;  9.9512840E+01;  2.9161949E-02;  0.0000000E+00;  7.2240992E-03;  0.0000000E+00;
  4.8134232E+00;  9.9999998E-03; -8.0194318E-01;430;  5.1535193E-02;  0.0000000E+00; -4.0273662E-03;  9.9923983E+00;  4.0492451E-01; -6.7585808E-01;3;  1.0608755E-01;  0.0000000E+00; -3.9590724E-02;  0.0000000E+00;  0.0000000E+00;  0.0000000E+00;0;  3.3621326E-02;  9.7908798E+01;  0.0000000E+00; -1.8138490E-03;  1.0000000E+02;  0.0000000E+00;  9.9515060E+01;  2.8526289E-02;  0.0000000E+00;  5.0950386E-03;  0.0000000E+00;
  4.8123469E+00;  9.9999998E-03; -6.0160714E-01;431;  4.7689252E-02;  0.0000000E+00; -3.2162364E-03;  9.9924011E+00;  4.0480393E-01; -6.7559314E-01;3;  1.0305289E-01;  0.0000000E+00; -1.1714293E-02;  0.0000000E+00;  0.0000000E+00;  0.0000000E+00;0;  3.3370174E-02;  9.7968010E+01;  0.0000000E+00; -1.9531809E-03;  1.0000000E+02;  0.0000000E+00;  9.9513977E+01;  2.7970256E-02;  0.0000000E+00;  5.3999186E-03;  0.0000000E+00;
  4.8115344E+00;  9.9999998E-03; -4.0115744E-01;432;  4.4737186E-02;  0.0000000E+00; -3.2360316E-03;  9.9924068E+00;  4.0467110E-01; -6.7506325E-01;3;  9.9324539E-02;  0.0000000E+00; -9.0779876E-03;  0.0000000E+00;  0.0000000E+00;  0.0000000E+00;0;  3.3410482E-02;  9.8011246E+01;  0.0000000E+00; -1.2085409E-03;  1.0000000E+02;  0.0000000E+00;  9.9535538E+01;  2.7615624E-02;  0.0000000E+00;  5.7948576E-03;  0.0000000E+00;
  4.8109827E+00;  9.9999998E-03; -2.0056604E-01;433;  4.2894870E-02;  0.0000000E+00; -2.2916719E-03;  9.9925013E+00;  4.0458703E-01; -6.6669053E-01;3;  9.7267382E-02;  0.0000000E+00; -5.2883681E-03;  0.0000000E+00;  0.0000000E+00;  0.0000000E+00;0;  3.3010580E-02;  9.8036980E+01;  0.0000000E+00; -3.8361229E-04;  1.0000000E+02;  0.0000000E+00;  9.9552467E+01;  2.7433403E-02;  0.0000000E+00;  5.5771787E-03;  0.0000000E+00;
  5.0178728E+00;  9.9999998E-03; -1.0023979E+00;440;  5.9485178E-02;  0.0000000E+00; -7.6317815E-03;  9.9909611E+00;  4.0531787E-01; -8.0361712E-01;3;  3.7308227E-02;  0.0000000E+00; -8.3051220E-02;  0.0000000E+00;  0.0000000E+00;  0.0000000E+00;0;  3.6749199E-02;  9.7713089E+01;  0.0000000E+00;  2.0492647E-02;  1.0000000E+02;  0.0000000E+00;  9.9492889E+01;  2.7349697E-02;  0.0000000E+00;  9.3995025E-03;  0.0000000E+00;
  5.0172253E+00;  9.9999998E-03; -8.0189347E-01;441;  6.1234713E-02;  0.0000000E+00; -4.2073978E-03;  9.9916506E+00;  4.0511772E-01; -7.4230587E-01;3;  6.0971644E-02;  0.0000000E+00; -6.4729162E-02;  0.0000000E+00;  0.0000000E+00;  0.0000000E+00;0;  3.3276040E-02;  9.7793945E+01;  0.0000000E+00; -4.3517919E-03;  1.0000000E+02;  0.0000000E+00;  9.9522369E+01;  2.7590575E-02;  0.0000000E+00;  5.6854663E-03;  0.0000000E+00;
  5.0156565E+00;  9.9999998E-03; -6.0153627E-01;442;  5.8235742E-02;  0.0000000E+00; -2.4142766E-03;  9.9918947E+00;  4.0492964E-01; -7.2057939E-01;3;  1.0323692E-01;  0.0000000E+00; -2.9162446E-02;  0.0000000E+00;  0.0000000E+00;  0.0000000E+00;0;  3.1812467E-02;  9.7890678E+01;  0.0000000E+00; -6.2284190E-03;  1.0000000E+02;  0.0000000E+00;  9.9520988E+01;  2.6825575E-02;  0.0000000E+00;  4.9868920E-03;  0.0000000E+00;
  5.0142407E+00;  9.9999998E-03; -4.0109962E-01;443;  5.3251907E-02;  0.0000000E+00; -2.1339860E-03;  9.9919767E+00;  4.0476701E-01; -7.1331954E-01;3;  1.0011068E-01;  0.0000000E+00; -1.5056810E-02;  0.0000000E+00;  0.0000000E+00;  0.0000000E+00;0;  3.1443410E-02;  9.7952919E+01;  0.0000000E+00; -2.3758279E-03;  1.0000000E+02;  0.0000000E+00;  9.9539230E+01;  2.6046671E-02;  0.0000000E+00;  5.3967368E-03;  0.0000000E+00;
  5.0134010E+00;  9.9999998E-03; -2.0058540E-01;444;  5.0467864E-02;  0.0000000E+00; -1.9628769E-03;  9.9920359E+00;  4.0467981E-01; -7.0807338E-01;3;  9.7896300E-02;  0.0000000E+00; -7.0645306E-03;  0.0000000E+00;  0.0000000E+00;  0.0000000E+00;0;  3.1189643E-02;  9.7981071E+01;  0.0000000E+00; -5.2093389E-04;  1.0000000E+02;  0.0000000E+00;  9.9554649E+01;  2.5788276E-02;  0.0000000E+00;  5.4013683E-03;  0.0000000E+00;
  5.2192826E+00;  9.9999998E-03; -1.0022963E+00;451;  5.8747333E-02;  0.0000000E+00; -8.3142351E-03;  9.9907169E+00;  4.0518904E-01; -8.2528865E-01;3;  4.0343709E-02;  0.0000000E+00; -8.6143538E-02;  0.0000000E+00;  0.0000000E+00;  0.0000000E+00;0;  3.2966547E-02;  9.7754173E+01;  0.0000000E+00;  4.5307577E-02;  1.0000000E+02;  0.0000000E+00;  9.9509674E+01;  2.2138234E-02;  0.0000000E+00;  1.0828312E-02;  0.0000000E+00;
  5.2194743E+00;  9.9999998E-03; -8.0170190E-01;452;  6.1592571E-02;  0.0000000E+00; -5.4402123E-03;  9.9911060E+00;  4.0503821E-01; -7.9073828E-01;3;  1.7583130E-02;  0.0000000E+00; -1.0838696E-01;  0.0000000E+00;  0.0000000E+00;  0.0000000E+00;0;  3.1358395E-02;  9.7779655E+01;  0.0000000E+00;  2.3068823E-03;  1.0000000E+02;  0.0000000E+00;  9.9565376E+01;  2.3690749E-02;  0.0000000E+00;  7.6676463E-03;  0.0000000E+00;
  5.2188063E+00;  9.9999998E-03; -6.0130560E-01;453;  6.3915573E-02;  0.0000000E+00; -1.7213406E-03;  9.9912834E+00;  4.0489322E-01; -7.7494681E-01;3;  2.4672490E-02;  0.0000000E+00; -5.0046816E-02;  0.0000000E+00;  0.0000000E+00;  0.0000000E+00;0;  2.9245596E-02;  9.7857269E+01;  0.0000000E+00; -1.1096418E-02;  1.0000000E+02;  0.0000000E+00;  9.9561104E+01;  2.4757579E-02;  0.0000000E+00;  4.4880169E-03;  0.0000000E+00;
  5.2176595E+00;  9.9999998E-03; -4.0085128E-01;454;  6.2532715E-02;  0.0000000E+00; -7.1211992E-04;  9.9913597E+00;  4.0469924E-01; -7.6816392E-01;3;  8.5361078E-02;  0.0000000E+00; -2.6532039E-02;  0.0000000E+00;  0.0000000E+00;  0.0000000E+00;0;  2.8895792E-02;  9.7942322E+01;  0.0000000E+00; -5.5118175E-03;  1.0000000E+02;  0.0000000E+00;  9.9571266E+01;  2.4264822E-02;  0.0000000E+00;  4.6309698E-03;  0.0000000E+00;
  5.2168818E+00;  9.9999998E-03; -2.0039071E-01;455;  6.0684625E-02;  0.0000000E+00; -2.1426789E-04;  9.9914179E+00;  4.0459689E-01; -7.6297075E-01;3;  8.8382840E-02;  0.0000000E+00; -9.2998119E-03;  0.0000000E+00;  0.0000000E+00;  0.0000000E+00;0;  2.8568087E-02;  9.7986534E+01;  0.0000000E+00; -1.1465370E-03;  1.0000000E+02;  0.0000000E+00;  9.9577972E+01;  2.3776408E-02;  0.0000000E+00;  4.7916789E-03;  0.0000000E+00;
  5.4196854E+00;  9.9999998E-03; -1.0020189E+00;462;  5.8142740E-02;  0.0000000E+00; -6.7786360E-03;  9.9919682E+00;  4.0446991E-01; -7.1405894E-01;3;  4.7778148E-02;  0.0000000E+00; -7.7602841E-02;  0.0000000E+00;  0.0000000E+00;  0.0000000E+00;0;  2.3182241E-02;  9.8065338E+01;  0.0000000E+00;  5.7461392E-02;  1.0000000E+02;  0.0000000E+00;  9.9571922E+01;  1.4538129E-02;  0.0000000E+00;  8.6441124E-03;  0.0000000E+00;
  5.4212437E+00;  9.9999998E-03; -8.0167830E-01;463;  6.1825089E-02;  0.0000000E+00; -5.6468640E-03;  9.9903231E+00;  4.0492469E-01; -8.6031514E-01;3; -8.5629337E-03;  0.0000000E+00; -1.0127173E-01;  0.0000000E+00;  0.0000000E+00;  0.0000000E+00;0;  2.6428094E-02;  9.7826599E+01;  0.0000000E+00;  2.7433081E-02;  1.0000000E+02;  0.0000000E+00;  9.9558357E+01;  1.8163526E-02;  0.0000000E+00;  8.2645677E-03;  0.0000000E+00;
  5.4206815E+00;  9.9999998E-03; -6.0120451E-01;464;  6.4065084E-02;  0.0000000E+00; -1.7564574E-03;  9.9905806E+00;  4.0467587E-01; -8.3742285E-01;3;  1.5647690E-03;  0.0000000E+00; -6.9712915E-02;  0.0000000E+00;  0.0000000E+00;  0.0000000E+00;0;  2.4579767E-02;  9.7926521E+01;  0.0000000E+00; -6.5738154E-03;  1.0000000E+02;  0.0000000E+00;  9.9583900E+01;  2.0124568E-02;  0.0000000E+00;  4.4551999E-03;  0.0000000E+00;
  5.4197640E+00;  9.9999998E-03; -4.0082115E-01;465;  6.4390197E-02;  0.0000000E+00; -4.6779629E-04;  9.9904499E+00;  4.0444136E-01; -8.4902799E-01;3; -3.0624354E-04;  0.0000000E+00; -2.1889551E-02;  0.0000000E+00;  0.0000000E+00;  0.0000000E+00;0;  2.4782177E-02;  9.8029762E+01;  0.0000000E+00; -6.1755478E-03;  1.0000000E+02;  0.0000000E+00;  9.9591591E+01;  2.0546271E-02;  0.0000000E+00;  4.2359070E-03;  0.0000000E+00;
  5.4190516E+00;  9.9999998E-03; -2.0040511E-01;466;  6.4274773E-02;  0.0000000E+00; -1.5198576E-04;  9.9905739E+00;  4.0429205E-01; -8.3800578E-01;3;  5.9788376E-03;  0.0000000E+00; -1.1970435E-02;  0.0000000E+00;  0.0000000E+00;  0.0000000E+00;0;  2.4994465E-02;  9.8092819E+01;  0.0000000E+00; -1.4128633E-03;  1.0000000E+02;  0.0000000E+00;  9.9603462E+01;  2.0598223E-02;  0.0000000E+00;  4.3962416E-03;  0.0000000E+00;
  5.6213322E+00;  9.9999998E-03; -8.0124044E-01;473;  6.0527533E-02;  0.0000000E+00; -5.3216722E-03;  9.9908504E+00;  4.0388200E-01; -8.1341743E-01;3;  1.7753480E-02;  0.0000000E+00; -6.5427743E-02;  0.0000000E+00;  0.0000000E+00;  0.0000000E+00;0;  1.8154945E-02;  9.8234634E+01;  0.0000000E+00;  4.7331572E-02;  1.0000000E+02;  0.0000000E+00;  9.9667664E+01;  9.9556819E-03;  0.0000000E+00;  8.1992643E-03;  0.0000000E+00;
  5.6215839E+00;  9.9999998E-03; -6.0097724E-01;474;  6.3608550E-02;  0.0000000E+00; -1.9172038E-03;  9.9899969E+00;  4.0404132E-01; -8.8930106E-01;3;  4.9475641E-03;  0.0000000E+00; -5.6905884E-02;  0.0000000E+00;  0.0000000E+00;  0.0000000E+00;0;  1.8432913E-02;  9.8170296E+01;  0.0000000E+00;  1.0853091E-02;  1.0000000E+02;  0.0000000E+00;  9.9637566E+01;  1.3937292E-02;  0.0000000E+00;  4.4956217E-03;  0.0000000E+00;
  5.6210551E+00;  9.9999998E-03; -4.0057707E-01;475;  6.4130232E-02;  0.0000000E+00; -5.2001927E-04;  9.9896593E+00;  4.0386251E-01; -9.1934717E-01;3; -2.4642241E-03;  0.0000000E+00; -2.1891290E-02;  0.0000000E+00;  0.0000000E+00;  0.0000000E+00;0;  1.8702256E-02;  9.8240814E+01;  0.0000000E+00; -1.5364604E-03;  1.0000000E+02;  0.0000000E+00;  9.9647194E+01;  1.4805402E-02;  0.0000000E+00;  3.8968546E-03;  0.0000000E+00;
  5.6206832E+00;  9.9999998E-03; -2.0026261E-01;476;  6.4065993E-02;  0.0000000E+00; -6.3733285E-05;  9.9894524E+00;  4.0378889E-01; -9.3773514E-01;3; -2.1588097E-03;  0.0000000E+00; -4.9765147E-03;  0.0000000E+00;  0.0000000E+00;  0.0000000E+00;0;  1.8940464E-02;  9.8273506E+01;  0.0000000E+00; -8.2371145E-04;  1.0000000E+02;  0.0000000E+00;  9.9646217E+01;  1.5002621E-02;  0.0000000E+00;  3.9378423E-03;  0.0000000E+00;
  5.8216047E+00;  9.9999998E-03; -6.0045362E-01;482;  6.2708080E-02;  0.0000000E+00; -2.5414417E-03;  9.9895153E+00;  4.0273044E-01; -9.3211788E-01;3;  1.1453959E-02;  0.0000000E+00; -3.3257555E-02;  0.0000000E+00;  0.0000000E+00;  0.0000000E+00;0;  1.2278553E-02;  9.8667542E+01;  0.0000000E+00;  1.6954390E-02;  1.0000000E+02;  0.0000000E+00;  9.9772125E+01;  7.0157354E-03;  0.0000000E+00;  5.2628182E-03;  0.0000000E+00;
  5.8215494E+00;  9.9999998E-03; -4.0024826E-01;483;  6.3813031E-02;  0.0000000E+00; -1.3948350E-04;  9.9886818E+00;  4.0283266E-01; -1.0062528E+00;3;  2.2168749E-03;  0.0000000E+00; -6.5524192E-03;  0.0000000E+00;  0.0000000E+00;  0.0000000E+00;0;  1.1907247E-02;  9.8643341E+01;  0.0000000E+00;  3.8949356E-03;  1.0000000E+02;  0.0000000E+00;  9.9729240E+01;  8.7279826E-03;  0.0000000E+00;  3.1792640E-03;  0.0000000E+00;
  5.8214102E+00;  9.9999998E-03; -2.0010822E-01;484;  6.3989624E-02;  0.0000000E+00;  8.1633560E-05;  9.9878635E+00;  4.0287769E-01; -1.0790099E+00;3; -3.1891069E-04;  0.0000000E+00; -1.6937619E-03;  0.0000000E+00;  0.0000000E+00;  0.0000000E+00;0;  1.2542937E-02;  9.8635986E+01;  0.0000000E+00;  4.3569304E-04;  1.0000000E+02;  0.0000000E+00;  9.9698380E+01;  9.1314130E-03;  0.0000000E+00;  3.4115240E-03;  0.0000000E+00;
  6.0215545E+00;  9.9999998E-03; -3.9989847E-01;489;  6.3420340E-02;  0.0000000E+00;  1.1171705E-04;  9.9830523E+00;  4.0135953E-01; -1.5067559E+00;3;  2.7612955E-03;  0.0000000E+00; -5.4476387E-04;  0.0000000E+00;  0.0000000E+00;  0.0000000E+00;0;  6.2177726E-03;  9.9154869E+01;  0.0000000E+00; -8.6023165E-03;  1.0000000E+02;  0.0000000E+00;  9.9831795E+01;  3.7157708E-03;  0.0000000E+00;  2.5020018E-03;  0.0000000E+00;
  6.0215874E+00;  9.9999998E-03; -1.9991887E-01;490;  6.3848071E-02;  0.0000000E+00;  4.6879399E-04;  9.9803438E+00;  4.0145409E-01; -1.7475486E+00;3;  3.0885721E-04;  0.0000000E+00;  8.0343895E-04;  0.0000000E+00;  0.0000000E+00;  0.0000000E+00;0;  7.0473482E-03;  9.9126282E+01;  0.0000000E+00; -2.2098005E-03;  1.0000000E+02;  0.0000000E+00;  9.9759537E+01;  4.3136072E-03;  0.0000000E+00;  2.7337410E-03;  0.0000000E+00;
 -2.8108884E-04;  9.9999998E-03;  3.3763205E-12;170; -4.3108084E-04;  0.0000000E+00;  2.8697151E-11;  1.0002015E+01;  3.9993817E-01;  2.1676114E-01;3; -1.8426526E-01;  0.0000000E+00;  1.2464518E-08;  0.0000000E+00;  0.0000000E+00;  0.0000000E+00;0; -5.1598385E-04;  1.0007449E+02;  0.0000000E+00; -4.8816386E-18;  1.0000000E+02;  0.0000000E+00;  9.9996773E+01; -5.2638445E-04;  0.0000000E+00;  1.0400619E-05;  0.0000000E+00;
 -2.7684943E-04;  9.9999998E-03;  2.0001206E-01;171; -4.2538624E-04;  0.0000000E+00;  1.2316035E-05;  1.0001970E+01;  3.9993981E-01;  2.1201548E-01;3; -1.7952399E-01;  0.0000000E+00;  6.8987054E-03;  0.0000000E+00;  0.0000000E+00;  0.0000000E+00;0; -5.0294155E-04;  1.0007256E+02;  0.0000000E+00; -7.3396012E-07;  1.0000000E+02;  0.0000000E+00;  9.9997078E+01; -5.1276403E-04;  0.0000000E+00;  9.8224873E-06;  0.0000000E+00;
 -2.6415609E-04;  9.9999998E-03;  4.0002307E-01;172; -4.0844706E-04;  0.0000000E+00;  2.3468388E-05;  1.0001833E+01;  3.9994416E-01;  1.9726546E-01;3; -1.6540560E-01;  0.0000000E+00;  1.5596151E-02;  0.0000000E+00;  0.0000000E+00;  0.0000000E+00;0; -4.6550078E-04;  1.0006701E+02;  0.0000000E+00; -9.0637550E-06;  1.0000000E+02;  0.0000000E+00;  9.9997711E+01; -4.7355087E-04;  0.0000000E+00;  8.0500977E-06;  0.0000000E+00;
 -2.4385312E-04;  9.9999998E-03;  6.0003150E-01;173; -3.8115028E-04;  0.0000000E+00;  3.2463948E-05;  1.0001620E+01;  3.9995036E-01;  1.7430674E-01;3; -1.4283222E-01;  0.0000000E+00;  2.6567949E-02;  0.0000000E+00;  0.0000000E+00;  0.0000000E+00;0; -4.0785375E-04;  1.0005839E+02;  0.0000000E+00; -3.7333295E-05;  1.0000000E+02;  0.0000000E+00;  9.9998749E+01; -4.1284523E-04;  0.0000000E+00;  4.9914870E-06;  0.0000000E+00;
 -2.1776577E-04;  9.9999998E-03;  8.0003643E-01;174; -3.4542583E-04;  0.0000000E+00;  3.9699848E-05;  1.0001348E+01;  3.9995879E-01;  1.4506322E-01;3; -1.1393640E-01;  0.0000000E+00;  3.8166411E-02;  0.0000000E+00;  0.0000000E+00;  0.0000000E+00;0; -3.3526937E-04;  1.0004749E+02;  0.0000000E+00; -8.3473635E-05;  1.0000000E+02;  0.0000000E+00;  1.0000000E+02; -3.3633964E-04;  0.0000000E+00;  1.0702770E-06;  0.0000000E+00;
 -1.8791872E-04;  9.9999998E-03;  1.0000395E+00;175; -3.0494839E-04;  0.0000000E+00;  4.7739170E-05;  1.0001035E+01;  3.9996850E-01;  1.1133058E-01;3; -8.2622796E-02;  0.0000000E+00;  4.6421453E-02;  0.0000000E+00;  0.0000000E+00;  0.0000000E+00;0; -2.5387277E-04;  1.0003555E+02;  0.0000000E+00; -1.1848479E-04;  1.0000000E+02;  0.0000000E+00;  1.0000087E+02; -2.5212317E-04;  0.0000000E+00; -1.7496004E-06;  0.0000000E+00;
  1.9964620E-01;  9.9999998E-03;  8.3527716E-13;181; -5.2685675E-04;  0.0000000E+00;  3.6195927E-12;  1.0001656E+01;  3.9992964E-01;  1.7815100E-01;3; -1.6557251E-01;  0.0000000E+00; -5.4905374E-09;  0.0000000E+00;  0.0000000E+00;  0.0000000E+00;0; -4.7781816E-04;  1.0007181E+02;  0.0000000E+00; -5.5512840E-18;  1.0000000E+02;  0.0000000E+00;  9.9996338E+01; -4.8731049E-04;  0.0000000E+00;  9.4923353E-06;  0.0000000E+00;
  1.9965196E-01;  9.9999998E-03;  2.0001140E-01;182; -5.1975698E-04;  0.0000000E+00;  8.6402861E-06;  1.0001616E+01;  3.9993200E-01;  1.7379020E-01;3; -1.6150643E-01;  0.0000000E+00;  7.8143822E-03;  0.0000000E+00;  0.0000000E+00;  0.0000000E+00;0; -4.6462365E-04;  1.0006985E+02;  0.0000000E+00; -8.7276067E-06;  1.0000000E+02;  0.0000000E+00;  9.9996597E+01; -4.7377497E-04;  0.0000000E+00;  9.1513184E-06;  0.0000000E+00;
  1.9966872E-01;  9.9999998E-03;  4.0002048E-01;183; -4.9868593E-04;  0.0000000E+00;  1.4582353E-05;  1.0001498E+01;  3.9993736E-01;  1.6122088E-01;3; -1.4948396E-01;  0.0000000E+00;  1.8355908E-02;  0.0000000E+00;  0.0000000E+00;  0.0000000E+00;0; -4.2766338E-04;  1.0006441E+02;  0.0000000E+00; -6.1552906E-05;  1.0000000E+02;  0.0000000E+00;  9.9997200E+01; -4.3569709E-04;  0.0000000E+00;  8.0337068E-06;  0.0000000E+00;
  1.9969542E-01;  9.9999998E-03;  6.0002536E-01;184; -4.6490482E-04;  0.0000000E+00;  1.5906491E-05;  1.0001329E+01;  3.9994362E-01;  1.4300816E-01;3; -1.3034055E-01;  0.0000000E+00;  3.2935590E-02;  0.0000000E+00;  0.0000000E+00;  0.0000000E+00;0; -3.7340209E-04;  1.0005618E+02;  0.0000000E+00; -1.9761444E-04;  1.0000000E+02;  0.0000000E+00;  9.9998405E+01; -3.7917928E-04;  0.0000000E+00;  5.7771877E-06;  0.0000000E+00;
  1.9973072E-01;  9.9999998E-03;  8.0002564E-01;185; -4.2129925E-04;  0.0000000E+00;  1.3128968E-05;  1.0001122E+01;  3.9995241E-01;  1.2069120E-01;3; -1.0612665E-01;  0.0000000E+00;  5.0026070E-02;  0.0000000E+00;  0.0000000E+00;  0.0000000E+00;0; -3.0929025E-04;  1.0004617E+02;  0.0000000E+00; -3.9381336E-04;  1.0000000E+02;  0.0000000E+00;  9.9999870E+01; -3.1135342E-04;  0.0000000E+00;  2.0631696E-06;  0.0000000E+00;
  1.9977218E-01;  9.9999998E-03;  1.0000224E+00;186; -3.6706275E-04;  0.0000000E+00;  1.0650806E-05;  1.0000891E+01;  3.9996198E-01;  9.5809057E-02;3; -8.0593534E-02;  0.0000000E+00;  6.3992806E-02;  0.0000000E+00;  0.0000000E+00;  0.0000000E+00;0; -2.4223536E-04;  1.0003547E+02;  0.0000000E+00; -5.3475011E-04;  1.0000000E+02;  0.0000000E+00;  1.0000108E+02; -2.3980744E-04;  0.0000000E+00; -2.4279116E-06;  0.0000000E+00;
  3.9957023E-01;  9.9999998E-03;  3.1241388E-12;192; -6.2396395E-04;  0.0000000E+00; -1.5640393E-10;  1.0001195E+01;  3.9993116E-01;  1.2850921E-01;3; -1.6584466E-01;  0.0000000E+00; -3.0134515E-08;  0.0000000E+00;  0.0000000E+00;  0.0000000E+00;0; -3.9037474E-04;  1.0006237E+02;  0.0000000E+00; -2.7968958E-18;  1.0000000E+02;  0.0000000E+00;  9.9996155E+01; -3.9625081E-04;  0.0000000E+00;  5.8760506E-06;  0.0000000E+00;
  3.9957756E-01;  9.9999998E-03;  2.0000564E-01;193; -6.1509566E-04;  0.0000000E+00; -3.7541334E-09;  1.0001163E+01;  3.9993250E-01;  1.2517464E-01;3; -1.6327064E-01;  0.0000000E+00;  1.9458821E-02;  0.0000000E+00;  0.0000000E+00;  0.0000000E+00;0; -3.7811487E-04;  1.0006064E+02;  0.0000000E+00; -3.9571762E-05;  1.0000000E+02;  0.0000000E+00;  9.9996254E+01; -3.8419553E-04;  0.0000000E+00;  6.0806556E-06;  0.0000000E+00;
  3.9959946E-01;  9.9999998E-03;  4.0001005E-01;194; -5.8787229E-04;  0.0000000E+00; -1.3154397E-06;  1.0001081E+01;  3.9993757E-01;  1.1619695E-01;3; -1.5570292E-01;  0.0000000E+00;  4.5755096E-02;  0.0000000E+00;  0.0000000E+00;  0.0000000E+00;0; -3.4486342E-04;  1.0005599E+02;  0.0000000E+00; -2.2211361E-04;  1.0000000E+02;  0.0000000E+00;  9.9996811E+01; -3.5122171E-04;  0.0000000E+00;  6.3582979E-06;  0.0000000E+00;
  3.9963558E-01;  9.9999998E-03;  6.0001183E-01;195; -5.4232945E-04;  0.0000000E+00; -4.7177928E-06;  1.0000966E+01;  3.9994413E-01;  1.0388470E-01;3; -1.4390501E-01;  0.0000000E+00;  8.2374126E-02;  0.0000000E+00;  0.0000000E+00;  0.0000000E+00;0; -2.9962129E-04;  1.0004932E+02;  0.0000000E+00; -6.3511095E-04;  1.0000000E+02;  0.0000000E+00;  9.9997925E+01; -3.0535852E-04;  0.0000000E+00;  5.7372322E-06;  0.0000000E+00;
  3.9968470E-01;  9.9999998E-03;  8.0001074E-01;196; -4.7789823E-04;  0.0000000E+00; -7.9966558E-06;  1.0000839E+01;  3.9995152E-01;  9.0289906E-02;3; -1.2940535E-01;  0.0000000E+00;  1.2539063E-01;  0.0000000E+00;  0.0000000E+00;  0.0000000E+00;0; -2.5196065E-04;  1.0004160E+02;  0.0000000E+00; -1.1990444E-03;  1.0000000E+02;  0.0000000E+00;  9.9999763E+01; -2.5499598E-04;  0.0000000E+00;  3.0353317E-06;  0.0000000E+00;
  3.9975151E-01;  9.9999998E-03;  1.0000174E+00;197; -3.8813672E-04;  0.0000000E+00;  6.0690636E-06;  1.0000698E+01;  3.9995980E-01;  7.5156085E-02;3; -1.1414928E-01;  0.0000000E+00;  1.6055132E-01;  0.0000000E+00;  0.0000000E+00;  0.0000000E+00;0; -2.0487206E-04;  1.0003323E+02;  0.0000000E+00; -1.6009849E-03;  1.0000000E+02;  0.0000000E+00;  1.0000108E+02; -2.0443705E-04;  0.0000000E+00; -4.3501632E-07;  0.0000000E+00;
  5.9950733E-01;  9.9999998E-03;  9.1728370E-12;203; -6.9573388E-04;  0.0000000E+00;  4.9886966E-11;  1.0000754E+01;  3.9994210E-01;  8.1175886E-02;3; -9.4533995E-02;  0.0000000E+00; -1.0615139E-08;  0.0000000E+00;  0.0000000E+00;  0.0000000E+00;0; -2.7068632E-04;  1.0004829E+02;  0.0000000E+00; -6.3041316E-18;  1.0000000E+02;  0.0000000E+00;  9.9995697E+01; -2.6971553E-04;  0.0000000E+00; -9.7077520E-07;  0.0000000E+00;
  5.9951603E-01;  9.9999998E-03;  1.9999962E-01;204; -6.8530423E-04;  0.0000000E+00; -6.7921037E-06;  1.0000734E+01;  3.9994377E-01;  7.8995809E-02;3; -9.4427735E-02;  0.0000000E+00;  2.1076448E-02;  0.0000000E+00;  0.0000000E+00;  0.0000000E+00;0; -2.5881382E-04;  1.0004709E+02;  0.0000000E+00; -1.0559182E-04;  1.0000000E+02;  0.0000000E+00;  9.9995789E+01; -2.5889924E-04;  0.0000000E+00;  8.5422357E-08;  0.0000000E+00;
  5.9954298E-01;  9.9999998E-03;  3.9999914E-01;205; -6.5221312E-04;  0.0000000E+00; -1.3233903E-05;  1.0000683E+01;  3.9994755E-01;  7.3481493E-02;3; -9.4657958E-02;  0.0000000E+00;  5.0130904E-02;  0.0000000E+00;  0.0000000E+00;  0.0000000E+00;0; -2.2865868E-04;  1.0004375E+02;  0.0000000E+00; -5.3582672E-04;  1.0000000E+02;  0.0000000E+00;  9.9996361E+01; -2.3112931E-04;  0.0000000E+00;  2.4706183E-06;  0.0000000E+00;
  5.9958905E-01;  9.9999998E-03;  5.9999847E-01;206; -5.8948924E-04;  0.0000000E+00; -1.7307782E-05;  1.0000623E+01;  3.9995196E-01;  6.6941246E-02;3; -9.6922591E-02;  0.0000000E+00;  9.1971755E-02;  0.0000000E+00;  0.0000000E+00;  0.0000000E+00;0; -1.9292049E-04;  1.0003945E+02;  0.0000000E+00; -1.4443246E-03;  1.0000000E+02;  0.0000000E+00;  9.9997139E+01; -1.9720494E-04;  0.0000000E+00;  4.2844499E-06;  0.0000000E+00;
  5.9965551E-01;  9.9999998E-03;  8.0000067E-01;207; -4.9882493E-04;  0.0000000E+00; -1.4628935E-05;  1.0000567E+01;  3.9995527E-01;  6.1042208E-02;3; -1.0447453E-01;  0.0000000E+00;  1.4308345E-01;  0.0000000E+00;  0.0000000E+00;  0.0000000E+00;0; -1.6295092E-04;  1.0003500E+02;  0.0000000E+00; -2.6618727E-03;  1.0000000E+02;  0.0000000E+00;  9.9999290E+01; -1.6677602E-04;  0.0000000E+00;  3.8251051E-06;  0.0000000E+00;
  5.9975380E-01;  9.9999998E-03;  1.0000225E+00;208; -3.5200716E-04;  0.0000000E+00;  2.7953378E-05;  1.0000485E+01;  3.9995971E-01;  5.2193645E-02;3; -1.1388561E-01;  0.0000000E+00;  1.8630572E-01;  0.0000000E+00;  0.0000000E+00;  0.0000000E+00;0; -1.2639194E-04;  1.0002911E+02;  0.0000000E+00; -3.6016910E-03;  1.0000000E+02;  0.0000000E+00;  1.0000097E+02; -1.3320528E-04;  0.0000000E+00;  6.8133304E-06;  0.0000000E+00;
  7.9945886E-01;  9.9999998E-03; -7.8256438E-12;214; -7.4440328E-04;  0.0000000E+00; -1.9016228E-13;  1.0000385E+01;  3.9996400E-01;  4.1412342E-02;3; -4.3005489E-02;  0.0000000E+00; -9.0473407E-09;  0.0000000E+00;  0.0000000E+00;  0.0000000E+00;0; -1.1097466E-04;  1.0003133E+02;  0.0000000E+00; -6.4956024E-18;  1.0000000E+02;  0.0000000E+00;  9.9994659E+01; -9.8623452E-05;  0.0000000E+00; -1.2351209E-05;  0.0000000E+00;
  7.9946923E-01;  9.9999998E-03;  1.9999585E-01;215; -7.3179440E-04;  0.0000000E+00; -1.0276498E-05;  1.0000375E+01;  3.9996481E-01;  4.0258437E-02;3; -4.4886906E-02;  0.0000000E+00;  2.0237951E-02;  0.0000000E+00;  0.0000000E+00;  0.0000000E+00;0; -9.7784847E-05;  1.0003055E+02;  0.0000000E+00; -1.9491659E-04;  1.0000000E+02;  0.0000000E+00;  9.9994667E+01; -8.7664106E-05;  0.0000000E+00; -1.0120741E-05;  0.0000000E+00;
  7.9950184E-01;  9.9999998E-03;  3.9999250E-01;216; -6.8661256E-04;  0.0000000E+00; -1.7303355E-05;  1.0000341E+01;  3.9996633E-01;  3.6668513E-02;3; -5.1596142E-02;  0.0000000E+00;  4.9231142E-02;  0.0000000E+00;  0.0000000E+00;  0.0000000E+00;0; -6.6205277E-05;  1.0002886E+02;  0.0000000E+00; -9.4470929E-04;  1.0000000E+02;  0.0000000E+00;  9.9994713E+01; -6.1541876E-05;  0.0000000E+00; -4.6634009E-06;  0.0000000E+00;
  7.9956144E-01;  9.9999998E-03;  5.9999359E-01;217; -6.0000137E-04;  0.0000000E+00; -1.3550047E-05;  1.0000317E+01;  3.9996648E-01;  3.4104276E-02;3; -6.7491986E-02;  0.0000000E+00;  9.3253233E-02;  0.0000000E+00;  0.0000000E+00;  0.0000000E+00;0; -3.2989643E-05;  1.0002725E+02;  0.0000000E+00; -2.4776903E-03;  1.0000000E+02;  0.0000000E+00;  9.9995934E+01; -3.4765064E-05;  0.0000000E+00;  1.7754226E-06;  0.0000000E+00;
  7.9965430E-01;  9.9999998E-03;  8.0000836E-01;218; -4.5047334E-04;  0.0000000E+00;  2.2375592E-05;  1.0000295E+01;  3.9996448E-01;  3.1668253E-02;3; -9.8306499E-02;  0.0000000E+00;  1.5186694E-01;  0.0000000E+00;  0.0000000E+00;  0.0000000E+00;0; -9.1686161E-08;  1.0002584E+02;  0.0000000E+00; -4.5853569E-03;  1.0000000E+02;  0.0000000E+00;  9.9997704E+01; -1.2369172E-05;  0.0000000E+00;  1.2277485E-05;  0.0000000E+00;
  7.9979384E-01;  9.9999998E-03;  1.0000508E+00;219; -2.2500913E-04;  0.0000000E+00;  8.3497369E-05;  1.0000202E+01;  3.9996898E-01;  2.1795960E-02;3; -1.3539226E-01;  0.0000000E+00;  2.0110385E-01;  0.0000000E+00;  0.0000000E+00;  0.0000000E+00;0;  6.3693857E-05;  1.0002081E+02;  0.0000000E+00; -6.5674270E-03;  1.0000000E+02;  0.0000000E+00;  9.9998756E+01;  3.1524774E-05;  0.0000000E+00;  3.2169082E-05;  0.0000000E+00;
  9.9942273E-01;  9.9999998E-03; -8.7776201E-12;225; -7.7698671E-04;  0.0000000E+00;  2.4424128E-11;  1.0000050E+01;  3.9999512E-01;  5.3822473E-03;3; -1.4719736E-02;  0.0000000E+00;  2.0236641E-08;  0.0000000E+00;  0.0000000E+00;  0.0000000E+00;0;  1.4778909E-04;  1.0001085E+02;  0.0000000E+00;  1.3170483E-19;  1.0000000E+02;  0.0000000E+00;  9.9992706E+01;  1.7784254E-04;  0.0000000E+00; -3.0053439E-05;  0.0000000E+00;
  9.9943513E-01;  9.9999998E-03;  1.9999427E-01;226; -7.6119840E-04;  0.0000000E+00; -1.1931502E-05;  1.0000040E+01;  3.9999536E-01;  4.3570576E-03;3; -1.7762313E-02;  0.0000000E+00;  1.7116701E-02;  0.0000000E+00;  0.0000000E+00;  0.0000000E+00;0;  1.6319461E-04;  1.0001070E+02;  0.0000000E+00; -2.6712767E-04;  1.0000000E+02;  0.0000000E+00;  9.9992661E+01;  1.8944504E-04;  0.0000000E+00; -2.6250425E-05;  0.0000000E+00;
  9.9947613E-01;  9.9999998E-03;  3.9999118E-01;227; -7.0102292E-04;  0.0000000E+00; -1.7197035E-05;  1.0000030E+01;  3.9999425E-01;  3.2037185E-03;3; -2.8637448E-02;  0.0000000E+00;  4.3015994E-02;  0.0000000E+00;  0.0000000E+00;  0.0000000E+00;0;  1.9971377E-04;  1.0001054E+02;  0.0000000E+00; -1.2713547E-03;  1.0000000E+02;  0.0000000E+00;  9.9992683E+01;  2.1601902E-04;  0.0000000E+00; -1.6305239E-05;  0.0000000E+00;
  9.9955684E-01;  9.9999998E-03;  6.0000068E-01;228; -5.6723627E-04;  0.0000000E+00;  1.1186580E-05;  1.0000009E+01;  3.9999068E-01;  8.9704082E-04;3; -5.3310193E-02;  0.0000000E+00;  8.5608460E-02;  0.0000000E+00;  0.0000000E+00;  0.0000000E+00;0;  2.4493691E-04;  1.0001130E+02;  0.0000000E+00; -3.3246689E-03;  1.0000000E+02;  0.0000000E+00;  9.9993698E+01;  2.4283600E-04;  0.0000000E+00;  2.1009159E-06;  0.0000000E+00;
  9.9968147E-01;  9.9999998E-03;  8.0003279E-01;229; -3.5034720E-04;  0.0000000E+00;  5.8897429E-05;  9.9999695E+00;  3.9998546E-01; -3.2677902E-03;3; -1.0066190E-01;  0.0000000E+00;  1.4422248E-01;  0.0000000E+00;  0.0000000E+00;  0.0000000E+00;0;  3.0388351E-04;  1.0001171E+02;  0.0000000E+00; -6.3595977E-03;  1.0000000E+02;  0.0000000E+00;  9.9995018E+01;  2.7192725E-04;  0.0000000E+00;  3.1956279E-05;  0.0000000E+00;
  9.9982780E-01;  9.9999998E-03;  1.0000719E+00;230; -2.1962947E-04;  0.0000000E+00;  2.9332952E-05;  9.9999485E+00;  3.9999056E-01; -5.5103889E-03;3; -1.6744572E-01;  0.0000000E+00;  1.9493216E-01;  0.0000000E+00;  0.0000000E+00;  0.0000000E+00;0;  3.0221994E-04;  1.0000807E+02;  0.0000000E+00; -9.4444668E-03;  1.0000000E+02;  0.0000000E+00;  9.9995697E+01;  2.7182576E-04;  0.0000000E+00;  3.0394180E-05;  0.0000000E+00;
  1.1993983E+00;  9.9999998E-03; -8.7645412E-12;236; -7.9858664E-04;  0.0000000E+00; -1.1885092E-10;  9.9996881E+00;  4.0004009E-01; -3.3474661E-02;3; -3.4990476E-03;  0.0000000E+00; -6.0395450E-08;  0.0000000E+00;  0.0000000E+00;  0.0000000E+00;0;  6.0910016E-04;  9.9984192E+01;  0.0000000E+00;  4.8634390E-18;  1.0000000E+02;  0.0000000E+00;  9.9989586E+01;  6.6316297E-04;  0.0000000E+00; -5.4062824E-05;  0.0000000E+00;
  1.1994135E+00;  9.9999998E-03;  1.9999394E-01;237; -7.7859452E-04;  0.0000000E+00; -1.7432250E-05;  9.9996796E+00;  4.0003929E-01; -3.4434732E-02;3; -6.8067019E-03;  0.0000000E+00;  1.2712094E-02;  0.0000000E+00;  0.0000000E+00;  0.0000000E+00;0;  6.2488252E-04;  9.9984573E+01;  0.0000000E+00; -2.7970315E-04;  1.0000000E+02;  0.0000000E+00;  9.9989395E+01;  6.7356694E-04;  0.0000000E+00; -4.8684400E-05;  0.0000000E+00;
  1.1994669E+00;  9.9999998E-03;  3.9999437E-01;238; -7.0391368E-04;  0.0000000E+00; -2.7715419E-05;  9.9996748E+00;  4.0003595E-01; -3.4946762E-02;3; -1.8588554E-02;  0.0000000E+00;  3.2992598E-02;  0.0000000E+00;  0.0000000E+00;  0.0000000E+00;0;  6.6176720E-04;  9.9986023E+01;  0.0000000E+00; -1.3330814E-03;  1.0000000E+02;  0.0000000E+00;  9.9989395E+01;  6.9623766E-04;  0.0000000E+00; -3.4470475E-05;  0.0000000E+00;
  1.1995726E+00;  9.9999998E-03;  6.0001773E-01;239; -5.0432200E-04;  0.0000000E+00;  1.8295112E-05;  9.9996567E+00;  4.0002972E-01; -3.6866881E-02;3; -4.4275071E-02;  0.0000000E+00;  6.7329846E-02;  0.0000000E+00;  0.0000000E+00;  0.0000000E+00;0;  7.2180794E-04;  9.9988686E+01;  0.0000000E+00; -3.5546806E-03;  1.0000000E+02;  0.0000000E+00;  9.9989716E+01;  7.2126545E-04;  0.0000000E+00;  5.4249040E-07;  0.0000000E+00;
  1.1997250E+00;  9.9999998E-03;  8.0006820E-01;240; -2.9682257E-04;  0.0000000E+00;  2.2696546E-05;  9.9996223E+00;  4.0002680E-01; -4.0579122E-02;3; -9.3899779E-02;  0.0000000E+00;  1.0984986E-01;  0.0000000E+00;  0.0000000E+00;  0.0000000E+00;0;  7.6291314E-04;  9.9990448E+01;  0.0000000E+00; -7.1673836E-03;  1.0000000E+02;  0.0000000E+00;  9.9988510E+01;  7.3475851E-04;  0.0000000E+00;  2.8154624E-05;  0.0000000E+00;
  1.1998634E+00;  9.9999998E-03;  1.0001028E+00;241; -2.8726683E-04;  0.0000000E+00; -8.9085697E-05;  9.9997320E+00;  4.0003300E-01; -2.8802184E-02;3; -1.6958646E-01;  0.0000000E+00;  1.6106607E-01;  0.0000000E+00;  0.0000000E+00;  0.0000000E+00;0;  6.0758734E-04;  9.9989594E+01;  0.0000000E+00; -1.0804133E-02;  1.0000000E+02;  0.0000000E+00;  9.9988800E+01;  6.4732449E-04;  0.0000000E+00; -3.9737148E-05;  0.0000000E+00;
  1.3993852E+00;  9.9999998E-03; -1.1326145E-11;247; -8.0523681E-04;  0.0000000E+00;  8.6652532E-11;  9.9992323E+00;  4.0010470E-01; -8.2243897E-02;3; -5.6783191E-04;  0.0000000E+00;  2.4523139E-08;  0.0000000E+00;  0.0000000E+00;  0.0000000E+00;0;  1.3822063E-03;  9.9947449E+01;  0.0000000E+00; -1.1302033E-17;  1.0000000E+02;  0.0000000E+00;  9.9984901E+01;  1.4608939E-03;  0.0000000E+00; -7.8687539E-05;  0.0000000E+00;
  1.3994038E+00;  9.9999998E-03;  1.9999407E-01;248; -7.8226259E-04;  0.0000000E+00; -2.8101387E-05;  9.9992313E+00;  4.0010270E-01; -8.2371578E-02;3; -3.4218326E-03;  0.0000000E+00;  7.7414196E-03;  0.0000000E+00;  0.0000000E+00;  0.0000000E+00;0;  1.3934757E-03;  9.9948471E+01;  0.0000000E+00; -2.2425386E-04;  1.0000000E+02;  0.0000000E+00;  9.9984802E+01;  1.4657875E-03;  0.0000000E+00; -7.2311836E-05;  0.0000000E+00;
  1.3994699E+00;  9.9999998E-03;  3.9999977E-01;249; -6.8921107E-04;  0.0000000E+00; -4.7298905E-05;  9.9992332E+00;  4.0009683E-01; -8.2116075E-02;3; -1.3227073E-02;  0.0000000E+00;  2.0727871E-02;  0.0000000E+00;  0.0000000E+00;  0.0000000E+00;0;  1.4174563E-03;  9.9951729E+01;  0.0000000E+00; -1.0893311E-03;  1.0000000E+02;  0.0000000E+00;  9.9984550E+01;  1.4731155E-03;  0.0000000E+00; -5.5659206E-05;  0.0000000E+00;
  1.3996028E+00;  9.9999998E-03;  6.0004210E-01;250; -4.1092554E-04;  0.0000000E+00;  8.7812159E-06;  9.9992189E+00;  4.0008897E-01; -8.3648369E-02;3; -3.2887626E-02;  0.0000000E+00;  4.1122571E-02;  0.0000000E+00;  0.0000000E+00;  0.0000000E+00;0;  1.4754721E-03;  9.9956558E+01;  0.0000000E+00; -3.0351249E-03;  1.0000000E+02;  0.0000000E+00;  9.9983284E+01;  1.4794420E-03;  0.0000000E+00; -3.9698616E-06;  0.0000000E+00;
  1.3997618E+00;  9.9999998E-03;  8.0010074E-01;251; -2.3717663E-04;  0.0000000E+00; -3.2774155E-05;  9.9992380E+00;  4.0008876E-01; -8.1604838E-02;3; -7.1243316E-02;  0.0000000E+00;  6.3597023E-02;  0.0000000E+00;  0.0000000E+00;  0.0000000E+00;0;  1.4507225E-03;  9.9961205E+01;  0.0000000E+00; -6.3476595E-03;  1.0000000E+02;  0.0000000E+00;  9.9979355E+01;  1.4513294E-03;  0.0000000E+00; -6.0693674E-07;  0.0000000E+00;
  1.3998650E+00;  9.9999998E-03;  1.0001283E+00;252; -2.5536853E-04;  0.0000000E+00; -1.3646095E-04;  9.9994125E+00;  4.0008196E-01; -6.2959485E-02;3; -1.2891647E-01;  0.0000000E+00;  9.8240629E-02;  0.0000000E+00;  0.0000000E+00;  0.0000000E+00;0;  1.2028143E-03;  9.9966866E+01;  0.0000000E+00; -9.1241421E-03;  1.0000000E+02;  0.0000000E+00;  9.9980347E+01;  1.2998467E-03;  0.0000000E+00; -9.7032411E-05;  0.0000000E+00;
  1.5993880E+00;  9.9999998E-03; -5.2027887E-12;258; -7.8687369E-04;  0.0000000E+00; -1.6074843E-11;  9.9986877E+00;  4.0019464E-01; -1.3989754E-01;3;  4.5652501E-04;  0.0000000E+00; -8.1211216E-09;  0.0000000E+00;  0.0000000E+00;  0.0000000E+00;0;  2.5250977E-03;  9.9898346E+01;  0.0000000E+00; -2.5858740E-17;  1.0000000E+02;  0.0000000E+00;  9.9978233E+01;  2.6134783E-03;  0.0000000E+00; -8.8380679E-05;  0.0000000E+00;
  1.5994099E+00;  9.9999998E-03;  1.9999433E-01;259; -7.5872015E-04;  0.0000000E+00; -4.5833214E-05;  9.9986906E+00;  4.0019175E-01; -1.3957976E-01;3; -1.3873003E-03;  0.0000000E+00;  3.6713143E-03;  0.0000000E+00;  0.0000000E+00;  0.0000000E+00;0;  2.5256518E-03;  9.9899956E+01;  0.0000000E+00; -1.3440927E-04;  1.0000000E+02;  0.0000000E+00;  9.9978104E+01;  2.6082739E-03;  0.0000000E+00; -8.2621948E-05;  0.0000000E+00;
  1.5994893E+00;  9.9999998E-03;  4.0000531E-01;260; -6.3139485E-04;  0.0000000E+00; -7.6356351E-05;  9.9987078E+00;  4.0018216E-01; -1.3773695E-01;3; -7.6098344E-03;  0.0000000E+00;  1.0192972E-02;  0.0000000E+00;  0.0000000E+00;  0.0000000E+00;0;  2.5194583E-03;  9.9904930E+01;  0.0000000E+00; -6.8361132E-04;  1.0000000E+02;  0.0000000E+00;  9.9978012E+01;  2.5876975E-03;  0.0000000E+00; -6.8239140E-05;  0.0000000E+00;
  1.5996330E+00;  9.9999998E-03;  6.0005403E-01;261; -3.4870411E-04;  0.0000000E+00; -5.4401218E-05;  9.9987278E+00;  4.0017083E-01; -1.3557616E-01;3; -1.9907063E-02;  0.0000000E+00;  1.9636618E-02;  0.0000000E+00;  0.0000000E+00;  0.0000000E+00;0;  2.5143691E-03;  9.9912659E+01;  0.0000000E+00; -1.9827683E-03;  1.0000000E+02;  0.0000000E+00;  9.9976349E+01;  2.5467470E-03;  0.0000000E+00; -3.2377902E-05;  0.0000000E+00;
  1.5997803E+00;  9.9999998E-03;  8.0010867E-01;262; -9.5984753E-05;  0.0000000E+00; -9.0292371E-05;  9.9987936E+00;  4.0016150E-01; -1.2858702E-01;3; -3.9741069E-02;  0.0000000E+00;  2.8674293E-02;  0.0000000E+00;  0.0000000E+00;  0.0000000E+00;0;  2.4201879E-03;  9.9921822E+01;  0.0000000E+00; -4.1544656E-03;  1.0000000E+02;  0.0000000E+00;  9.9973320E+01;  2.4680495E-03;  0.0000000E+00; -4.7861606E-05;  0.0000000E+00;
  1.5998858E+00;  9.9999998E-03;  1.0001432E+00;263; -1.7236606E-07;  0.0000000E+00; -1.4096723E-04;  9.9989462E+00;  4.0014395E-01; -1.1232263E-01;3; -7.1702659E-02;  0.0000000E+00;  4.3694954E-02;  0.0000000E+00;  0.0000000E+00;  0.0000000E+00;0;  2.1635704E-03;  9.9932426E+01;  0.0000000E+00; -6.0461164E-03;  1.0000000E+02;  0.0000000E+00;  9.9974518E+01;  2.2857008E-03;  0.0000000E+00; -1.2213048E-04;  0.0000000E+00;
  1.7994295E+00;  9.9999998E-03;  7.3354552E-12;269; -6.9404859E-04;  0.0000000E+00; -2.6638965E-11;  9.9981146E+00;  4.0031227E-01; -1.9888833E-01;3;  1.3516024E-03;  0.0000000E+00;  5.2264681E-10;  0.0000000E+00;  0.0000000E+00;  0.0000000E+00;0;  3.9857291E-03;  9.9837997E+01;  0.0000000E+00; -7.5611339E-18;  1.0000000E+02;  0.0000000E+00;  9.9968391E+01;  4.0424541E-03;  0.0000000E+00; -5.6724894E-05;  0.0000000E+00;
  1.7994576E+00;  9.9999998E-03;  1.9999686E-01;270; -6.4083462E-04;  0.0000000E+00; -6.8557216E-05;  9.9981251E+00;  4.0030834E-01; -1.9781898E-01;3;  5.8613636E-04;  0.0000000E+00;  1.2586016E-03;  0.0000000E+00;  0.0000000E+00;  0.0000000E+00;0;  3.9708419E-03;  9.9840172E+01;  0.0000000E+00; -5.7170317E-05;  1.0000000E+02;  0.0000000E+00;  9.9968491E+01;  4.0250313E-03;  0.0000000E+00; -5.4189368E-05;  0.0000000E+00;
  1.7995498E+00;  9.9999998E-03;  4.0000939E-01;271; -4.8241662E-04;  0.0000000E+00; -1.1362016E-04;  9.9981585E+00;  4.0029517E-01; -1.9429645E-01;3; -2.3667882E-03;  0.0000000E+00;  3.6395942E-03;  0.0000000E+00;  0.0000000E+00;  0.0000000E+00;0;  3.9194967E-03;  9.9846649E+01;  0.0000000E+00; -3.2261977E-04;  1.0000000E+02;  0.0000000E+00;  9.9969200E+01;  3.9704116E-03;  0.0000000E+00; -5.0915034E-05;  0.0000000E+00;
  1.7996861E+00;  9.9999998E-03;  6.0005772E-01;272; -2.0270245E-04;  0.0000000E+00; -1.2140020E-04;  9.9982204E+00;  4.0027699E-01; -1.8775521E-01;3; -7.8670066E-03;  0.0000000E+00;  7.1907053E-03;  0.0000000E+00;  0.0000000E+00;  0.0000000E+00;0;  3.8227136E-03;  9.9856796E+01;  0.0000000E+00; -9.7343215E-04;  1.0000000E+02;  0.0000000E+00;  9.9969337E+01;  3.8748004E-03;  0.0000000E+00; -5.2086820E-05;  0.0000000E+00;
  1.7998313E+00;  9.9999998E-03;  8.0011368E-01;273;  4.4175700E-04;  0.0000000E+00; -1.2594739E-04;  9.9983082E+00;  4.0025571E-01; -1.7844737E-01;3; -1.4757295E-02;  0.0000000E+00;  1.2646788E-02;  0.0000000E+00;  0.0000000E+00;  0.0000000E+00;0;  3.6748445E-03;  9.9869362E+01;  0.0000000E+00; -2.1028058E-03;  1.0000000E+02;  0.0000000E+00;  9.9969200E+01;  3.7588631E-03;  0.0000000E+00; -8.4018546E-05;  0.0000000E+00;
  1.8000029E+00;  9.9999998E-03;  1.0001652E+00;274;  1.4983002E-03;  0.0000000E+00; -8.1632614E-05;  9.9983759E+00;  4.0023223E-01; -1.7134008E-01;3; -3.0889878E-02;  0.0000000E+00;  1.9155441E-02;  0.0000000E+00;  0.0000000E+00;  0.0000000E+00;0;  3.6211922E-03;  9.9881851E+01;  0.0000000E+00; -3.8405361E-03;  1.0000000E+02;  0.0000000E+00;  9.9969612E+01;  3.6906495E-03;  0.0000000E+00; -6.9457252E-05;  0.0000000E+00;
  1.9996161E+00;  9.9999998E-03; -2.4326241E-11;280; -1.0675655E-04;  0.0000000E+00; -7.4115741E-11;  9.9976206E+00;  4.0045199E-01; -2.4623142E-01;3;  1.2558785E-03;  0.0000000E+00;  5.7135701E-09;  0.0000000E+00;  0.0000000E+00;  0.0000000E+00;0;  5.5773589E-03;  9.9772484E+01;  0.0000000E+00;  1.1712931E-17;  1.0000000E+02;  0.0000000E+00;  9.9954277E+01;  5.5275424E-03;  0.0000000E+00;  4.9816408E-05;  0.0000000E+00;
  1.9996386E+00;  9.9999998E-03;  2.0000501E-01;281; -5.0879764E-05;  0.0000000E+00; -8.0722821E-05;  9.9976349E+00;  4.0044758E-01; -2.4475038E-01;3;  1.2346538E-03;  0.0000000E+00;  8.2319464E-05;  0.0000000E+00;  0.0000000E+00;  0.0000000E+00;0;  5.5457898E-03;  9.9774857E+01;  0.0000000E+00; -1.5835236E-05;  1.0000000E+02;  0.0000000E+00;  9.9954544E+01;  5.4988968E-03;  0.0000000E+00;  4.6893150E-05;  0.0000000E+00;
  1.9997286E+00;  9.9999998E-03;  4.0002140E-01;282;  2.1645172E-04;  0.0000000E+00; -1.6255745E-04;  9.9976864E+00;  4.0043187E-01; -2.3944312E-01;3;  1.9674462E-03;  0.0000000E+00;  3.9783790E-04;  0.0000000E+00;  0.0000000E+00;  0.0000000E+00;0;  5.4350845E-03;  9.9781738E+01;  0.0000000E+00; -1.1550407E-04;  1.0000000E+02;  0.0000000E+00;  9.9956367E+01;  5.4145688E-03;  0.0000000E+00;  2.0515472E-05;  0.0000000E+00;
  1.9998447E+00;  9.9999998E-03;  6.0007000E-01;283;  7.9079287E-04;  0.0000000E+00; -2.2023745E-04;  9.9977875E+00;  4.0040794E-01; -2.2895420E-01;3;  2.7934907E-03;  0.0000000E+00;  2.0493502E-03;  0.0000000E+00;  0.0000000E+00;  0.0000000E+00;0;  5.2139335E-03;  9.9792572E+01;  0.0000000E+00; -3.9215133E-04;  1.0000000E+02;  0.0000000E+00;  9.9959541E+01;  5.2826051E-03;  0.0000000E+00; -6.8671419E-05;  0.0000000E+00;
  1.9999609E+00;  9.9999998E-03;  8.0013424E-01;284;  1.5657579E-03;  0.0000000E+00; -1.3953836E-04;  9.9978962E+00;  4.0037826E-01; -2.1772538E-01;3;  1.2307796E-03;  0.0000000E+00;  6.0663009E-03;  0.0000000E+00;  0.0000000E+00;  0.0000000E+00;0;  5.0153416E-03;  9.9805977E+01;  0.0000000E+00; -8.6750154E-04;  1.0000000E+02;  0.0000000E+00;  9.9963097E+01;  5.1205899E-03;  0.0000000E+00; -1.0524851E-04;  0.0000000E+00;
  2.0001206E+00;  9.9999998E-03;  1.0002038E+00;285;  2.9015201E-03;  0.0000000E+00;  3.4077893E-05;  9.9979477E+00;  4.0034938E-01; -2.1235514E-01;3; -1.4583287E-03;  0.0000000E+00;  8.9540938E-03;  0.0000000E+00;  0.0000000E+00;  0.0000000E+00;0;  5.0321966E-03;  9.9820656E+01;  0.0000000E+00; -1.6800718E-03;  1.0000000E+02;  0.0000000E+00;  9.9963692E+01;  4.9879318E-03;  0.0000000E+00;  4.4264725E-05;  0.0000000E+00;
  2.2000537E+00;  9.9999998E-03;  1.0550841E-12;291;  2.2288056E-03;  0.0000000E+00; -1.7686193E-10;  9.9972935E+00;  4.0060416E-01; -2.7169478E-01;3;  7.9451157E-03;  0.0000000E+00; -2.1544047E-09;  0.0000000E+00;  0.0000000E+00;  0.0000000E+00;0;  7.0418655E-03;  9.9709290E+01;  0.0000000E+00;  1.8485458E-17;  1.0000000E+02;  0.0000000E+00;  9.9934990E+01;  6.7775487E-03;  0.0000000E+00;  2.6431694E-04;  0.0000000E+00;
  2.2000611E+00;  9.9999998E-03;  2.0002189E-01;292;  2.2520430E-03;  0.0000000E+00; -7.0324139E-05;  9.9973097E+00;  4.0059987E-01; -2.7007899E-01;3;  8.0515863E-03;  0.0000000E+00; -6.9633294E-05;  0.0000000E+00;  0.0000000E+00;  0.0000000E+00;0;  6.9954493E-03;  9.9711502E+01;  0.0000000E+00; -1.5609190E-06;  1.0000000E+02;  0.0000000E+00;  9.9935394E+01;  6.7425501E-03;  0.0000000E+00;  2.5289922E-04;  0.0000000E+00;
  2.2000868E+00;  9.9999998E-03;  4.0005943E-01;293;  2.3285032E-03;  0.0000000E+00; -1.4755147E-04;  9.9973707E+00;  4.0058595E-01; -2.6391515E-01;3;  8.1967516E-03;  0.0000000E+00; -9.8914243E-05;  0.0000000E+00;  0.0000000E+00;  0.0000000E+00;0;  6.8383939E-03;  9.9717651E+01;  0.0000000E+00; -2.5139941E-05;  1.0000000E+02;  0.0000000E+00;  9.9937401E+01;  6.6426662E-03;  0.0000000E+00;  1.9572763E-04;  0.0000000E+00;
  2.2001269E+00;  9.9999998E-03;  6.0012472E-01;294;  2.4944770E-03;  0.0000000E+00; -2.1459775E-04;  9.9974947E+00;  4.0056407E-01; -2.5146848E-01;3;  8.5022198E-03;  0.0000000E+00;  5.9767050E-04;  0.0000000E+00;  0.0000000E+00;  0.0000000E+00;0;  6.5225968E-03;  9.9727028E+01;  0.0000000E+00; -1.1078594E-04;  1.0000000E+02;  0.0000000E+00;  9.9941238E+01;  6.4915726E-03;  0.0000000E+00;  3.1024159E-05;  0.0000000E+00;
  2.2001524E+00;  9.9999998E-03;  8.0019373E-01;295;  2.8412798E-03;  0.0000000E+00; -5.3246349E-05;  9.9976244E+00;  4.0053189E-01; -2.3848416E-01;3;  8.8623846E-03;  0.0000000E+00;  4.6687536E-03;  0.0000000E+00;  0.0000000E+00;  0.0000000E+00;0;  6.2879082E-03;  9.9738503E+01;  0.0000000E+00; -2.3738925E-04;  1.0000000E+02;  0.0000000E+00;  9.9948418E+01;  6.3068741E-03;  0.0000000E+00; -1.8965942E-05;  0.0000000E+00;
  2.2002060E+00;  9.9999998E-03;  1.0002866E+00;296;  3.5781618E-03;  0.0000000E+00;  3.7637484E-04;  9.9975882E+00;  4.0050560E-01; -2.4207166E-01;3;  8.8094333E-03;  0.0000000E+00;  4.7870846E-03;  0.0000000E+00;  0.0000000E+00;  0.0000000E+00;0;  6.5917107E-03;  9.9751495E+01;  0.0000000E+00; -3.3934411E-04;  1.0000000E+02;  0.0000000E+00;  9.9947838E+01;  6.1137653E-03;  0.0000000E+00;  4.7794561E-04;  0.0000000E+00;
  2.4004917E+00;  9.9999998E-03; -1.0653376E-10;302;  4.7063283E-03;  0.0000000E+00;  1.2307354E-11;  9.9971361E+00;  4.0076289E-01; -2.7691266E-01;3;  1.3554305E-02;  0.0000000E+00;  4.1934012E-09;  0.0000000E+00;  0.0000000E+00;  0.0000000E+00;0;  8.2518216E-03;  9.9652061E+01;  0.0000000E+00; -1.7519022E-17;  1.0000000E+02;  0.0000000E+00;  9.9910355E+01;  7.6432517E-03;  0.0000000E+00;  6.0857018E-04;  0.0000000E+00;
  2.4004853E+00;  9.9999998E-03;  2.0005149E-01;303;  4.6506589E-03;  0.0000000E+00; -5.7082740E-05;  9.9971542E+00;  4.0075934E-01; -2.7512649E-01;3;  1.3376905E-02;  0.0000000E+00; -3.1779398E-04;  0.0000000E+00;  0.0000000E+00;  0.0000000E+00;0;  8.1924861E-03;  9.9653595E+01;  0.0000000E+00;  4.5622173E-07;  1.0000000E+02;  0.0000000E+00;  9.9910767E+01;  7.6123350E-03;  0.0000000E+00;  5.8015093E-04;  0.0000000E+00;
  2.4004760E+00;  9.9999998E-03;  4.0012020E-01;304;  4.5186649E-03;  0.0000000E+00; -1.1700774E-04;  9.9972200E+00;  4.0075028E-01; -2.6878762E-01;3;  1.2909688E-02;  0.0000000E+00; -5.0143973E-04;  0.0000000E+00;  0.0000000E+00;  0.0000000E+00;0;  7.9943389E-03;  9.9657722E+01;  0.0000000E+00;  7.1526750E-07;  1.0000000E+02;  0.0000000E+00;  9.9912498E+01;  7.5258398E-03;  0.0000000E+00;  4.6849909E-04;  0.0000000E+00;
  2.4004672E+00;  9.9999998E-03;  6.0021383E-01;305;  4.3839966E-03;  0.0000000E+00; -1.6943213E-04;  9.9973564E+00;  4.0073794E-01; -2.5559071E-01;3;  1.2329625E-02;  0.0000000E+00;  4.1321349E-05;  0.0000000E+00;  0.0000000E+00;  0.0000000E+00;0;  7.5972811E-03;  9.9663811E+01;  0.0000000E+00; -8.4740841E-06;  1.0000000E+02;  0.0000000E+00;  9.9915314E+01;  7.3983073E-03;  0.0000000E+00;  1.9897368E-04;  0.0000000E+00;
  2.4004350E+00;  9.9999998E-03;  8.0029500E-01;306;  4.3543871E-03;  0.0000000E+00;  9.6872041E-05;  9.9975004E+00;  4.0071154E-01; -2.4170326E-01;3;  1.1758200E-02;  0.0000000E+00;  7.0196055E-03;  0.0000000E+00;  0.0000000E+00;  0.0000000E+00;0;  7.3595047E-03;  9.9671120E+01;  0.0000000E+00; -2.9684779E-05;  1.0000000E+02;  0.0000000E+00;  9.9923851E+01;  7.2470224E-03;  0.0000000E+00;  1.1248239E-04;  0.0000000E+00;
  2.4003835E+00;  9.9999998E-03;  1.0004148E+00;307;  4.4746818E-03;  0.0000000E+00;  5.3250452E-04;  9.9974136E+00;  4.0069842E-01; -2.5006214E-01;3;  1.1287468E-02;  0.0000000E+00;  4.1827788E-03;  0.0000000E+00;  0.0000000E+00;  0.0000000E+00;0;  7.5872457E-03;  9.9678856E+01;  0.0000000E+00; -2.8840257E-05;  1.0000000E+02;  0.0000000E+00;  9.9921143E+01;  7.0901937E-03;  0.0000000E+00;  4.9705210E-04;  0.0000000E+00;
  2.6008918E+00;  9.9999998E-03; -1.6007626E-10;313;  6.5659201E-03;  0.0000000E+00; -4.5026727E-10;  9.9970655E+00;  4.0092903E-01; -2.7417430E-01;3;  1.5512805E-02;  0.0000000E+00;  2.3572673E-09;  0.0000000E+00;  0.0000000E+00;  0.0000000E+00;0;  9.3457960E-03;  9.9596664E+01;  0.0000000E+00;  3.2094664E-17;  1.0000000E+02;  0.0000000E+00;  9.9881493E+01;  8.2657188E-03;  0.0000000E+00;  1.0800774E-03;  0.0000000E+00;
  2.6008837E+00;  9.9999998E-03;  2.0010912E-01;314;  6.4823725E-03;  0.0000000E+00;  1.9364024E-04;  9.9970732E+00;  4.0092915E-01; -2.7345064E-01;3;  1.5194399E-02;  0.0000000E+00; -6.2451819E-03;  0.0000000E+00;  0.0000000E+00;  0.0000000E+00;0;  9.3105659E-03;  9.9597038E+01;  0.0000000E+00;  4.4431405E-07;  1.0000000E+02;  0.0000000E+00;  9.9881256E+01;  8.2515897E-03;  0.0000000E+00;  1.0589757E-03;  0.0000000E+00;
  2.6008639E+00;  9.9999998E-03;  4.0021688E-01;315;  6.2581785E-03;  0.0000000E+00;  1.5900721E-04;  9.9971161E+00;  4.0092796E-01; -2.6944155E-01;3;  1.4321199E-02;  0.0000000E+00; -6.6400487E-03;  0.0000000E+00;  0.0000000E+00;  0.0000000E+00;0;  9.1318600E-03;  9.9598335E+01;  0.0000000E+00;  1.8264695E-06;  1.0000000E+02;  0.0000000E+00;  9.9881416E+01;  8.2106413E-03;  0.0000000E+00;  9.2121831E-04;  0.0000000E+00;
  2.6008387E+00;  9.9999998E-03;  6.0034376E-01;316;  5.9971986E-03;  0.0000000E+00;  1.1868062E-04;  9.9972296E+00;  4.0092954E-01; -2.5886089E-01;3;  1.3120981E-02;  0.0000000E+00; -5.9763291E-03;  0.0000000E+00;  0.0000000E+00;  0.0000000E+00;0;  8.7375743E-03;  9.9600319E+01;  0.0000000E+00;  3.5604533E-06;  1.0000000E+02;  0.0000000E+00;  9.9880852E+01;  8.1472844E-03;  0.0000000E+00;  5.9029000E-04;  0.0000000E+00;
  2.6008043E+00;  9.9999998E-03;  8.0044109E-01;317;  5.8647008E-03;  0.0000000E+00;  4.1769084E-04;  9.9973574E+00;  4.0091622E-01; -2.4694383E-01;3;  1.1889400E-02;  0.0000000E+00;  3.0297218E-03;  0.0000000E+00;  0.0000000E+00;  0.0000000E+00;0;  8.5037323E-03;  9.9602654E+01;  0.0000000E+00;  3.2819480E-06;  1.0000000E+02;  0.0000000E+00;  9.9887970E+01;  8.0688745E-03;  0.0000000E+00;  4.3485794E-04;  0.0000000E+00;
  2.6006804E+00;  9.9999998E-03;  1.0005846E+00;318;  5.6485748E-03;  0.0000000E+00;  9.6956588E-04;  9.9972019E+00;  4.0091276E-01; -2.6142883E-01;3;  1.0822885E-02;  0.0000000E+00; -3.6114356E-03;  0.0000000E+00;  0.0000000E+00;  0.0000000E+00;0;  8.8948645E-03;  9.9605286E+01;  0.0000000E+00;  5.7759985E-07;  1.0000000E+02;  0.0000000E+00;  9.9883713E+01;  7.9851281E-03;  0.0000000E+00;  9.0973685E-04;  0.0000000E+00;
  2.8012555E+00;  9.9999998E-03; -1.1523794E-10;324;  7.8606308E-03;  0.0000000E+00; -2.4580379E-10;  9.9969816E+00;  4.0111387E-01; -2.7543253E-01;3;  1.5688611E-02;  0.0000000E+00;  4.7057229E-09;  0.0000000E+00;  0.0000000E+00;  0.0000000E+00;0;  1.0621113E-02;  9.9534241E+01;  0.0000000E+00; -1.1945502E-18;  1.0000000E+02;  0.0000000E+00;  9.9850418E+01;  8.9805247E-03;  0.0000000E+00;  1.6405880E-03;  0.0000000E+00;
  2.8012588E+00;  9.9999998E-03;  2.0015484E-01;325;  7.8108036E-03;  0.0000000E+00;  6.0977164E-04;  9.9969788E+00;  4.0111616E-01; -2.7570441E-01;3;  1.5363623E-02;  0.0000000E+00; -1.7622445E-03;  0.0000000E+00;  0.0000000E+00;  0.0000000E+00;0;  1.0630286E-02;  9.9533607E+01;  0.0000000E+00;  4.9947738E-07;  1.0000000E+02;  0.0000000E+00;  9.9849823E+01;  8.9875665E-03;  0.0000000E+00;  1.6427196E-03;  0.0000000E+00;
  2.8012662E+00;  9.9999998E-03;  4.0032670E-01;326;  7.6750037E-03;  0.0000000E+00;  8.9355867E-04;  9.9969749E+00;  4.0112478E-01; -2.7603057E-01;3;  1.4459897E-02;  0.0000000E+00; -7.2693191E-03;  0.0000000E+00;  0.0000000E+00;  0.0000000E+00;0;  1.0608311E-02;  9.9532059E+01;  0.0000000E+00;  2.1030905E-06;  1.0000000E+02;  0.0000000E+00;  9.9847176E+01;  9.0043033E-03;  0.0000000E+00;  1.6040079E-03;  0.0000000E+00;
  2.8012705E+00;  9.9999998E-03;  6.0048181E-01;327;  7.5224070E-03;  0.0000000E+00;  8.2004280E-04;  9.9970446E+00;  4.0113887E-01; -2.6966679E-01;3;  1.3186240E-02;  0.0000000E+00; -7.2972178E-03;  0.0000000E+00;  0.0000000E+00;  0.0000000E+00;0;  1.0339729E-02;  9.9530029E+01;  0.0000000E+00;  4.3193932E-06;  1.0000000E+02;  0.0000000E+00;  9.9843575E+01;  9.0211779E-03;  0.0000000E+00;  1.3185518E-03;  0.0000000E+00;
  2.8012545E+00;  9.9999998E-03;  8.0059499E-01;328;  7.4182781E-03;  0.0000000E+00;  9.6742448E-04;  9.9971609E+00;  4.0113494E-01; -2.5906110E-01;3;  1.1819370E-02;  0.0000000E+00; -2.1365166E-03;  0.0000000E+00;  0.0000000E+00;  0.0000000E+00;0;  1.0054652E-02;  9.9528046E+01;  0.0000000E+00;  4.6955047E-06;  1.0000000E+02;  0.0000000E+00;  9.9849945E+01;  9.0301698E-03;  0.0000000E+00;  1.0244815E-03;  0.0000000E+00;
  2.8011479E+00;  9.9999998E-03;  1.0007639E+00;329;  7.1875644E-03;  0.0000000E+00;  1.4705255E-03;  9.9970102E+00;  4.0114215E-01; -2.7282444E-01;3;  1.0545602E-02;  0.0000000E+00; -1.0888580E-02;  0.0000000E+00;  0.0000000E+00;  0.0000000E+00;0;  1.0381769E-02;  9.9526405E+01;  0.0000000E+00;  1.5105599E-06;  1.0000000E+02;  0.0000000E+00;  9.9844810E+01;  9.0281619E-03;  0.0000000E+00;  1.3536073E-03;  0.0000000E+00;
  3.0016112E+00;  9.9999998E-03; -1.2644784E-10;335;  8.9166742E-03;  0.0000000E+00; -2.0751391E-10;  9.9968090E+00;  4.0132821E-01; -2.8732634E-01;3;  1.6415028E-02;  0.0000000E+00;  6.4203007E-09;  0.0000000E+00;  0.0000000E+00;  0.0000000E+00;0;  1.2345992E-02;  9.9455940E+01;  0.0000000E+00;  3.4321970E-17;  1.0000000E+02;  0.0000000E+00;  9.9818924E+01;  1.0118582E-02;  0.0000000E+00;  2.2274093E-03;  0.0000000E+00;
  3.0016274E+00;  9.9999998E-03;  2.0018387E-01;336;  8.9203874E-03;  0.0000000E+00;  8.1770337E-04;  9.9968033E+00;  4.0133163E-01; -2.8780910E-01;3;  1.6199097E-02;  0.0000000E+00; -1.1764244E-03;  0.0000000E+00;  0.0000000E+00;  0.0000000E+00;0;  1.2367121E-02;  9.9454712E+01;  0.0000000E+00;  5.9510523E-07;  1.0000000E+02;  0.0000000E+00;  9.9818359E+01;  1.0142004E-02;  0.0000000E+00;  2.2251171E-03;  0.0000000E+00;
  3.0016649E+00;  9.9999998E-03;  4.0040842E-01;337;  8.9222938E-03;  0.0000000E+00;  1.4958810E-03;  9.9967756E+00;  4.0134549E-01; -2.9033089E-01;3;  1.5580181E-02;  0.0000000E+00; -7.2237547E-03;  0.0000000E+00;  0.0000000E+00;  0.0000000E+00;0;  1.2464419E-02;  9.9451271E+01;  0.0000000E+00;  2.4188778E-06;  1.0000000E+02;  0.0000000E+00;  9.9814209E+01;  1.0203817E-02;  0.0000000E+00;  2.2606018E-03;  0.0000000E+00;
  3.0016992E+00;  9.9999998E-03;  6.0059607E-01;338;  8.9244861E-03;  0.0000000E+00;  1.4102317E-03;  9.9968233E+00;  4.0136728E-01; -2.8603718E-01;3;  1.4663316E-02;  0.0000000E+00; -8.3779460E-03;  0.0000000E+00;  0.0000000E+00;  0.0000000E+00;0;  1.2252031E-02;  9.9446632E+01;  0.0000000E+00;  4.8194547E-06;  1.0000000E+02;  0.0000000E+00;  9.9808891E+01;  1.0284181E-02;  0.0000000E+00;  1.9678506E-03;  0.0000000E+00;
  3.0017259E+00;  9.9999998E-03;  8.0073297E-01;339;  8.9905662E-03;  0.0000000E+00;  1.5660182E-03;  9.9969072E+00;  4.0136823E-01; -2.7846998E-01;3;  1.3619094E-02;  0.0000000E+00; -6.9729229E-03;  0.0000000E+00;  0.0000000E+00;  0.0000000E+00;0;  1.2026326E-02;  9.9441681E+01;  0.0000000E+00;  5.5030459E-06;  1.0000000E+02;  0.0000000E+00;  9.9815338E+01;  1.0363619E-02;  0.0000000E+00;  1.6627066E-03;  0.0000000E+00;
  3.0016816E+00;  9.9999998E-03;  1.0009347E+00;340;  8.9437272E-03;  0.0000000E+00;  1.8934767E-03;  9.9968109E+00;  4.0138605E-01; -2.8711072E-01;3;  1.2581388E-02;  0.0000000E+00; -1.8381348E-02;  0.0000000E+00;  0.0000000E+00;  0.0000000E+00;0;  1.2062605E-02;  9.9437187E+01;  0.0000000E+00;  2.2763950E-06;  1.0000000E+02;  0.0000000E+00;  9.9808891E+01;  1.0429137E-02;  0.0000000E+00;  1.6334679E-03;  0.0000000E+00;
  3.2020576E+00;  9.9999998E-03; -8.7279170E-11;346;  1.0307819E-02;  0.0000000E+00; -1.5876359E-10;  9.9965382E+00;  4.0157616E-01; -3.0959120E-01;3;  1.9272180E-02;  0.0000000E+00;  6.4085803E-09;  0.0000000E+00;  0.0000000E+00;  0.0000000E+00;0;  1.4618589E-02;  9.9358109E+01;  0.0000000E+00;  9.9535457E-17;  1.0000000E+02;  0.0000000E+00;  9.9788239E+01;  1.1833481E-02;  0.0000000E+00;  2.7851069E-03;  0.0000000E+00;
  3.2020862E+00;  9.9999998E-03;  2.0020065E-01;347;  1.0366076E-02;  0.0000000E+00;  9.2646573E-04;  9.9965343E+00;  4.0158001E-01; -3.0991083E-01;3;  1.9229162E-02;  0.0000000E+00; -1.2415188E-03;  0.0000000E+00;  0.0000000E+00;  0.0000000E+00;0;  1.4633926E-02;  9.9356606E+01;  0.0000000E+00;  6.5818114E-07;  1.0000000E+02;  0.0000000E+00;  9.9787849E+01;  1.1865059E-02;  0.0000000E+00;  2.7688663E-03;  0.0000000E+00;
  3.2021492E+00;  9.9999998E-03;  4.0045637E-01;348;  1.0506202E-02;  0.0000000E+00;  1.8318035E-03;  9.9965057E+00;  4.0159541E-01; -3.1246898E-01;3;  1.9069709E-02;  0.0000000E+00; -4.6328674E-03;  0.0000000E+00;  0.0000000E+00;  0.0000000E+00;0;  1.4752719E-02;  9.9352295E+01;  0.0000000E+00;  2.5692125E-06;  1.0000000E+02;  0.0000000E+00;  9.9783791E+01;  1.1949450E-02;  0.0000000E+00;  2.8032688E-03;  0.0000000E+00;
  3.2022140E+00;  9.9999998E-03;  6.0068464E-01;349;  1.0682650E-02;  0.0000000E+00;  1.8451030E-03;  9.9965343E+00;  4.0162069E-01; -3.0990994E-01;3;  1.8745188E-02;  0.0000000E+00; -1.3268546E-02;  0.0000000E+00;  0.0000000E+00;  0.0000000E+00;0;  1.4559549E-02;  9.9346519E+01;  0.0000000E+00;  4.9403811E-06;  1.0000000E+02;  0.0000000E+00;  9.9777740E+01;  1.2061984E-02;  0.0000000E+00;  2.4975652E-03;  0.0000000E+00;
  3.2022800E+00;  9.9999998E-03;  8.0086124E-01;350;  1.0931945E-02;  0.0000000E+00;  2.1018037E-03;  9.9965811E+00;  4.0162563E-01; -3.0575174E-01;3;  1.8292828E-02;  0.0000000E+00; -1.4107835E-02;  0.0000000E+00;  0.0000000E+00;  0.0000000E+00;0;  1.4405673E-02;  9.9340286E+01;  0.0000000E+00;  5.7117181E-06;  1.0000000E+02;  0.0000000E+00;  9.9782448E+01;  1.2177708E-02;  0.0000000E+00;  2.2279655E-03;  0.0000000E+00;
  3.2022953E+00;  9.9999998E-03;  1.0010921E+00;351;  1.1093066E-02;  0.0000000E+00;  2.1294951E-03;  9.9966049E+00;  4.0164888E-01; -3.0361947E-01;3;  1.7797144E-02;  0.0000000E+00; -2.4392586E-02;  0.0000000E+00;  0.0000000E+00;  0.0000000E+00;0;  1.3883362E-02;  9.9334564E+01;  0.0000000E+00;  2.6790269E-06;  1.0000000E+02;  0.0000000E+00;  9.9777023E+01;  1.2278534E-02;  0.0000000E+00;  1.6048274E-03;  0.0000000E+00;
  3.4026828E+00;  9.9999998E-03; -1.9102908E-10;357;  1.2485025E-02;  0.0000000E+00; -1.0483837E-09;  9.9961872E+00;  4.0185535E-01; -3.3989695E-01;3;  2.4906630E-02;  0.0000000E+00;  9.3124086E-09;  0.0000000E+00;  0.0000000E+00;  0.0000000E+00;0;  1.7330017E-02;  9.9243233E+01;  0.0000000E+00; -1.6553452E-17;  1.0000000E+02;  0.0000000E+00;  9.9758087E+01;  1.4043447E-02;  0.0000000E+00;  3.2865701E-03;  0.0000000E+00;
  3.4027185E+00;  9.9999998E-03;  2.0020892E-01;358;  1.2580366E-02;  0.0000000E+00;  9.5244951E-04;  9.9961872E+00;  4.0185896E-01; -3.3989680E-01;3;  2.5041835E-02;  0.0000000E+00; -1.7895867E-03;  0.0000000E+00;  0.0000000E+00;  0.0000000E+00;0;  1.7329808E-02;  9.9241417E+01;  0.0000000E+00;  5.8214812E-07;  1.0000000E+02;  0.0000000E+00;  9.9758102E+01;  1.4079158E-02;  0.0000000E+00;  3.2506494E-03;  0.0000000E+00;
  3.4027984E+00;  9.9999998E-03;  4.0048370E-01;359;  1.2818645E-02;  0.0000000E+00;  1.9543290E-03;  9.9961672E+00;  4.0187418E-01; -3.4164995E-01;3;  2.5357550E-02;  0.0000000E+00; -5.5495361E-03;  0.0000000E+00;  0.0000000E+00;  0.0000000E+00;0;  1.7409921E-02;  9.9236542E+01;  0.0000000E+00;  2.2976658E-06;  1.0000000E+02;  0.0000000E+00;  9.9755119E+01;  1.4174603E-02;  0.0000000E+00;  3.2353185E-03;  0.0000000E+00;
  3.4028831E+00;  9.9999998E-03;  6.0075319E-01;360;  1.3120163E-02;  0.0000000E+00;  2.2193163E-03;  9.9961872E+00;  4.0189976E-01; -3.3989626E-01;3;  2.5663812E-02;  0.0000000E+00; -1.4762454E-02;  0.0000000E+00;  0.0000000E+00;  0.0000000E+00;0;  1.7271478E-02;  9.9229897E+01;  0.0000000E+00;  4.5049214E-06;  1.0000000E+02;  0.0000000E+00;  9.9749413E+01;  1.4302194E-02;  0.0000000E+00;  2.9692841E-03;  0.0000000E+00;
  3.4029741E+00;  9.9999998E-03;  8.0098230E-01;361;  1.3496718E-02;  0.0000000E+00;  2.4256236E-03;  9.9962177E+00;  4.0191227E-01; -3.3718610E-01;3;  2.5869805E-02;  0.0000000E+00; -2.5576634E-02;  0.0000000E+00;  0.0000000E+00;  0.0000000E+00;0;  1.6973011E-02;  9.9222931E+01;  0.0000000E+00;  5.2968517E-06;  1.0000000E+02;  0.0000000E+00;  9.9750931E+01;  1.4433818E-02;  0.0000000E+00;  2.5391926E-03;  0.0000000E+00;
  3.4030261E+00;  9.9999998E-03;  1.0012401E+00;362;  1.3795909E-02;  0.0000000E+00;  2.2979961E-03;  9.9963694E+00;  4.0193722E-01; -3.2363683E-01;3;  2.6023846E-02;  0.0000000E+00; -2.2903882E-02;  0.0000000E+00;  0.0000000E+00;  0.0000000E+00;0;  1.6037120E-02;  9.9216736E+01;  0.0000000E+00;  2.2980778E-06;  1.0000000E+02;  0.0000000E+00;  9.9747856E+01;  1.4548842E-02;  0.0000000E+00;  1.4882782E-03;  0.0000000E+00;
  3.6035190E+00;  9.9999998E-03; -2.1465339E-10;368;  1.5620036E-02;  0.0000000E+00; -1.4812720E-09;  9.9957952E+00;  4.0215799E-01; -3.7425414E-01;3;  3.3347569E-02;  0.0000000E+00;  7.2077349E-09;  0.0000000E+00;  0.0000000E+00;  0.0000000E+00;0;  2.0257968E-02;  9.9116447E+01;  0.0000000E+00;  1.1733962E-16;  1.0000000E+02;  0.0000000E+00;  9.9727501E+01;  1.6522873E-02;  0.0000000E+00;  3.7350943E-03;  0.0000000E+00;
  3.6035600E+00;  9.9999998E-03;  2.0021260E-01;369;  1.5732966E-02;  0.0000000E+00;  9.1348967E-04;  9.9957972E+00;  4.0216258E-01; -3.7409490E-01;3;  3.3612072E-02;  0.0000000E+00; -2.6720581E-03;  0.0000000E+00;  0.0000000E+00;  0.0000000E+00;0;  2.0245591E-02;  9.9113731E+01;  0.0000000E+00;  1.9105305E-07;  1.0000000E+02;  0.0000000E+00;  9.9727959E+01;  1.6569519E-02;  0.0000000E+00;  3.6760720E-03;  0.0000000E+00;
  3.6036437E+00;  9.9999998E-03;  4.0050048E-01;370;  1.6001366E-02;  0.0000000E+00;  1.9640238E-03;  9.9957895E+00;  4.0217906E-01; -3.7478453E-01;3;  3.4277409E-02;  0.0000000E+00; -6.6933250E-03;  0.0000000E+00;  0.0000000E+00;  0.0000000E+00;0;  2.0287108E-02;  9.9106644E+01;  0.0000000E+00;  1.1304886E-06;  1.0000000E+02;  0.0000000E+00;  9.9726715E+01;  1.6691701E-02;  0.0000000E+00;  3.5954060E-03;  0.0000000E+00;
  3.6037273E+00;  9.9999998E-03;  6.0081398E-01;371;  1.6328877E-02;  0.0000000E+00;  2.5223282E-03;  9.9957886E+00;  4.0220767E-01; -3.7489048E-01;3;  3.5069387E-02;  0.0000000E+00; -1.6890882E-02;  0.0000000E+00;  0.0000000E+00;  0.0000000E+00;0;  2.0234361E-02;  9.9097359E+01;  0.0000000E+00;  2.9872554E-06;  1.0000000E+02;  0.0000000E+00;  9.9722099E+01;  1.6851583E-02;  0.0000000E+00;  3.3827787E-03;  0.0000000E+00;
  3.6038239E+00;  9.9999998E-03;  8.0110198E-01;372;  1.6734093E-02;  0.0000000E+00;  2.5852441E-03;  9.9958353E+00;  4.0223297E-01; -3.7069890E-01;3;  3.5823744E-02;  0.0000000E+00; -2.9985081E-02;  0.0000000E+00;  0.0000000E+00;  0.0000000E+00;0;  1.9663321E-02;  9.9087875E+01;  0.0000000E+00;  4.0154091E-06;  1.0000000E+02;  0.0000000E+00;  9.9719948E+01;  1.7014226E-02;  0.0000000E+00;  2.6490954E-03;  0.0000000E+00;
  3.6038895E+00;  9.9999998E-03;  1.0013891E+00;373;  1.7074080E-02;  0.0000000E+00;  2.4628493E-03;  9.9960632E+00;  4.0226147E-01; -3.5043159E-01;3;  3.6551908E-02;  0.0000000E+00; -2.1464419E-02;  0.0000000E+00;  0.0000000E+00;  0.0000000E+00;0;  1.8568767E-02;  9.9079567E+01;  0.0000000E+00;  1.3972108E-06;  1.0000000E+02;  0.0000000E+00;  9.9718819E+01;  1.7156811E-02;  0.0000000E+00;  1.4119555E-03;  0.0000000E+00;
  3.8045385E+00;  9.9999998E-03; -2.2606414E-10;379;  1.9605407E-02;  0.0000000E+00; -1.9865847E-09;  9.9953699E+00;  4.0248972E-01; -4.1186079E-01;3;  4.4325661E-02;  0.0000000E+00; -4.7882516E-09;  0.0000000E+00;  0.0000000E+00;  0.0000000E+00;0;  2.3232896E-02;  9.8977135E+01;  0.0000000E+00;  4.2915781E-17;  1.0000000E+02;  0.0000000E+00;  9.9695076E+01;  1.9081905E-02;  0.0000000E+00;  4.1509904E-03;  0.0000000E+00;
  3.8045852E+00;  9.9999998E-03;  2.0021646E-01;380;  1.9722255E-02;  0.0000000E+00;  8.4737607E-04;  9.9953718E+00;  4.0249687E-01; -4.1170171E-01;3;  4.4634853E-02;  0.0000000E+00; -3.5997625E-03;  0.0000000E+00;  0.0000000E+00;  0.0000000E+00;0;  2.3219619E-02;  9.8972641E+01;  0.0000000E+00; -5.9557982E-07;  1.0000000E+02;  0.0000000E+00;  9.9696037E+01;  1.9149991E-02;  0.0000000E+00;  4.0696291E-03;  0.0000000E+00;
  3.8046608E+00;  9.9999998E-03;  4.0051949E-01;381;  1.9950844E-02;  0.0000000E+00;  1.9466279E-03;  9.9953642E+00;  4.0251845E-01; -4.1239089E-01;3;  4.5430191E-02;  0.0000000E+00; -7.5509986E-03;  0.0000000E+00;  0.0000000E+00;  0.0000000E+00;0;  2.3259532E-02;  9.8960678E+01;  0.0000000E+00; -1.0430583E-06;  1.0000000E+02;  0.0000000E+00;  9.9697098E+01;  1.9328237E-02;  0.0000000E+00;  3.9312956E-03;  0.0000000E+00;
  3.8047299E+00;  9.9999998E-03;  6.0088474E-01;382;  2.0210845E-02;  0.0000000E+00;  2.7941847E-03;  9.9953346E+00;  4.0255743E-01; -4.1498882E-01;3;  4.6441317E-02;  0.0000000E+00; -2.0969117E-02;  0.0000000E+00;  0.0000000E+00;  0.0000000E+00;0;  2.3344098E-02;  9.8945023E+01;  0.0000000E+00;  6.5651494E-07;  1.0000000E+02;  0.0000000E+00;  9.9693024E+01;  1.9560717E-02;  0.0000000E+00;  3.7833801E-03;  0.0000000E+00;
  3.8048089E+00;  9.9999998E-03;  8.0123204E-01;383;  2.0538470E-02;  0.0000000E+00;  2.7217602E-03;  9.9954109E+00;  4.0260458E-01; -4.0820217E-01;3;  4.7512721E-02;  0.0000000E+00; -2.6449757E-02;  0.0000000E+00;  0.0000000E+00;  0.0000000E+00;0;  2.2547662E-02;  9.8929169E+01;  0.0000000E+00;  3.0213666E-06;  1.0000000E+02;  0.0000000E+00;  9.9687126E+01;  1.9797983E-02;  0.0000000E+00;  2.7496796E-03;  0.0000000E+00;
  3.8048716E+00;  9.9999998E-03;  1.0015492E+00;384;  2.0838991E-02;  0.0000000E+00;  2.6644804E-03;  9.9956646E+00;  4.0264264E-01; -3.8566858E-01;3;  4.8608046E-02;  0.0000000E+00; -1.7337197E-02;  0.0000000E+00;  0.0000000E+00;  0.0000000E+00;0;  2.1444293E-02;  9.8914955E+01;  0.0000000E+00;  2.1374226E-06;  1.0000000E+02;  0.0000000E+00;  9.9687683E+01;  2.0013189E-02;  0.0000000E+00;  1.4311043E-03;  0.0000000E+00;
  4.0056686E+00;  9.9999998E-03; -1.8468711E-10;390;  2.4110533E-02;  0.0000000E+00; -2.3181208E-09;  9.9948931E+00;  4.0286711E-01; -4.5414048E-01;3;  5.7288740E-02;  0.0000000E+00; -6.9746093E-09;  0.0000000E+00;  0.0000000E+00;  0.0000000E+00;0;  2.6191294E-02;  9.8816605E+01;  0.0000000E+00; -2.5193539E-16;  1.0000000E+02;  0.0000000E+00;  9.9660225E+01;  2.1640072E-02;  0.0000000E+00;  4.5512235E-03;  0.0000000E+00;
  4.0057225E+00;  9.9999998E-03;  2.0022994E-01;391;  2.4228008E-02;  0.0000000E+00;  8.3266856E-04;  9.9948931E+00;  4.0287873E-01; -4.5414048E-01;3;  5.7529777E-02;  0.0000000E+00; -4.0113390E-03;  0.0000000E+00;  0.0000000E+00;  0.0000000E+00;0;  2.6190784E-02;  9.8809334E+01;  0.0000000E+00; -1.2197237E-06;  1.0000000E+02;  0.0000000E+00;  9.9661896E+01;  2.1733053E-02;  0.0000000E+00;  4.4577308E-03;  0.0000000E+00;
  4.0057902E+00;  9.9999998E-03;  4.0056211E-01;392;  2.4383528E-02;  0.0000000E+00;  2.0574124E-03;  9.9948721E+00;  4.0291122E-01; -4.5599559E-01;3;  5.8172148E-02;  0.0000000E+00; -7.2375755E-03;  0.0000000E+00;  0.0000000E+00;  0.0000000E+00;0;  2.6294639E-02;  9.8790100E+01;  0.0000000E+00; -2.3357081E-06;  1.0000000E+02;  0.0000000E+00;  9.9664581E+01;  2.1981362E-02;  0.0000000E+00;  4.3132766E-03;  0.0000000E+00;
  4.0058427E+00;  9.9999998E-03;  6.0098892E-01;393;  2.4526436E-02;  0.0000000E+00;  3.0728660E-03;  9.9948025E+00;  4.0297186E-01; -4.6219710E-01;3;  5.9077367E-02;  0.0000000E+00; -2.1142684E-02;  0.0000000E+00;  0.0000000E+00;  0.0000000E+00;0;  2.6523324E-02;  9.8764687E+01;  0.0000000E+00;  5.0691534E-07;  1.0000000E+02;  0.0000000E+00;  9.9659065E+01;  2.2314496E-02;  0.0000000E+00;  4.2088274E-03;  0.0000000E+00;
  4.0058947E+00;  9.9999998E-03;  8.0138433E-01;394;  2.4723474E-02;  0.0000000E+00;  2.9458203E-03;  9.9949102E+00;  4.0304777E-01; -4.5260328E-01;3;  6.0181763E-02;  0.0000000E+00; -1.9249773E-02;  0.0000000E+00;  0.0000000E+00;  0.0000000E+00;0;  2.5671382E-02;  9.8738434E+01;  0.0000000E+00;  5.0281114E-06;  1.0000000E+02;  0.0000000E+00;  9.9650047E+01;  2.2663403E-02;  0.0000000E+00;  3.0079780E-03;  0.0000000E+00;
  4.0059471E+00;  9.9999998E-03;  1.0017271E+00;395;  2.4955673E-02;  0.0000000E+00;  2.9707537E-03;  9.9951506E+00;  4.0310213E-01; -4.3124256E-01;3;  6.1378989E-02;  0.0000000E+00; -9.9097481E-03;  0.0000000E+00;  0.0000000E+00;  0.0000000E+00;0;  2.4647322E-02;  9.8714256E+01;  0.0000000E+00;  6.0201082E-06;  1.0000000E+02;  0.0000000E+00;  9.9652351E+01;  2.2990245E-02;  0.0000000E+00;  1.6570754E-03;  0.0000000E+00;
  4.2068543E+00;  9.9999998E-03;  2.4934036E-11;401;  2.8748948E-02;  0.0000000E+00; -2.0042756E-09;  9.9943438E+00;  4.0330666E-01; -5.0294268E-01;3;  7.0962392E-02;  0.0000000E+00; -3.2255102E-08;  0.0000000E+00;  0.0000000E+00;  0.0000000E+00;0;  2.9036894E-02;  9.8625786E+01;  0.0000000E+00;  2.5809859E-16;  1.0000000E+02;  0.0000000E+00;  9.9624557E+01;  2.4107024E-02;  0.0000000E+00;  4.9298713E-03;  0.0000000E+00;
  4.2068915E+00;  9.9999998E-03;  2.0026925E-01;402;  2.8819747E-02;  0.0000000E+00;  9.8378479E-04;  9.9943352E+00;  4.0332302E-01; -5.0368464E-01;3;  7.1032032E-02;  0.0000000E+00; -3.2610511E-03;  0.0000000E+00;  0.0000000E+00;  0.0000000E+00;0;  2.9066965E-02;  9.8615845E+01;  0.0000000E+00; -1.3185610E-06;  1.0000000E+02;  0.0000000E+00;  9.9626411E+01;  2.4217559E-02;  0.0000000E+00;  4.8494069E-03;  0.0000000E+00;
  4.2069798E+00;  9.9999998E-03;  4.0066028E-01;403;  2.8985417E-02;  0.0000000E+00;  2.4740412E-03;  9.9942846E+00;  4.0337154E-01; -5.0818938E-01;3;  7.1323536E-02;  0.0000000E+00; -5.0723790E-03;  0.0000000E+00;  0.0000000E+00;  0.0000000E+00;0;  2.9322255E-02;  9.8589119E+01;  0.0000000E+00; -1.2929196E-05;  1.0000000E+02;  0.0000000E+00;  9.9628349E+01;  2.4520414E-02;  0.0000000E+00;  4.8018405E-03;  0.0000000E+00;
  4.2070351E+00;  9.9999998E-03;  6.0114533E-01;404;  2.9078655E-02;  0.0000000E+00;  3.3844560E-03;  9.9941912E+00;  4.0346184E-01; -5.1650989E-01;3;  7.1971528E-02;  0.0000000E+00; -1.5247351E-02;  0.0000000E+00;  0.0000000E+00;  0.0000000E+00;0;  2.9625693E-02;  9.8552971E+01;  0.0000000E+00; -2.5511981E-05;  1.0000000E+02;  0.0000000E+00;  9.9618301E+01;  2.4940964E-02;  0.0000000E+00;  4.6847300E-03;  0.0000000E+00;
  4.2070608E+00;  9.9999998E-03;  8.0155975E-01;405;  2.9182730E-02;  0.0000000E+00;  3.2613373E-03;  9.9943094E+00;  4.0356445E-01; -5.0596344E-01;3;  7.2995104E-02;  0.0000000E+00; -1.2052094E-02;  0.0000000E+00;  0.0000000E+00;  0.0000000E+00;0;  2.8845258E-02;  9.8514938E+01;  0.0000000E+00; -9.4526367E-06;  1.0000000E+02;  0.0000000E+00;  9.9608406E+01;  2.5394240E-02;  0.0000000E+00;  3.4510179E-03;  0.0000000E+00;
  4.2071171E+00;  9.9999998E-03;  1.0019182E+00;406;  2.9421691E-02;  0.0000000E+00;  3.4645011E-03;  9.9945097E+00;  4.0363595E-01; -4.8815644E-01;3;  7.4126102E-02;  0.0000000E+00;  4.4900253E-03;  0.0000000E+00;  0.0000000E+00;  0.0000000E+00;0;  2.8064040E-02;  9.8479301E+01;  0.0000000E+00;  5.7123793E-06;  1.0000000E+02;  0.0000000E+00;  9.9613312E+01;  2.5821058E-02;  0.0000000E+00;  2.2429831E-03;  0.0000000E+00;
  4.4080553E+00;  9.9999998E-03;  1.2140353E-10;412;  3.3176996E-02;  0.0000000E+00; -2.1735562E-09;  9.9937248E+00;  4.0379077E-01; -5.5792010E-01;3;  8.3162993E-02;  0.0000000E+00; -6.4595923E-08;  0.0000000E+00;  0.0000000E+00;  0.0000000E+00;0;  3.1461891E-02;  9.8409607E+01;  0.0000000E+00;  3.8470496E-17;  1.0000000E+02;  0.0000000E+00;  9.9591682E+01;  2.6217641E-02;  0.0000000E+00;  5.2442481E-03;  0.0000000E+00;
  4.4081063E+00;  9.9999998E-03;  2.0034996E-01;413;  3.3310782E-02;  0.0000000E+00;  1.3698799E-03;  9.9937077E+00;  4.0381089E-01; -5.5945688E-01;3;  8.3215170E-02;  0.0000000E+00; -1.0491771E-03;  0.0000000E+00;  0.0000000E+00;  0.0000000E+00;0;  3.1544492E-02;  9.8398315E+01;  0.0000000E+00; -3.7410911E-05;  1.0000000E+02;  0.0000000E+00;  9.9592888E+01;  2.6329635E-02;  0.0000000E+00;  5.2148583E-03;  0.0000000E+00;
  4.4082136E+00;  9.9999998E-03;  4.0083766E-01;414;  3.3585820E-02;  0.0000000E+00;  3.2376933E-03;  9.9936113E+00;  4.0387723E-01; -5.6798887E-01;3;  8.3472356E-02;  0.0000000E+00; -1.2009710E-03;  0.0000000E+00;  0.0000000E+00;  0.0000000E+00;0;  3.2030620E-02;  9.8367432E+01;  0.0000000E+00; -1.4711817E-04;  1.0000000E+02;  0.0000000E+00;  9.9589478E+01;  2.6642211E-02;  0.0000000E+00;  5.3884084E-03;  0.0000000E+00;
  4.4083219E+00;  9.9999998E-03;  6.0134256E-01;415;  3.3898376E-02;  0.0000000E+00;  3.6072363E-03;  9.9935389E+00;  4.0399516E-01; -5.7445413E-01;3;  8.4243104E-02;  0.0000000E+00; -7.4961660E-03;  0.0000000E+00;  0.0000000E+00;  0.0000000E+00;0;  3.2210570E-02;  9.8324066E+01;  0.0000000E+00; -1.9407703E-04;  1.0000000E+02;  0.0000000E+00;  9.9573868E+01;  2.7091233E-02;  0.0000000E+00;  5.1193354E-03;  0.0000000E+00;
  4.4084306E+00;  9.9999998E-03;  8.0173719E-01;416;  3.4318484E-02;  0.0000000E+00;  3.5743320E-03;  9.9936495E+00;  4.0411073E-01; -5.6459725E-01;3;  8.5451342E-02;  0.0000000E+00; -1.7314412E-03;  0.0000000E+00;  0.0000000E+00;  0.0000000E+00;0;  3.1561665E-02;  9.8277115E+01;  0.0000000E+00; -6.1523715E-05;  1.0000000E+02;  0.0000000E+00;  9.9566879E+01;  2.7585737E-02;  0.0000000E+00;  3.9759278E-03;  0.0000000E+00;
  4.4086027E+00;  9.9999998E-03;  1.0021019E+00;417;  3.4946736E-02;  0.0000000E+00;  4.2425198E-03;  9.9937630E+00;  4.0419009E-01; -5.5452836E-01;3;  8.6509846E-02;  0.0000000E+00;  2.8303066E-02;  0.0000000E+00;  0.0000000E+00;  0.0000000E+00;0;  3.1426728E-02;  9.8233032E+01;  0.0000000E+00; -4.2360284E-06;  1.0000000E+02;  0.0000000E+00;  9.9574547E+01;  2.8039157E-02;  0.0000000E+00;  3.3875692E-03;  0.0000000E+00;
  4.6092644E+00;  9.9999998E-03;  1.7986722E-10;423;  3.7329745E-02;  0.0000000E+00; -1.8222901E-09;  9.9931002E+00;  4.0424731E-01; -6.1344117E-01;3;  9.1914967E-02;  0.0000000E+00; -8.3756731E-08;  0.0000000E+00;  0.0000000E+00;  0.0000000E+00;0;  3.2906733E-02;  9.8199158E+01;  0.0000000E+00; -1.4341684E-16;  1.0000000E+02;  0.0000000E+00;  9.9567337E+01;  2.7482284E-02;  0.0000000E+00;  5.4244492E-03;  0.0000000E+00;
  4.6093740E+00;  9.9999998E-03;  2.0046349E-01;424;  3.7674911E-02;  0.0000000E+00;  1.9064563E-03;  9.9930687E+00;  4.0426970E-01; -6.1624974E-01;3;  9.2217721E-02;  0.0000000E+00;  2.2038387E-03;  0.0000000E+00;  0.0000000E+00;  0.0000000E+00;0;  3.3059813E-02;  9.8188629E+01;  0.0000000E+00; -1.9739644E-04;  1.0000000E+02;  0.0000000E+00;  9.9566498E+01;  2.7575554E-02;  0.0000000E+00;  5.4842602E-03;  0.0000000E+00;
  4.6096439E+00;  9.9999998E-03;  4.0105075E-01;425;  3.8551040E-02;  0.0000000E+00;  3.7160469E-03;  9.9929380E+00;  4.0435085E-01; -6.2785506E-01;3;  9.3212306E-02;  0.0000000E+00;  1.8675346E-03;  0.0000000E+00;  0.0000000E+00;  0.0000000E+00;0;  3.3656608E-02;  9.8158646E+01;  0.0000000E+00; -5.7240325E-04;  1.0000000E+02;  0.0000000E+00;  9.9554268E+01;  2.7842201E-02;  0.0000000E+00;  5.8144080E-03;  0.0000000E+00;
  4.6099868E+00;  9.9999998E-03;  6.0152233E-01;426;  3.9768331E-02;  0.0000000E+00;  3.6634852E-03;  9.9929132E+00;  4.0447971E-01; -6.3008070E-01;3;  9.5064238E-02;  0.0000000E+00;  3.0410043E-03;  0.0000000E+00;  0.0000000E+00;  0.0000000E+00;0;  3.3690821E-02;  9.8114288E+01;  0.0000000E+00; -6.5601629E-04;  1.0000000E+02;  0.0000000E+00;  9.9535194E+01;  2.8238192E-02;  0.0000000E+00;  5.4526282E-03;  0.0000000E+00;
  4.6104422E+00;  9.9999998E-03;  8.0187780E-01;427;  4.1410077E-02;  0.0000000E+00;  3.8646988E-03;  9.9929991E+00;  4.0459281E-01; -6.2244982E-01;3;  9.7030565E-02;  0.0000000E+00;  1.6056135E-02;  0.0000000E+00;  0.0000000E+00;  0.0000000E+00;0;  3.3269335E-02;  9.8063354E+01;  0.0000000E+00; -3.2566846E-04;  1.0000000E+02;  0.0000000E+00;  9.9533195E+01;  2.8697768E-02;  0.0000000E+00;  4.5715678E-03;  0.0000000E+00;
  4.6109080E+00;  9.9999998E-03;  1.0022526E+00;428;  4.3040108E-02;  0.0000000E+00;  5.3239800E-03;  9.9929361E+00;  4.0467530E-01; -6.2801403E-01;3;  9.8092921E-02;  0.0000000E+00;  5.2264746E-02;  0.0000000E+00;  0.0000000E+00;  0.0000000E+00;0;  3.4297388E-02;  9.8014717E+01;  0.0000000E+00;  2.3511941E-04;  1.0000000E+02;  0.0000000E+00;  9.9540657E+01;  2.9118432E-02;  0.0000000E+00;  5.1789577E-03;  0.0000000E+00;
  4.8107848E+00;  9.9999998E-03; -3.4581706E-11;434;  4.2257275E-02;  0.0000000E+00; -1.7777146E-09;  9.9925470E+00;  4.0456453E-01; -6.6261017E-01;3;  9.6701913E-02;  0.0000000E+00; -9.1088623E-08;  0.0000000E+00;  0.0000000E+00;  0.0000000E+00;0;  3.2793269E-02;  9.8045357E+01;  0.0000000E+00; -1.3233868E-16;  1.0000000E+02;  0.0000000E+00;  9.9556099E+01;  2.7379924E-02;  0.0000000E+00;  5.4133423E-03;  0.0000000E+00;
  4.8109827E+00;  9.9999998E-03;  2.0056604E-01;435;  4.2894877E-02;  0.0000000E+00;  2.2916738E-03;  9.9925013E+00;  4.0458703E-01; -6.6669053E-01;3;  9.7267494E-02;  0.0000000E+00;  5.2881911E-03;  0.0000000E+00;  0.0000000E+00;  0.0000000E+00;0;  3.3010576E-02;  9.8036980E+01;  0.0000000E+00; -3.8361436E-04;  1.0000000E+02;  0.0000000E+00;  9.9552467E+01;  2.7433392E-02;  0.0000000E+00;  5.5771838E-03;  0.0000000E+00;
  4.8115344E+00;  9.9999998E-03;  4.0115744E-01;436;  4.4737179E-02;  0.0000000E+00;  3.2360100E-03;  9.9924068E+00;  4.0467110E-01; -6.7506325E-01;3;  9.9324808E-02;  0.0000000E+00;  9.0780566E-03;  0.0000000E+00;  0.0000000E+00;  0.0000000E+00;0;  3.3410463E-02;  9.8011246E+01;  0.0000000E+00; -1.2085398E-03;  1.0000000E+02;  0.0000000E+00;  9.9535538E+01;  2.7615607E-02;  0.0000000E+00;  5.7948567E-03;  0.0000000E+00;
  4.8123469E+00;  9.9999998E-03;  6.0160714E-01;437;  4.7689259E-02;  0.0000000E+00;  3.2162187E-03;  9.9924011E+00;  4.0480396E-01; -6.7559314E-01;3;  1.0305315E-01;  0.0000000E+00;  1.1714374E-02;  0.0000000E+00;  0.0000000E+00;  0.0000000E+00;0;  3.3370141E-02;  9.7968018E+01;  0.0000000E+00; -1.9531776E-03;  1.0000000E+02;  0.0000000E+00;  9.9513977E+01;  2.7970228E-02;  0.0000000E+00;  5.3999121E-03;  0.0000000E+00;
  4.8134232E+00;  9.9999998E-03;  8.0194318E-01;438;  5.1535204E-02;  0.0000000E+00;  4.0273648E-03;  9.9923983E+00;  4.0492451E-01; -6.7585808E-01;3;  1.0608786E-01;  0.0000000E+00;  3.9591093E-02;  0.0000000E+00;  0.0000000E+00;  0.0000000E+00;0;  3.3621307E-02;  9.7908798E+01;  0.0000000E+00; -1.8138421E-03;  1.0000000E+02;  0.0000000E+00;  9.9515060E+01;  2.8526260E-02;  0.0000000E+00;  5.0950483E-03;  0.0000000E+00;
  4.8143959E+00;  9.9999998E-03;  1.0023546E+00;439;  5.4763496E-02;  0.0000000E+00;  6.4676031E-03;  9.9919720E+00;  4.0504518E-01; -7.1374726E-01;3;  1.0673945E-01;  0.0000000E+00;  6.9238529E-02;  0.0000000E+00;  0.0000000E+00;  0.0000000E+00;0;  3.6386054E-02;  9.7844460E+01;  0.0000000E+00;  3.8370572E-03;  1.0000000E+02;  0.0000000E+00;  9.9512840E+01;  2.9161939E-02;  0.0000000E+00;  7.2241146E-03;  0.0000000E+00;
  5.0131049E+00;  9.9999998E-03;  3.7793497E-11;445;  4.9535338E-02;  0.0000000E+00;  3.1498990E-10;  9.9920959E+00;  4.0465352E-01; -7.0272124E-01;3;  9.7221717E-02;  0.0000000E+00; -5.6746103E-08;  0.0000000E+00;  0.0000000E+00;  0.0000000E+00;0;  3.0935824E-02;  9.7989204E+01;  0.0000000E+00; -3.4080289E-16;  1.0000000E+02;  0.0000000E+00;  9.9560310E+01;  2.5732081E-02;  0.0000000E+00;  5.2037430E-03;  0.0000000E+00;
  5.0134010E+00;  9.9999998E-03;  2.0058540E-01;446;  5.0467875E-02;  0.0000000E+00;  1.9628520E-03;  9.9920359E+00;  4.0467981E-01; -7.0807338E-01;3;  9.7896487E-02;  0.0000000E+00;  7.0644519E-03;  0.0000000E+00;  0.0000000E+00;  0.0000000E+00;0;  3.1189643E-02;  9.7981071E+01;  0.0000000E+00; -5.2094017E-04;  1.0000000E+02;  0.0000000E+00;  9.9554649E+01;  2.5788277E-02;  0.0000000E+00;  5.4013659E-03;  0.0000000E+00;
  5.0142407E+00;  9.9999998E-03;  4.0109962E-01;447;  5.3251937E-02;  0.0000000E+00;  2.1339681E-03;  9.9919767E+00;  4.0476701E-01; -7.1331954E-01;3;  1.0011089E-01;  0.0000000E+00;  1.5056857E-02;  0.0000000E+00;  0.0000000E+00;  0.0000000E+00;0;  3.1443384E-02;  9.7952919E+01;  0.0000000E+00; -2.3758353E-03;  1.0000000E+02;  0.0000000E+00;  9.9539230E+01;  2.6046645E-02;  0.0000000E+00;  5.3967382E-03;  0.0000000E+00;
  5.0156565E+00;  9.9999998E-03;  6.0153627E-01;448;  5.8235787E-02;  0.0000000E+00;  2.4142766E-03;  9.9918947E+00;  4.0492964E-01; -7.2057939E-01;3;  1.0323709E-01;  0.0000000E+00;  2.9162891E-02;  0.0000000E+00;  0.0000000E+00;  0.0000000E+00;0;  3.1812441E-02;  9.7890686E+01;  0.0000000E+00; -6.2284349E-03;  1.0000000E+02;  0.0000000E+00;  9.9520988E+01;  2.6825543E-02;  0.0000000E+00;  4.9868976E-03;  0.0000000E+00;
  5.0172253E+00;  9.9999998E-03;  8.0189347E-01;449;  6.1234757E-02;  0.0000000E+00;  4.2074192E-03;  9.9916506E+00;  4.0511772E-01; -7.4230587E-01;3;  6.0970798E-02;  0.0000000E+00;  6.4729601E-02;  0.0000000E+00;  0.0000000E+00;  0.0000000E+00;0;  3.3276055E-02;  9.7793945E+01;  0.0000000E+00; -4.3518059E-03;  1.0000000E+02;  0.0000000E+00;  9.9522369E+01;  2.7590554E-02;  0.0000000E+00;  5.6855003E-03;  0.0000000E+00;
  5.0178728E+00;  9.9999998E-03;  1.0023978E+00;450;  5.9485223E-02;  0.0000000E+00;  7.6317177E-03;  9.9909611E+00;  4.0531781E-01; -8.0361712E-01;3;  3.7307613E-02;  0.0000000E+00;  8.3054200E-02;  0.0000000E+00;  0.0000000E+00;  0.0000000E+00;0;  3.6749072E-02;  9.7713089E+01;  0.0000000E+00;  2.0492751E-02;  1.0000000E+02;  0.0000000E+00;  9.9492874E+01;  2.7349677E-02;  0.0000000E+00;  9.3993936E-03;  0.0000000E+00;
  5.2165594E+00;  9.9999998E-03;  4.8185681E-11;456;  5.9903037E-02;  0.0000000E+00;  7.7747124E-09;  9.9914455E+00;  4.0456441E-01; -7.6053315E-01;3;  8.9635260E-02;  0.0000000E+00;  6.9005182E-08;  0.0000000E+00;  0.0000000E+00;  0.0000000E+00;0;  2.8451048E-02;  9.8002007E+01;  0.0000000E+00; -2.3424781E-17;  1.0000000E+02;  0.0000000E+00;  9.9578606E+01;  2.3604317E-02;  0.0000000E+00;  4.8467312E-03;  0.0000000E+00;
  5.2168818E+00;  9.9999998E-03;  2.0039071E-01;457;  6.0684651E-02;  0.0000000E+00;  2.1428347E-04;  9.9914179E+00;  4.0459689E-01; -7.6297075E-01;3;  8.8383064E-02;  0.0000000E+00;  9.2999097E-03;  0.0000000E+00;  0.0000000E+00;  0.0000000E+00;0;  2.8568093E-02;  9.7986534E+01;  0.0000000E+00; -1.1465505E-03;  1.0000000E+02;  0.0000000E+00;  9.9577972E+01;  2.3776406E-02;  0.0000000E+00;  4.7916868E-03;  0.0000000E+00;
  5.2176595E+00;  9.9999998E-03;  4.0085128E-01;458;  6.2532753E-02;  0.0000000E+00;  7.1213482E-04;  9.9913597E+00;  4.0469924E-01; -7.6816392E-01;3;  8.5361339E-02;  0.0000000E+00;  2.6532020E-02;  0.0000000E+00;  0.0000000E+00;  0.0000000E+00;0;  2.8895782E-02;  9.7942322E+01;  0.0000000E+00; -5.5118478E-03;  1.0000000E+02;  0.0000000E+00;  9.9571266E+01;  2.4264798E-02;  0.0000000E+00;  4.6309843E-03;  0.0000000E+00;
  5.2188063E+00;  9.9999998E-03;  6.0130560E-01;459;  6.3915551E-02;  0.0000000E+00;  1.7213392E-03;  9.9912834E+00;  4.0489322E-01; -7.7494681E-01;3;  2.4670402E-02;  0.0000000E+00;  5.0047096E-02;  0.0000000E+00;  0.0000000E+00;  0.0000000E+00;0;  2.9245546E-02;  9.7857269E+01;  0.0000000E+00; -1.1096476E-02;  1.0000000E+02;  0.0000000E+00;  9.9561104E+01;  2.4757521E-02;  0.0000000E+00;  4.4880244E-03;  0.0000000E+00;
  5.2194743E+00;  9.9999998E-03;  8.0170190E-01;460;  6.1592594E-02;  0.0000000E+00;  5.4402105E-03;  9.9911060E+00;  4.0503821E-01; -7.9073828E-01;3;  1.7583180E-02;  0.0000000E+00;  1.0838646E-01;  0.0000000E+00;  0.0000000E+00;  0.0000000E+00;0;  3.1358354E-02;  9.7779655E+01;  0.0000000E+00;  2.3068928E-03;  1.0000000E+02;  0.0000000E+00;  9.9565376E+01;  2.3690701E-02;  0.0000000E+00;  7.6676523E-03;  0.0000000E+00;
  5.2192826E+00;  9.9999998E-03;  1.0022963E+00;461;  5.8747377E-02;  0.0000000E+00;  8.3142389E-03;  9.9907169E+00;  4.0518904E-01; -8.2528865E-01;3;  4.0343359E-02;  0.0000000E+00;  8.6143084E-02;  0.0000000E+00;  0.0000000E+00;  0.0000000E+00;0;  3.2966521E-02;  9.7754173E+01;  0.0000000E+00;  4.5307759E-02;  1.0000000E+02;  0.0000000E+00;  9.9509674E+01;  2.2138203E-02;  0.0000000E+00;  1.0828318E-02;  0.0000000E+00;
  5.4188275E+00;  9.9999998E-03;  2.2486970E-09;467;  6.4170018E-02;  0.0000000E+00; -2.2607438E-08;  9.9906120E+00;  4.0425122E-01; -8.3461434E-01;3;  1.9682758E-02;  0.0000000E+00; -3.1492673E-06;  0.0000000E+00;  0.0000000E+00;  0.0000000E+00;0;  2.4999537E-02;  9.8109291E+01;  0.0000000E+00; -4.9708891E-16;  1.0000000E+02;  0.0000000E+00;  9.9607666E+01;  2.0572625E-02;  0.0000000E+00;  4.4269115E-03;  0.0000000E+00;
  5.4190516E+00;  9.9999998E-03;  2.0040512E-01;468;  6.4274713E-02;  0.0000000E+00;  1.5193156E-04;  9.9905739E+00;  4.0429175E-01; -8.3800578E-01;3;  5.9771612E-03;  0.0000000E+00;  1.1967540E-02;  0.0000000E+00;  0.0000000E+00;  0.0000000E+00;0;  2.4994396E-02;  9.8092819E+01;  0.0000000E+00; -1.4129350E-03;  1.0000000E+02;  0.0000000E+00;  9.9603462E+01;  2.0598166E-02;  0.0000000E+00;  4.3962304E-03;  0.0000000E+00;
  5.4197640E+00;  9.9999998E-03;  4.0082115E-01;469;  6.4390086E-02;  0.0000000E+00;  4.6774937E-04;  9.9904499E+00;  4.0444136E-01; -8.4902799E-01;3; -3.0747801E-04;  0.0000000E+00;  2.1889871E-02;  0.0000000E+00;  0.0000000E+00;  0.0000000E+00;0;  2.4782047E-02;  9.8029762E+01;  0.0000000E+00; -6.1755637E-03;  1.0000000E+02;  0.0000000E+00;  9.9591591E+01;  2.0546163E-02;  0.0000000E+00;  4.2358832E-03;  0.0000000E+00;
  5.4206815E+00;  9.9999998E-03;  6.0120451E-01;470;  6.4065002E-02;  0.0000000E+00;  1.7565017E-03;  9.9905806E+00;  4.0467590E-01; -8.3742285E-01;3;  1.5650400E-03;  0.0000000E+00;  6.9713295E-02;  0.0000000E+00;  0.0000000E+00;  0.0000000E+00;0;  2.4579706E-02;  9.7926521E+01;  0.0000000E+00; -6.5737944E-03;  1.0000000E+02;  0.0000000E+00;  9.9583900E+01;  2.0124454E-02;  0.0000000E+00;  4.4552512E-03;  0.0000000E+00;
  5.4212437E+00;  9.9999998E-03;  8.0167830E-01;471;  6.1825078E-02;  0.0000000E+00;  5.6468886E-03;  9.9903231E+00;  4.0492469E-01; -8.6031514E-01;3; -8.5619073E-03;  0.0000000E+00;  1.0127137E-01;  0.0000000E+00;  0.0000000E+00;  0.0000000E+00;0;  2.6428062E-02;  9.7826599E+01;  0.0000000E+00;  2.7433088E-02;  1.0000000E+02;  0.0000000E+00;  9.9558357E+01;  1.8163452E-02;  0.0000000E+00;  8.2646105E-03;  0.0000000E+00;
  5.4196854E+00;  9.9999998E-03;  1.0020189E+00;472;  5.8142770E-02;  0.0000000E+00;  6.7786216E-03;  9.9919682E+00;  4.0446991E-01; -7.1405894E-01;3;  4.7777969E-02;  0.0000000E+00;  7.7602305E-02;  0.0000000E+00;  0.0000000E+00;  0.0000000E+00;0;  2.3182210E-02;  9.8065338E+01;  0.0000000E+00;  5.7461895E-02;  1.0000000E+02;  0.0000000E+00;  9.9571922E+01;  1.4538111E-02;  0.0000000E+00;  8.6440975E-03;  0.0000000E+00;
  5.6205626E+00;  9.9999998E-03; -1.4967183E-09;477;  6.4044863E-02;  0.0000000E+00; -2.0296188E-08;  9.9893837E+00;  4.0377313E-01; -9.4382918E-01;3; -2.7653628E-03;  0.0000000E+00;  1.6703270E-06;  0.0000000E+00;  0.0000000E+00;  0.0000000E+00;0;  1.9061787E-02;  9.8281021E+01;  0.0000000E+00;  1.9710012E-15;  1.0000000E+02;  0.0000000E+00;  9.9645119E+01;  1.5082476E-02;  0.0000000E+00;  3.9793118E-03;  0.0000000E+00;
  5.6206832E+00;  9.9999998E-03;  2.0026261E-01;478;  6.4065918E-02;  0.0000000E+00;  6.3685482E-05;  9.9894524E+00;  4.0378889E-01; -9.3773514E-01;3; -2.1557175E-03;  0.0000000E+00;  4.9783499E-03;  0.0000000E+00;  0.0000000E+00;  0.0000000E+00;0;  1.8940344E-02;  9.8273506E+01;  0.0000000E+00; -8.2370400E-04;  1.0000000E+02;  0.0000000E+00;  9.9646225E+01;  1.5002524E-02;  0.0000000E+00;  3.9378218E-03;  0.0000000E+00;
  5.6210551E+00;  9.9999998E-03;  4.0057707E-01;479;  6.4130098E-02;  0.0000000E+00;  5.1999959E-04;  9.9896593E+00;  4.0386251E-01; -9.1934717E-01;3; -2.4643466E-03;  0.0000000E+00;  2.1891536E-02;  0.0000000E+00;  0.0000000E+00;  0.0000000E+00;0;  1.8702077E-02;  9.8240822E+01;  0.0000000E+00; -1.5364531E-03;  1.0000000E+02;  0.0000000E+00;  9.9647194E+01;  1.4805239E-02;  0.0000000E+00;  3.8968385E-03;  0.0000000E+00;
  5.6215839E+00;  9.9999998E-03;  6.0097724E-01;480;  6.3608490E-02;  0.0000000E+00;  1.9171925E-03;  9.9899969E+00;  4.0404132E-01; -8.8930106E-01;3;  4.9473941E-03;  0.0000000E+00;  5.6905545E-02;  0.0000000E+00;  0.0000000E+00;  0.0000000E+00;0;  1.8432802E-02;  9.8170296E+01;  0.0000000E+00;  1.0853086E-02;  1.0000000E+02;  0.0000000E+00;  9.9637566E+01;  1.3937195E-02;  0.0000000E+00;  4.4956063E-03;  0.0000000E+00;
  5.6213322E+00;  9.9999998E-03;  8.0124044E-01;481;  6.0527544E-02;  0.0000000E+00;  5.3216442E-03;  9.9908504E+00;  4.0388203E-01; -8.1341743E-01;3;  1.7753642E-02;  0.0000000E+00;  6.5427251E-02;  0.0000000E+00;  0.0000000E+00;  0.0000000E+00;0;  1.8154880E-02;  9.8234634E+01;  0.0000000E+00;  4.7331352E-02;  1.0000000E+02;  0.0000000E+00;  9.9667664E+01;  9.9556567E-03;  0.0000000E+00;  8.1992233E-03;  0.0000000E+00;
  5.8213372E+00;  9.9999998E-03; -7.1066847E-11;485;  6.3983038E-02;  0.0000000E+00;  1.9589592E-08;  9.9876614E+00;  4.0288743E-01; -1.0969740E+00;3; -1.2445482E-03;  0.0000000E+00;  3.8137659E-07;  0.0000000E+00;  0.0000000E+00;  0.0000000E+00;0;  1.2708634E-02;  9.8636955E+01;  0.0000000E+00;  8.9831857E-16;  1.0000000E+02;  0.0000000E+00;  9.9688301E+01;  9.1970246E-03;  0.0000000E+00;  3.5116090E-03;  0.0000000E+00;
  5.8214102E+00;  9.9999998E-03;  2.0010822E-01;486;  6.3989565E-02;  0.0000000E+00; -8.1596365E-05;  9.9878635E+00;  4.0287769E-01; -1.0790099E+00;3; -3.1994656E-04;  0.0000000E+00;  1.6948367E-03;  0.0000000E+00;  0.0000000E+00;  0.0000000E+00;0;  1.2542861E-02;  9.8635979E+01;  0.0000000E+00;  4.3568885E-04;  1.0000000E+02;  0.0000000E+00;  9.9698380E+01;  9.1313310E-03;  0.0000000E+00;  3.4115294E-03;  0.0000000E+00;
  5.8215494E+00;  9.9999998E-03;  4.0024826E-01;487;  6.3812837E-02;  0.0000000E+00;  1.3944603E-04;  9.9886818E+00;  4.0283266E-01; -1.0062528E+00;3;  2.2106720E-03;  0.0000000E+00;  6.5488592E-03;  0.0000000E+00;  0.0000000E+00;  0.0000000E+00;0;  1.1906964E-02;  9.8643349E+01;  0.0000000E+00;  3.8948585E-03;  1.0000000E+02;  0.0000000E+00;  9.9729240E+01;  8.7277386E-03;  0.0000000E+00;  3.1792254E-03;  0.0000000E+00;
  5.8216047E+00;  9.9999998E-03;  6.0045362E-01;488;  6.2708005E-02;  0.0000000E+00;  2.5413972E-03;  9.9895153E+00;  4.0273044E-01; -9.3211788E-01;3;  1.1453958E-02;  0.0000000E+00;  3.3256989E-02;  0.0000000E+00;  0.0000000E+00;  0.0000000E+00;0;  1.2278372E-02;  9.8667549E+01;  0.0000000E+00;  1.6954333E-02;  1.0000000E+02;  0.0000000E+00;  9.9772125E+01;  7.0156264E-03;  0.0000000E+00;  5.2627455E-03;  0.0000000E+00;
  6.0215583E+00;  9.9999998E-03;  1.7945159E-09;491;  6.3866943E-02;  0.0000000E+00;  5.0812769E-08;  9.9795494E+00;  4.0147543E-01; -1.8181330E+00;3; -1.9585506E-04;  0.0000000E+00;  7.7346340E-07;  0.0000000E+00;  0.0000000E+00;  0.0000000E+00;0;  7.3588197E-03;  9.9126534E+01;  0.0000000E+00; -2.6221959E-15;  1.0000000E+02;  0.0000000E+00;  9.9732864E+01;  4.3173549E-03;  0.0000000E+00;  3.0414648E-03;  0.0000000E+00;
  6.0215874E+00;  9.9999998E-03;  1.9991888E-01;492;  6.3848019E-02;  0.0000000E+00; -4.6869618E-04;  9.9803438E+00;  4.0145409E-01; -1.7475486E+00;3;  3.0876539E-04;  0.0000000E+00; -8.0205500E-04;  0.0000000E+00;  0.0000000E+00;  0.0000000E+00;0;  7.0473002E-03;  9.9126282E+01;  0.0000000E+00; -2.2097821E-03;  1.0000000E+02;  0.0000000E+00;  9.9759537E+01;  4.3135276E-03;  0.0000000E+00;  2.7337724E-03;  0.0000000E+00;
  6.0215545E+00;  9.9999998E-03;  3.9989850E-01;493;  6.3420214E-02;  0.0000000E+00; -1.1163110E-04;  9.9830523E+00;  4.0135953E-01; -1.5067559E+00;3;  2.7630280E-03;  0.0000000E+00;  5.4557994E-04;  0.0000000E+00;  0.0000000E+00;  0.0000000E+00;0;  6.2176511E-03;  9.9154877E+01;  0.0000000E+00; -8.6022960E-03;  1.0000000E+02;  0.0000000E+00;  9.9831795E+01;  3.7155899E-03;  0.0000000E+00;  2.5020612E-03;  0.0000000E+00;
